6
Coordinates from ORCA-job B6_random_3d_seed1000_d3.50_q0_m3_R2SCAN-3C E -147.897136995920
  B       1.095205     -1.103037      2.183902
  B       2.692508     -0.238912     -0.832160
  B      -0.036408     -2.549602     -0.909699
  B      -1.229666      1.305357      1.867344
  B      -0.082656      2.559801     -1.187291
  B      -2.438983      0.026393     -1.122096
6
Coordinates from ORCA-job B6_random_3d_seed1000_d3.50_q0_m3_R2SCAN-3C E -147.906263751620
  B       1.085710     -1.071727      2.158957
  B       2.658531     -0.257236     -0.805416
  B      -0.041114     -2.511460     -0.915252
  B      -1.197379      1.288289      1.850697
  B      -0.107532      2.526913     -1.170188
  B      -2.398217      0.025220     -1.118798
6
Coordinates from ORCA-job B6_random_3d_seed1000_d3.50_q0_m3_R2SCAN-3C E -147.915913841590
  B       1.076850     -1.040795      2.134153
  B       2.624435     -0.275502     -0.778340
  B      -0.045673     -2.473616     -0.920924
  B      -1.164414      1.272472      1.834404
  B      -0.133500      2.492854     -1.152288
  B      -2.357699      0.024586     -1.117005
6
Coordinates from ORCA-job B6_random_3d_seed1000_d3.50_q0_m3_R2SCAN-3C E -147.931400826417
  B       1.064108     -0.995287      2.096555
  B       2.573024     -0.302073     -0.737529
  B      -0.052107     -2.416892     -0.928924
  B      -1.114760      1.249903      1.809694
  B      -0.172827      2.439728     -1.124583
  B      -2.297437      0.024621     -1.115213
6
Coordinates from ORCA-job B6_random_3d_seed1000_d3.50_q0_m3_R2SCAN-3C E -147.956902215447
  B       1.046084     -0.929170      2.038904
  B       2.495247     -0.339859     -0.675674
  B      -0.060988     -2.332053     -0.939656
  B      -1.040551      1.217845      1.771250
  B      -0.230800      2.357639     -1.081854
  B      -2.208992      0.025599     -1.112970
6
Coordinates from ORCA-job B6_random_3d_seed1000_d3.50_q0_m3_R2SCAN-3C E -147.986161658569
  B       1.029059     -0.863378      1.977997
  B       2.414610     -0.376540     -0.609896
  B      -0.069938     -2.245349     -0.950068
  B      -0.963691      1.186812      1.729732
  B      -0.289195      2.272057     -1.036818
  B      -2.120846      0.026399     -1.110947
6
Coordinates from ORCA-job B6_random_3d_seed1000_d3.50_q0_m3_R2SCAN-3C E -148.008258525329
  B       1.019533     -0.820993      1.936706
  B       2.361274     -0.399890     -0.563513
  B      -0.076371     -2.187457     -0.957367
  B      -0.911958      1.166998      1.702986
  B      -0.332482      2.208724     -1.008335
  B      -2.059995      0.032619     -1.110477
6
Coordinates from ORCA-job B6_random_3d_seed1000_d3.50_q0_m3_R2SCAN-3C E -148.043620776123
  B       1.004013     -0.760824      1.873373
  B       2.282237     -0.430107     -0.495361
  B      -0.085423     -2.102275     -0.965635
  B      -0.836945      1.136999      1.659113
  B      -0.388419      2.118808     -0.965550
  B      -1.975463      0.037399     -1.105941
6
Coordinates from ORCA-job B6_random_3d_seed1000_d3.50_q0_m3_R2SCAN-3C E -148.083695523968
  B       0.987631     -0.703665      1.807245
  B       2.205254     -0.454639     -0.426101
  B      -0.095820     -2.018045     -0.971778
  B      -0.763442      1.105682      1.613802
  B      -0.441036      2.026323     -0.925274
  B      -1.892586      0.044344     -1.097894
6
Coordinates from ORCA-job B6_random_3d_seed1000_d3.50_q0_m3_R2SCAN-3C E -148.115417997068
  B       0.976228     -0.665869      1.760131
  B       2.155974     -0.467590     -0.377123
  B      -0.105377     -1.960907     -0.975260
  B      -0.714284      1.082242      1.585000
  B      -0.479472      1.955254     -0.902539
  B      -1.833068      0.056871     -1.090209
6
Coordinates from ORCA-job B6_random_3d_seed1000_d3.50_q0_m3_R2SCAN-3C E -148.138431362042
  B       0.967146     -0.640454      1.727150
  B       2.124662     -0.473917     -0.344216
  B      -0.113223     -1.923280     -0.976951
  B      -0.681959      1.064716      1.566012
  B      -0.503325      1.907323     -0.888919
  B      -1.793301      0.065612     -1.083075
6
Coordinates from ORCA-job B6_random_3d_seed1000_d3.50_q0_m3_R2SCAN-3C E -148.175845902871
  B       0.951961     -0.602360      1.676319
  B       2.078517     -0.480428     -0.294828
  B      -0.126521     -1.866458     -0.978060
  B      -0.633773      1.035586      1.536383
  B      -0.535968      1.835499     -0.869746
  B      -1.734215      0.078160     -1.070069
6
Coordinates from ORCA-job B6_random_3d_seed1000_d3.50_q0_m3_R2SCAN-3C E -148.235818919919
  B       0.923745     -0.545328      1.597660
  B       2.011133     -0.482346     -0.222847
  B      -0.150085     -1.782280     -0.975878
  B      -0.562388      0.985250      1.487983
  B      -0.571286      1.737958     -0.841626
  B      -1.651119      0.086746     -1.045291
6
Coordinates from ORCA-job B6_random_3d_seed1000_d3.50_q0_m3_R2SCAN-3C E -148.304383753305
  B       0.894894     -0.492107      1.517079
  B       1.946620     -0.475112     -0.149983
  B      -0.181475     -1.695382     -0.969768
  B      -0.493455      0.928895      1.435906
  B      -0.600405      1.640592     -0.818132
  B      -1.566179      0.093113     -1.015102
6
Coordinates from ORCA-job B6_random_3d_seed1000_d3.50_q0_m3_R2SCAN-3C E -148.379528406582
  B       0.871514     -0.444832      1.440666
  B       1.881684     -0.461505     -0.074086
  B      -0.218811     -1.599471     -0.957449
  B      -0.421248      0.868124      1.375320
  B      -0.622726      1.548853     -0.792360
  B      -1.490413      0.088832     -0.992092
6
Coordinates from ORCA-job B6_random_3d_seed1000_d3.50_q0_m3_R2SCAN-3C E -148.429302588281
  B       0.854606     -0.410187      1.386443
  B       1.835083     -0.451203     -0.023189
  B      -0.247397     -1.528708     -0.947797
  B      -0.372940      0.824933      1.331660
  B      -0.627267      1.495349     -0.769996
  B      -1.442086      0.069816     -0.977120
6
Coordinates from ORCA-job B6_random_3d_seed1000_d3.50_q0_m3_R2SCAN-3C E -148.460383843578
  B       0.837975     -0.385807      1.351113
  B       1.806710     -0.450473      0.000959
  B      -0.266487     -1.477749     -0.941573
  B      -0.347408      0.803536      1.301717
  B      -0.626487      1.467469     -0.746974
  B      -1.404302      0.043024     -0.965241
6
Coordinates from ORCA-job B6_random_3d_seed1000_d3.50_q0_m3_R2SCAN-3C E -148.505004962173
  B       0.807268     -0.354950      1.303990
  B       1.769654     -0.454801      0.014272
  B      -0.292231     -1.399096     -0.928806
  B      -0.327950      0.784464      1.260659
  B      -0.620617      1.427790     -0.708879
  B      -1.336123     -0.003407     -0.941236
6
Coordinates from ORCA-job B6_random_3d_seed1000_d3.50_q0_m3_R2SCAN-3C E -148.549379431885
  B       0.800159     -0.332610      1.258191
  B       1.697673     -0.477090      0.040153
  B      -0.294214     -1.287790     -0.903322
  B      -0.305003      0.770623      1.172033
  B      -0.635765      1.362469     -0.649094
  B      -1.262850     -0.035602     -0.917961
6
Coordinates from ORCA-job B6_random_3d_seed1000_d3.50_q0_m3_R2SCAN-3C E -148.585618961988
  B       0.753410     -0.308562      1.236278
  B       1.656035     -0.518032      0.011377
  B      -0.246660     -1.221244     -0.862760
  B      -0.299771      0.768167      1.080695
  B      -0.643144      1.324383     -0.574760
  B      -1.219870     -0.044712     -0.890830
6
Coordinates from ORCA-job B6_random_3d_seed1000_d3.50_q0_m3_R2SCAN-3C E -148.615030362183
  B       0.747663     -0.310837      1.220226
  B       1.624627     -0.557313     -0.000258
  B      -0.196523     -1.184293     -0.832999
  B      -0.314049      0.790694      1.001989
  B      -0.651754      1.315308     -0.507887
  B      -1.209964     -0.053560     -0.881071
6
Coordinates from ORCA-job B6_random_3d_seed1000_d3.50_q0_m3_R2SCAN-3C E -148.634143652252
  B       0.748785     -0.314647      1.238396
  B       1.606164     -0.591136     -0.021265
  B      -0.141282     -1.164661     -0.808195
  B      -0.314980      0.796870      0.966897
  B      -0.668980      1.315467     -0.488456
  B      -1.229707     -0.041893     -0.887378
6
Coordinates from ORCA-job B6_random_3d_seed1000_d3.50_q0_m3_R2SCAN-3C E -148.660053476047
  B       0.756128     -0.323010      1.260864
  B       1.559258     -0.633627     -0.045101
  B      -0.075453     -1.100721     -0.764576
  B      -0.303929      0.790274      0.922774
  B      -0.693202      1.314978     -0.475875
  B      -1.242803     -0.047894     -0.898086
6
Coordinates from ORCA-job B6_random_3d_seed1000_d3.50_q0_m3_R2SCAN-3C E -148.687704583054
  B       0.787389     -0.346429      1.298230
  B       1.495199     -0.679684     -0.058450
  B       0.002699     -1.002650     -0.701078
  B      -0.277235      0.759745      0.868849
  B      -0.737548      1.312477     -0.489734
  B      -1.270505     -0.043457     -0.917817
6
Coordinates from ORCA-job B6_random_3d_seed1000_d3.50_q0_m3_R2SCAN-3C E -148.699464140907
  B       0.802068     -0.351765      1.321619
  B       1.449478     -0.698848     -0.049495
  B       0.031472     -0.919668     -0.659996
  B      -0.226932      0.711964      0.821011
  B      -0.761695      1.332165     -0.487252
  B      -1.294391     -0.073847     -0.945887
6
Coordinates from ORCA-job B6_random_3d_seed1000_d3.50_q0_m3_R2SCAN-3C E -148.706060782501
  B       0.838051     -0.375386      1.346875
  B       1.452940     -0.714797     -0.024980
  B       0.022845     -0.847545     -0.634528
  B      -0.207236      0.679232      0.784819
  B      -0.798825      1.315271     -0.516056
  B      -1.307776     -0.056775     -0.956129
6
Coordinates from ORCA-job B6_random_3d_seed1000_d3.50_q0_m3_R2SCAN-3C E -148.710726799655
  B       0.864183     -0.379390      1.367735
  B       1.469820     -0.733441      0.026077
  B       0.001101     -0.760476     -0.610554
  B      -0.150020      0.618046      0.726129
  B      -0.836433      1.314909     -0.518142
  B      -1.348651     -0.059649     -0.991245
6
Coordinates from ORCA-job B6_random_3d_seed1000_d3.50_q0_m3_R2SCAN-3C E -148.711278794205
  B       0.894530     -0.382458      1.432070
  B       1.455128     -0.767427      0.015457
  B       0.005815     -0.701716     -0.609972
  B      -0.128771      0.606144      0.699301
  B      -0.871528      1.316050     -0.523481
  B      -1.355174     -0.070594     -1.013375
6
Coordinates from ORCA-job B6_random_3d_seed1000_d3.50_q0_m3_R2SCAN-3C E -148.711733446289
  B       0.877495     -0.363066      1.390970
  B       1.440302     -0.784336      0.027494
  B       0.029409     -0.697723     -0.593853
  B      -0.123106      0.597364      0.685501
  B      -0.887474      1.298898     -0.506695
  B      -1.336626     -0.051137     -1.003417
6
Coordinates from ORCA-job B6_random_3d_seed1000_d3.50_q0_m3_R2SCAN-3C E -148.713147268501
  B       0.885416     -0.355478      1.381397
  B       1.458263     -0.793760      0.040612
  B       0.027133     -0.740034     -0.617832
  B      -0.128214      0.629057      0.714980
  B      -0.890574      1.314576     -0.488584
  B      -1.352024     -0.054361     -1.030573
6
Coordinates from ORCA-job B6_random_3d_seed1000_d3.50_q0_m3_R2SCAN-3C E -148.713899529918
  B       0.890318     -0.349184      1.395175
  B       1.456470     -0.814573      0.037808
  B       0.023690     -0.720998     -0.624703
  B      -0.124242      0.632695      0.708001
  B      -0.905263      1.311363     -0.483115
  B      -1.340974     -0.059303     -1.033166
6
Coordinates from ORCA-job B6_random_3d_seed1000_d3.50_q0_m3_R2SCAN-3C E -148.714367955308
  B       0.899213     -0.343971      1.397945
  B       1.453093     -0.841446      0.046778
  B       0.032219     -0.701858     -0.623711
  B      -0.115506      0.637205      0.696571
  B      -0.929640      1.308836     -0.472680
  B      -1.339379     -0.058765     -1.044904
6
Coordinates from ORCA-job B6_random_3d_seed1000_d3.50_q0_m3_R2SCAN-3C E -148.714816003957
  B       0.898138     -0.332047      1.386530
  B       1.452638     -0.877496      0.056702
  B       0.044775     -0.692456     -0.630576
  B      -0.108531      0.656905      0.695328
  B      -0.956718      1.302444     -0.454148
  B      -1.330301     -0.057350     -1.053838
6
Coordinates from ORCA-job B6_random_3d_seed1000_d3.50_q0_m3_R2SCAN-3C E -148.715214241198
  B       0.892819     -0.329943      1.370842
  B       1.459506     -0.911438      0.066582
  B       0.059309     -0.678356     -0.629459
  B      -0.100686      0.680996      0.695647
  B      -0.982356      1.297856     -0.441595
  B      -1.328591     -0.059114     -1.062016
6
Coordinates from ORCA-job B6_random_3d_seed1000_d3.50_q0_m3_R2SCAN-3C E -148.716065240600
  B       0.873039     -0.334554      1.338354
  B       1.475815     -0.955484      0.075153
  B       0.079424     -0.657213     -0.618276
  B      -0.089705      0.724206      0.701629
  B      -1.012862      1.287385     -0.427831
  B      -1.325711     -0.064341     -1.069028
6
Coordinates from ORCA-job B6_random_3d_seed1000_d3.50_q0_m3_R2SCAN-3C E -148.716939276144
  B       0.858413     -0.337755      1.314404
  B       1.489537     -0.986615      0.078664
  B       0.090108     -0.637806     -0.600894
  B      -0.081278      0.752005      0.703462
  B      -1.033115      1.278701     -0.417036
  B      -1.323665     -0.068530     -1.078599
6
Coordinates from ORCA-job B6_random_3d_seed1000_d3.50_q0_m3_R2SCAN-3C E -148.717960798516
  B       0.845427     -0.339690      1.288481
  B       1.503105     -1.018994      0.081721
  B       0.098819     -0.617407     -0.577686
  B      -0.072855      0.778783      0.704237
  B      -1.054798      1.268326     -0.404491
  B      -1.319699     -0.071017     -1.092262
6
Coordinates from ORCA-job B6_random_3d_seed1000_d3.50_q0_m3_R2SCAN-3C E -148.719350103129
  B       0.772862     -0.359486      1.174837
  B       1.565454     -1.095995      0.080671
  B       0.113708     -0.552040     -0.480615
  B      -0.054557      0.869511      0.727409
  B      -1.079335      1.229372     -0.379197
  B      -1.318132     -0.091362     -1.123104
6
Coordinates from ORCA-job B6_random_3d_seed1000_d3.50_q0_m3_R2SCAN-3C E -148.721367135027
  B       0.805594     -0.356908      1.213737
  B       1.542711     -1.074658      0.073100
  B       0.095956     -0.548014     -0.496866
  B      -0.059185      0.845588      0.734913
  B      -1.060484      1.230402     -0.395234
  B      -1.324592     -0.096411     -1.129649
6
Coordinates from ORCA-job B6_random_3d_seed1000_d3.50_q0_m3_R2SCAN-3C E -148.722686065507
  B       0.831503     -0.349050      1.239432
  B       1.515406     -1.057744      0.063606
  B       0.078880     -0.535996     -0.502796
  B      -0.057319      0.835632      0.752788
  B      -1.034595      1.207961     -0.403370
  B      -1.333875     -0.100802     -1.149660
6
Coordinates from ORCA-job B6_random_3d_seed1000_d3.50_q0_m3_R2SCAN-3C E -148.725400065612
  B       0.895341     -0.328160      1.286959
  B       1.457067     -1.031816      0.049524
  B       0.032264     -0.492367     -0.503068
  B      -0.038437      0.831063      0.807123
  B      -0.978715      1.128321     -0.411938
  B      -1.367520     -0.107041     -1.228601
6
Coordinates from ORCA-job B6_random_3d_seed1000_d3.50_q0_m3_R2SCAN-3C E -148.726102348026
  B       0.940863     -0.307401      1.307465
  B       1.419502     -1.026591      0.044085
  B      -0.004934     -0.452236     -0.484207
  B      -0.019950      0.832211      0.836958
  B      -0.950556      1.055539     -0.404088
  B      -1.384925     -0.101522     -1.300213
6
Coordinates from ORCA-job B6_random_3d_seed1000_d3.50_q0_m3_R2SCAN-3C E -148.726938678067
  B       0.935004     -0.303130      1.287047
  B       1.433765     -1.053606      0.045811
  B       0.008438     -0.460284     -0.464461
  B      -0.026196      0.839361      0.823973
  B      -0.984266      1.068565     -0.394019
  B      -1.366745     -0.090907     -1.298351
6
Coordinates from ORCA-job B6_random_3d_seed1000_d3.50_q0_m3_R2SCAN-3C E -148.727559241617
  B       0.931958     -0.293726      1.256156
  B       1.436384     -1.082870      0.047514
  B       0.017947     -0.451958     -0.436834
  B      -0.029124      0.850656      0.822756
  B      -1.007829      1.064082     -0.378270
  B      -1.349335     -0.086185     -1.311321
6
Coordinates from ORCA-job B6_random_3d_seed1000_d3.50_q0_m3_R2SCAN-3C E -148.727998068609
  B       0.931458     -0.281663      1.215493
  B       1.433410     -1.125833      0.045790
  B       0.030887     -0.434459     -0.409181
  B      -0.039225      0.874475      0.834167
  B      -1.033008      1.054428     -0.361767
  B      -1.323523     -0.086948     -1.324501
6
Coordinates from ORCA-job B6_random_3d_seed1000_d3.50_q0_m3_R2SCAN-3C E -148.728234433267
  B       0.934782     -0.275881      1.202939
  B       1.429393     -1.139542      0.048842
  B       0.036120     -0.420965     -0.408721
  B      -0.047703      0.873833      0.839933
  B      -1.033972      1.053609     -0.360524
  B      -1.318619     -0.091053     -1.322469
6
Coordinates from ORCA-job B6_random_3d_seed1000_d3.50_q0_m3_R2SCAN-3C E -148.728455251049
  B       0.954827     -0.264355      1.191689
  B       1.417846     -1.159971      0.048939
  B       0.033277     -0.404895     -0.410632
  B      -0.068118      0.873020      0.853184
  B      -1.032983      1.054318     -0.361128
  B      -1.304848     -0.098117     -1.322052
6
Coordinates from ORCA-job B6_random_3d_seed1000_d3.50_q0_m3_R2SCAN-3C E -148.728535599112
  B       0.944561     -0.263505      1.179116
  B       1.427744     -1.171034      0.057853
  B       0.053156     -0.405168     -0.425776
  B      -0.080870      0.866272      0.853657
  B      -1.036775      1.073640     -0.367305
  B      -1.307816     -0.100205     -1.297545
6
Coordinates from ORCA-job B6_random_3d_seed1000_d3.50_q0_m3_R2SCAN-3C E -148.728565129434
  B       0.950126     -0.260851      1.178306
  B       1.427380     -1.173573      0.054805
  B       0.046804     -0.404542     -0.411871
  B      -0.081140      0.863887      0.848899
  B      -1.040660      1.072312     -0.364960
  B      -1.302510     -0.097234     -1.305178
6
Coordinates from ORCA-job B6_random_3d_seed1000_d3.50_q0_m3_R2SCAN-3C E -148.728580945160
  B       0.951847     -0.261913      1.181645
  B       1.427174     -1.170563      0.055078
  B       0.045421     -0.407492     -0.415076
  B      -0.080379      0.864782      0.850687
  B      -1.039169      1.071935     -0.366215
  B      -1.304894     -0.096749     -1.306119
6
Coordinates from ORCA-job B6_random_3d_seed1000_d3.50_q0_m3_R2SCAN-3C E -148.728589019369
  B       0.951946     -0.260880      1.179715
  B       1.427799     -1.170962      0.055334
  B       0.045574     -0.410162     -0.415404
  B      -0.082474      0.864338      0.851695
  B      -1.038865      1.073878     -0.366729
  B      -1.303980     -0.096212     -1.304612
6
Coordinates from ORCA-job B6_random_3d_seed1000_d3.50_q0_m3_R2SCAN-3C E -148.728600154383
  B       0.956521     -0.256948      1.176847
  B       1.427890     -1.173016      0.055871
  B       0.042919     -0.413796     -0.412661
  B      -0.085975      0.862607      0.854044
  B      -1.038992      1.074745     -0.367128
  B      -1.302364     -0.093592     -1.306973
6
Coordinates from ORCA-job B6_random_3d_seed1000_d3.50_q0_m3_R2SCAN-3C E -148.728602679259
  B       0.957334     -0.255225      1.175117
  B       1.428578     -1.173084      0.056212
  B       0.041249     -0.416476     -0.411042
  B      -0.086988      0.861644      0.854237
  B      -1.038681      1.075221     -0.366635
  B      -1.301492     -0.092079     -1.307889
6
Coordinates from ORCA-job B6_random_3d_seed1000_d3.50_q0_m3_R2SCAN-3C E -148.728575834236
  B       0.962334     -0.250528      1.173212
  B       1.422540     -1.181753      0.055201
  B       0.043968     -0.407030     -0.407510
  B      -0.088748      0.862886      0.855327
  B      -1.041863      1.068751     -0.363543
  B      -1.298231     -0.092326     -1.312688
6
Coordinates from ORCA-job B6_random_3d_seed1000_d3.50_q0_m3_R2SCAN-3C E -148.728603844142
  B       0.958456     -0.254355      1.174714
  B       1.427691     -1.174427      0.056468
  B       0.041123     -0.415189     -0.410335
  B      -0.086715      0.862093      0.854505
  B      -1.039480      1.073577     -0.365700
  B      -1.301075     -0.091698     -1.309651
6
Coordinates from ORCA-job B6_random_3d_seed1000_d3.50_q0_m3_R2SCAN-3C E -148.728602885774
  B       0.957199     -0.255005      1.174853
  B       1.428516     -1.173684      0.056981
  B       0.041634     -0.416348     -0.411595
  B      -0.085992      0.862258      0.854246
  B      -1.039868      1.074262     -0.365890
  B      -1.301488     -0.091482     -1.308596
6
Coordinates from ORCA-job B6_random_3d_seed1000_d3.50_q0_m3_R2SCAN-3C E -148.728604247049
  B       0.958585     -0.254309      1.174933
  B       1.427705     -1.173986      0.056745
  B       0.040625     -0.415853     -0.410617
  B      -0.086272      0.862140      0.854320
  B      -1.039595      1.073339     -0.365339
  B      -1.301048     -0.091332     -1.310041
6
Coordinates from ORCA-job B6_random_3d_seed1000_d3.50_q0_m3_R2SCAN-3C E -148.728604371780
  B       0.958806     -0.254091      1.174653
  B       1.427625     -1.174370      0.056911
  B       0.040735     -0.415814     -0.410542
  B      -0.086313      0.862220      0.854452
  B      -1.039943      1.073255     -0.365186
  B      -1.300911     -0.091200     -1.310287
6
Coordinates from ORCA-job B6_random_3d_seed1000_d3.50_q0_m3_R2SCAN-3C E -148.728604797097
  B       0.959417     -0.253269      1.174238
  B       1.426759     -1.175891      0.057287
  B       0.041770     -0.414856     -0.410842
  B      -0.086408      0.862424      0.854535
  B      -1.041106      1.072562     -0.364521
  B      -1.300433     -0.090970     -1.310697
6
Coordinates from ORCA-job B6_random_3d_seed1000_d3.50_q0_m3_R2SCAN-3C E -148.728605353420
  B       0.960670     -0.252274      1.173853
  B       1.425968     -1.176764      0.058144
  B       0.041631     -0.415152     -0.411074
  B      -0.086033      0.862653      0.854520
  B      -1.042438      1.071625     -0.363293
  B      -1.299798     -0.090088     -1.312150
6
Coordinates from ORCA-job B6_random_3d_seed1000_d3.50_q0_m3_R2SCAN-3C E -148.728605538559
  B       0.961017     -0.252194      1.174113
  B       1.425459     -1.176605      0.058182
  B       0.041313     -0.414903     -0.411017
  B      -0.085681      0.862590      0.854209
  B      -1.042606      1.071119     -0.362931
  B      -1.299502     -0.090006     -1.312556
6
Coordinates from ORCA-job B6_random_3d_seed1000_d3.50_q0_m3_R2SCAN-3C E -148.728605548995
  B       0.960999     -0.252172      1.174103
  B       1.425525     -1.176634      0.058225
  B       0.041286     -0.415034     -0.411110
  B      -0.085674      0.862624      0.854189
  B      -1.042686      1.071175     -0.362879
  B      -1.299449     -0.089960     -1.312528
6
Coordinates from ORCA-job B6_random_3d_seed1000_d3.50_q0_m3_R2SCAN-3C E -148.728605548127
  B       0.961009     -0.252140      1.174024
  B       1.425570     -1.176712      0.058270
  B       0.041278     -0.415103     -0.411132
  B      -0.085708      0.862641      0.854176
  B      -1.042789      1.071231     -0.362844
  B      -1.299360     -0.089917     -1.312495
6
Coordinates from ORCA-job B6_random_3d_seed1000_d3.50_q0_m3_R2SCAN-3C E -148.728605549054
  B       0.961057     -0.252098      1.173976
  B       1.425546     -1.176783      0.058286
  B       0.041279     -0.415062     -0.411093
  B      -0.085727      0.862642      0.854184
  B      -1.042832      1.071203     -0.362816
  B      -1.299322     -0.089902     -1.312537
6
Coordinates from ORCA-job B6_random_3d_seed1000_d3.50_q0_m3_R2SCAN-3C E -148.728605485207
  B       0.961495     -0.251793      1.173765
  B       1.425191     -1.177252      0.058372
  B       0.041298     -0.414604     -0.410809
  B      -0.085742      0.862673      0.854279
  B      -1.043121      1.070789     -0.362588
  B      -1.299120     -0.089813     -1.313019
6
Coordinates from ORCA-job B6_random_3d_seed1000_d3.50_q0_m3_R2SCAN-3C E -148.728605547189
  B       0.961097     -0.252076      1.173973
  B       1.425495     -1.176815      0.058282
  B       0.041288     -0.414987     -0.411055
  B      -0.085718      0.862641      0.854198
  B      -1.042838      1.071145     -0.362802
  B      -1.299324     -0.089907     -1.312595
