6
Coordinates from ORCA-job B6_random_3d_seed1000_d3.50_q0_m3_R2SCAN-3C E -148.728605547189
  B           0.96109706481820     -0.25207587411032      1.17397341130049
  B           1.42549517443723     -1.17681498834018      0.05828182808219
  B           0.04128816352567     -0.41498748332438     -0.41105523099140
  B          -0.08571835697449      0.86264096719932      0.85419767258855
  B          -1.04283798826752      1.07114485702970     -0.36280224297080
  B          -1.29932407753910     -0.08990746845413     -1.31259544800903
