6
Coordinates from ORCA-job B6_random_3d_seed1004_d2.00_q0_m5_R2SCAN-3C E -148.669762474344
  B          -0.58145844550886     -0.83618858242139      0.69794105533540
  B           0.77114918548845      0.59344341808026      0.30156346786499
  B           1.01571838403026     -0.89823813277163      0.82348191853651
  B          -1.17110467324302      0.36056633904850     -0.15030826176664
  B          -0.10348578474081      1.37344150573991     -0.78675274322013
  B           0.06918132397398     -0.59302454767565     -0.88592543675014
