6
Coordinates from ORCA-job B6_random_3d_seed1004_d2.00_q0_m5_R2SCAN-3C E -148.478288803295
  B      -0.604804     -0.546986      1.219639
  B       0.936456      0.852195      0.927503
  B       1.032215     -1.074099      0.424382
  B      -1.388134      0.108956     -0.461785
  B       0.012143      1.360731     -0.833349
  B       0.012122     -0.700797     -1.276390
6
Coordinates from ORCA-job B6_random_3d_seed1004_d2.00_q0_m5_R2SCAN-3C E -148.512168066499
  B      -0.597050     -0.542908      1.184599
  B       0.924183      0.814331      0.898594
  B       1.018502     -1.043548      0.426268
  B      -1.361403      0.118907     -0.452975
  B      -0.002012      1.299706     -0.831596
  B       0.017781     -0.646488     -1.224890
6
Coordinates from ORCA-job B6_random_3d_seed1004_d2.00_q0_m5_R2SCAN-3C E -148.542545984415
  B      -0.587996     -0.538934      1.146132
  B       0.913933      0.774272      0.871653
  B       1.007543     -1.012914      0.429623
  B      -1.335079      0.133853     -0.447207
  B      -0.021590      1.245588     -0.828717
  B       0.023188     -0.601865     -1.171484
6
Coordinates from ORCA-job B6_random_3d_seed1004_d2.00_q0_m5_R2SCAN-3C E -148.579788478275
  B      -0.572373     -0.532832      1.081101
  B       0.898052      0.710236      0.829170
  B       0.992594     -0.968919      0.434933
  B      -1.298733      0.164315     -0.437401
  B      -0.058599      1.190196     -0.820951
  B       0.039059     -0.562995     -1.086852
6
Coordinates from ORCA-job B6_random_3d_seed1004_d2.00_q0_m5_R2SCAN-3C E -148.615219277192
  B      -0.551026     -0.525581      0.966555
  B       0.867506      0.620619      0.752070
  B       0.974527     -0.920438      0.440162
  B      -1.252400      0.212691     -0.413451
  B      -0.116216      1.173065     -0.803281
  B       0.077609     -0.560357     -0.942055
6
Coordinates from ORCA-job B6_random_3d_seed1004_d2.00_q0_m5_R2SCAN-3C E -148.628058882939
  B      -0.546733     -0.530665      0.864855
  B       0.825561      0.583491      0.670038
  B       0.983080     -0.932931      0.449133
  B      -1.235707      0.243470     -0.373934
  B      -0.142052      1.204403     -0.801064
  B       0.115851     -0.567768     -0.809028
6
Coordinates from ORCA-job B6_random_3d_seed1004_d2.00_q0_m5_R2SCAN-3C E -148.639010730932
  B      -0.545536     -0.551740      0.828533
  B       0.783359      0.585232      0.617746
  B       1.025990     -0.972274      0.491741
  B      -1.247419      0.276374     -0.346337
  B      -0.139232      1.225047     -0.808401
  B       0.122839     -0.562637     -0.783283
6
Coordinates from ORCA-job B6_random_3d_seed1004_d2.00_q0_m5_R2SCAN-3C E -148.649195458329
  B      -0.564445     -0.594699      0.814902
  B       0.734011      0.613427      0.536784
  B       1.064309     -0.995354      0.539448
  B      -1.270897      0.305074     -0.305305
  B      -0.096303      1.235218     -0.790882
  B       0.133325     -0.563666     -0.794946
6
Coordinates from ORCA-job B6_random_3d_seed1004_d2.00_q0_m5_R2SCAN-3C E -148.652843265132
  B      -0.571207     -0.654530      0.773415
  B       0.686539      0.643841      0.432077
  B       1.078767     -0.997217      0.596446
  B      -1.270988      0.336675     -0.258480
  B      -0.056333      1.252627     -0.755788
  B       0.133223     -0.581397     -0.787670
6
Coordinates from ORCA-job B6_random_3d_seed1004_d2.00_q0_m5_R2SCAN-3C E -148.657900260276
  B      -0.568644     -0.686475      0.778348
  B       0.711858      0.642347      0.436600
  B       1.067109     -0.988749      0.620956
  B      -1.259500      0.339923     -0.257581
  B      -0.071210      1.285220     -0.773797
  B       0.120387     -0.592264     -0.804527
6
Coordinates from ORCA-job B6_random_3d_seed1004_d2.00_q0_m5_R2SCAN-3C E -148.664810785835
  B      -0.568271     -0.750857      0.757529
  B       0.733555      0.635253      0.396097
  B       1.039467     -0.959512      0.683817
  B      -1.219598      0.338821     -0.226671
  B      -0.081152      1.353704     -0.786248
  B       0.095998     -0.617410     -0.824524
6
Coordinates from ORCA-job B6_random_3d_seed1004_d2.00_q0_m5_R2SCAN-3C E -148.668535400684
  B      -0.573649     -0.803600      0.736923
  B       0.737952      0.615520      0.346578
  B       1.018236     -0.920739      0.742859
  B      -1.167885      0.342845     -0.194714
  B      -0.090240      1.402917     -0.784137
  B       0.075587     -0.636942     -0.847509
6
Coordinates from ORCA-job B6_random_3d_seed1004_d2.00_q0_m5_R2SCAN-3C E -148.669303703598
  B      -0.582999     -0.823219      0.724055
  B       0.736806      0.609003      0.320012
  B       1.019221     -0.903702      0.770670
  B      -1.146239      0.352709     -0.181830
  B      -0.095340      1.412363     -0.773516
  B       0.068549     -0.647155     -0.859392
6
Coordinates from ORCA-job B6_random_3d_seed1004_d2.00_q0_m5_R2SCAN-3C E -148.669449229820
  B      -0.587318     -0.823233      0.718457
  B       0.740900      0.604477      0.311100
  B       1.022787     -0.903270      0.778936
  B      -1.146869      0.356492     -0.180207
  B      -0.100765      1.410013     -0.769432
  B       0.071264     -0.644478     -0.858854
6
Coordinates from ORCA-job B6_random_3d_seed1004_d2.00_q0_m5_R2SCAN-3C E -148.669564591641
  B      -0.589676     -0.825547      0.712220
  B       0.748628      0.601503      0.300514
  B       1.024442     -0.903743      0.790113
  B      -1.153133      0.359785     -0.177163
  B      -0.104685      1.408555     -0.766437
  B       0.074423     -0.640553     -0.859247
6
Coordinates from ORCA-job B6_random_3d_seed1004_d2.00_q0_m5_R2SCAN-3C E -148.669654077823
  B      -0.590463     -0.824672      0.706251
  B       0.760180      0.597218      0.294190
  B       1.022779     -0.903114      0.799249
  B      -1.161077      0.360203     -0.173436
  B      -0.109463      1.405318     -0.765044
  B       0.078044     -0.634953     -0.861210
6
Coordinates from ORCA-job B6_random_3d_seed1004_d2.00_q0_m5_R2SCAN-3C E -148.669699090344
  B      -0.588469     -0.826597      0.704242
  B       0.768022      0.596661      0.290057
  B       1.017874     -0.903236      0.806142
  B      -1.167012      0.360842     -0.169072
  B      -0.111508      1.402533     -0.765766
  B       0.081092     -0.630203     -0.865602
6
Coordinates from ORCA-job B6_random_3d_seed1004_d2.00_q0_m5_R2SCAN-3C E -148.669710278688
  B      -0.587991     -0.826150      0.704315
  B       0.769917      0.596207      0.290908
  B       1.015283     -0.902677      0.806309
  B      -1.167600      0.359879     -0.166815
  B      -0.111901      1.400244     -0.767246
  B       0.082292     -0.627504     -0.867471
6
Coordinates from ORCA-job B6_random_3d_seed1004_d2.00_q0_m5_R2SCAN-3C E -148.669717430296
  B      -0.587807     -0.826788      0.704731
  B       0.770088      0.596453      0.291898
  B       1.013699     -0.902506      0.805975
  B      -1.167705      0.359709     -0.164673
  B      -0.111415      1.397548     -0.769296
  B       0.083139     -0.624416     -0.868634
6
Coordinates from ORCA-job B6_random_3d_seed1004_d2.00_q0_m5_R2SCAN-3C E -148.669727653244
  B      -0.588039     -0.828698      0.704460
  B       0.770205      0.597119      0.293971
  B       1.012117     -0.901953      0.805818
  B      -1.168001      0.359981     -0.160495
  B      -0.110073      1.391697     -0.773469
  B       0.083791     -0.618147     -0.870284
6
Coordinates from ORCA-job B6_random_3d_seed1004_d2.00_q0_m5_R2SCAN-3C E -148.669735360710
  B      -0.588333     -0.831235      0.703185
  B       0.770542      0.597576      0.295773
  B       1.011818     -0.901192      0.806921
  B      -1.168543      0.360795     -0.156733
  B      -0.108706      1.386194     -0.777433
  B       0.083222     -0.612139     -0.871713
6
Coordinates from ORCA-job B6_random_3d_seed1004_d2.00_q0_m5_R2SCAN-3C E -148.669742204573
  B      -0.588274     -0.833980      0.701217
  B       0.770952      0.597780      0.297493
  B       1.012567     -0.900289      0.809307
  B      -1.169087      0.361741     -0.153672
  B      -0.107309      1.381554     -0.781002
  B       0.081150     -0.606807     -0.873343
6
Coordinates from ORCA-job B6_random_3d_seed1004_d2.00_q0_m5_R2SCAN-3C E -148.669748365698
  B      -0.587523     -0.836029      0.699311
  B       0.771383      0.597382      0.298718
  B       1.013839     -0.899432      0.812710
  B      -1.169523      0.362336     -0.151977
  B      -0.106247      1.378831     -0.783328
  B       0.078071     -0.603088     -0.875434
6
Coordinates from ORCA-job B6_random_3d_seed1004_d2.00_q0_m5_R2SCAN-3C E -148.669754848018
  B      -0.585752     -0.837275      0.697807
  B       0.771734      0.596311      0.299979
  B       1.015204     -0.898724      0.817158
  B      -1.170148      0.362332     -0.150990
  B      -0.105156      1.376622     -0.785210
  B       0.074119     -0.599266     -0.878744
6
Coordinates from ORCA-job B6_random_3d_seed1004_d2.00_q0_m5_R2SCAN-3C E -148.669760138596
  B      -0.583343     -0.837379      0.697197
  B       0.771834      0.594735      0.301123
  B       1.015974     -0.898265      0.821518
  B      -1.170835      0.361634     -0.150399
  B      -0.104153      1.374576     -0.786585
  B       0.070524     -0.595301     -0.882854
6
Coordinates from ORCA-job B6_random_3d_seed1004_d2.00_q0_m5_R2SCAN-3C E -148.669762234800
  B      -0.581628     -0.836795      0.697450
  B       0.771556      0.593606      0.301644
  B       1.015974     -0.898108      0.823876
  B      -1.171174      0.360800     -0.150144
  B      -0.103504      1.373428     -0.787071
  B       0.068776     -0.592932     -0.885755
6
Coordinates from ORCA-job B6_random_3d_seed1004_d2.00_q0_m5_R2SCAN-3C E -148.669762457689
  B      -0.581347     -0.836387      0.697799
  B       0.771309      0.593358      0.301606
  B       1.015800     -0.898162      0.823943
  B      -1.171173      0.360561     -0.150205
  B      -0.103435      1.373308     -0.786929
  B       0.068846     -0.592677     -0.886214
6
Coordinates from ORCA-job B6_random_3d_seed1004_d2.00_q0_m5_R2SCAN-3C E -148.669762475974
  B      -0.581416     -0.836249      0.697915
  B       0.771207      0.593416      0.301577
  B       1.015738     -0.898210      0.823644
  B      -1.171141      0.360549     -0.150274
  B      -0.103455      1.373384     -0.786806
  B       0.069066     -0.592889     -0.886056
6
Coordinates from ORCA-job B6_random_3d_seed1004_d2.00_q0_m5_R2SCAN-3C E -148.669762474344
  B      -0.581458     -0.836189      0.697941
  B       0.771149      0.593443      0.301563
  B       1.015718     -0.898238      0.823482
  B      -1.171105      0.360566     -0.150308
  B      -0.103486      1.373442     -0.786753
  B       0.069181     -0.593025     -0.885925
