6
Coordinates from ORCA-job B6_random_3d_seed1002_d2.50_q0_m5_R2SCAN-3C E -148.202211797492
  B       0.652946     -0.717572     -1.571801
  B       1.229055      1.526423     -0.453313
  B      -1.263121      0.793521     -1.169817
  B       0.221307     -1.786071      0.627441
  B       0.741602      0.232559      1.738916
  B      -1.581789     -0.048861      0.828573
6
Coordinates from ORCA-job B6_random_3d_seed1002_d2.50_q0_m5_R2SCAN-3C E -148.227906465861
  B       0.635818     -0.698649     -1.537657
  B       1.209450      1.501714     -0.448956
  B      -1.240316      0.773021     -1.141596
  B       0.218186     -1.749397      0.622017
  B       0.722467      0.218524      1.702813
  B      -1.545605     -0.045213      0.803379
6
Coordinates from ORCA-job B6_random_3d_seed1002_d2.50_q0_m5_R2SCAN-3C E -148.254471643315
  B       0.618366     -0.679288     -1.503759
  B       1.189746      1.477437     -0.445177
  B      -1.217064      0.752955     -1.114445
  B       0.215168     -1.712710      0.617590
  B       0.702877      0.203530      1.666835
  B      -1.509093     -0.041924      0.778957
6
Coordinates from ORCA-job B6_random_3d_seed1002_d2.50_q0_m5_R2SCAN-3C E -148.296355998916
  B       0.591750     -0.649411     -1.454080
  B       1.159611      1.441244     -0.440383
  B      -1.180021      0.723731     -1.076391
  B       0.210277     -1.657163      0.612183
  B       0.672668      0.180137      1.613063
  B      -1.454284     -0.038537      0.745609
6
Coordinates from ORCA-job B6_random_3d_seed1002_d2.50_q0_m5_R2SCAN-3C E -148.363977178113
  B       0.549410     -0.603748     -1.382416
  B       1.115655      1.390441     -0.433462
  B      -1.119138      0.677570     -1.018977
  B       0.200962     -1.573190      0.606215
  B       0.628014      0.144775      1.531403
  B      -1.374903     -0.035848      0.697237
6
Coordinates from ORCA-job B6_random_3d_seed1002_d2.50_q0_m5_R2SCAN-3C E -148.436935233785
  B       0.500336     -0.553150     -1.307686
  B       1.072612      1.340952     -0.426689
  B      -1.054251      0.628024     -0.967576
  B       0.191460     -1.483478      0.603633
  B       0.584810      0.103216      1.448744
  B      -1.294967     -0.035564      0.649573
6
Coordinates from ORCA-job B6_random_3d_seed1002_d2.50_q0_m5_R2SCAN-3C E -148.505614929439
  B       0.452857     -0.493066     -1.229714
  B       1.035011      1.287978     -0.425562
  B      -0.993309      0.579292     -0.925464
  B       0.179569     -1.393022      0.602456
  B       0.543141      0.060399      1.369507
  B      -1.217269     -0.041582      0.608777
6
Coordinates from ORCA-job B6_random_3d_seed1002_d2.50_q0_m5_R2SCAN-3C E -148.554851460527
  B       0.429805     -0.421325     -1.139410
  B       1.000661      1.220683     -0.437973
  B      -0.944577      0.542945     -0.879219
  B       0.164129     -1.318421      0.596761
  B       0.505882      0.030717      1.284089
  B      -1.155900     -0.054598      0.575752
6
Coordinates from ORCA-job B6_random_3d_seed1002_d2.50_q0_m5_R2SCAN-3C E -148.583437140031
  B       0.436210     -0.363732     -1.058013
  B       0.940757      1.142459     -0.452041
  B      -0.891117      0.539596     -0.852238
  B       0.136758     -1.301079      0.564791
  B       0.480564      0.055280      1.218627
  B      -1.103171     -0.072524      0.578874
6
Coordinates from ORCA-job B6_random_3d_seed1002_d2.50_q0_m5_R2SCAN-3C E -148.595924403772
  B       0.485159     -0.331308     -0.985758
  B       0.893126      1.075646     -0.466901
  B      -0.890730      0.567258     -0.831962
  B       0.132263     -1.295458      0.553317
  B       0.481635      0.060067      1.154377
  B      -1.101452     -0.076206      0.576927
6
Coordinates from ORCA-job B6_random_3d_seed1002_d2.50_q0_m5_R2SCAN-3C E -148.605518789524
  B       0.499673     -0.346842     -0.936118
  B       0.865194      1.084826     -0.465978
  B      -0.871149      0.585858     -0.821812
  B       0.108163     -1.326299      0.538105
  B       0.492002      0.090379      1.104773
  B      -1.093884     -0.087923      0.581030
6
Coordinates from ORCA-job B6_random_3d_seed1002_d2.50_q0_m5_R2SCAN-3C E -148.621523036761
  B       0.523261     -0.373119     -0.859685
  B       0.837256      1.118740     -0.474375
  B      -0.848054      0.622968     -0.811539
  B       0.073931     -1.381565      0.530023
  B       0.510300      0.125656      1.025445
  B      -1.096694     -0.112680      0.590131
6
Coordinates from ORCA-job B6_random_3d_seed1002_d2.50_q0_m5_R2SCAN-3C E -148.639660383119
  B       0.545567     -0.420130     -0.726011
  B       0.794644      1.157370     -0.478420
  B      -0.816091      0.673882     -0.779843
  B       0.035554     -1.445617      0.506771
  B       0.540183      0.178438      0.897349
  B      -1.099857     -0.143943      0.580154
6
Coordinates from ORCA-job B6_random_3d_seed1002_d2.50_q0_m5_R2SCAN-3C E -148.644332871101
  B       0.571866     -0.453574     -0.653932
  B       0.730274      1.208696     -0.551013
  B      -0.750730      0.747263     -0.747469
  B      -0.015522     -1.472402      0.515377
  B       0.554630      0.179015      0.868812
  B      -1.090517     -0.208999      0.568225
6
Coordinates from ORCA-job B6_random_3d_seed1002_d2.50_q0_m5_R2SCAN-3C E -148.645583007199
  B       0.595097     -0.505410     -0.662176
  B       0.781829      1.249263     -0.570624
  B      -0.807475      0.736530     -0.692873
  B      -0.031530     -1.446112      0.513186
  B       0.596811      0.201765      0.890273
  B      -1.134732     -0.236037      0.522214
6
Coordinates from ORCA-job B6_random_3d_seed1002_d2.50_q0_m5_R2SCAN-3C E -148.647877763105
  B       0.624193     -0.469721     -0.691908
  B       0.766919      1.175873     -0.539594
  B      -0.801899      0.723327     -0.671547
  B      -0.068015     -1.411889      0.511383
  B       0.590290      0.237700      0.867148
  B      -1.111487     -0.255289      0.524518
6
Coordinates from ORCA-job B6_random_3d_seed1002_d2.50_q0_m5_R2SCAN-3C E -148.651078732940
  B       0.626716     -0.472818     -0.665052
  B       0.743733      1.170574     -0.568276
  B      -0.777347      0.753524     -0.661974
  B      -0.028246     -1.441782      0.505527
  B       0.572618      0.221696      0.864839
  B      -1.137474     -0.231194      0.524936
6
Coordinates from ORCA-job B6_random_3d_seed1002_d2.50_q0_m5_R2SCAN-3C E -148.652862300388
  B       0.634191     -0.475482     -0.649248
  B       0.759046      1.180131     -0.603346
  B      -0.786530      0.769690     -0.649791
  B      -0.029297     -1.438883      0.500634
  B       0.559227      0.212054      0.876455
  B      -1.136637     -0.247510      0.525297
6
Coordinates from ORCA-job B6_random_3d_seed1002_d2.50_q0_m5_R2SCAN-3C E -148.654682209976
  B       0.651439     -0.471510     -0.641747
  B       0.769517      1.167992     -0.634580
  B      -0.795932      0.778942     -0.622903
  B      -0.026636     -1.432447      0.491527
  B       0.543351      0.210048      0.888206
  B      -1.141739     -0.253025      0.519497
6
Coordinates from ORCA-job B6_random_3d_seed1002_d2.50_q0_m5_R2SCAN-3C E -148.657052324508
  B       0.671900     -0.470728     -0.626593
  B       0.774035      1.146207     -0.677864
  B      -0.795625      0.801032     -0.583427
  B      -0.021439     -1.422662      0.475855
  B       0.519945      0.214191      0.900834
  B      -1.148816     -0.268040      0.511195
6
Coordinates from ORCA-job B6_random_3d_seed1002_d2.50_q0_m5_R2SCAN-3C E -148.660192363504
  B       0.699258     -0.474357     -0.612878
  B       0.775646      1.129794     -0.740509
  B      -0.783507      0.833854     -0.517098
  B      -0.018676     -1.424032      0.469843
  B       0.485250      0.224908      0.912168
  B      -1.157971     -0.290168      0.488475
6
Coordinates from ORCA-job B6_random_3d_seed1002_d2.50_q0_m5_R2SCAN-3C E -148.664272286064
  B       0.719915     -0.486112     -0.594741
  B       0.776027      1.102931     -0.820607
  B      -0.750859      0.889379     -0.420859
  B      -0.005208     -1.429354      0.463143
  B       0.424784      0.252941      0.918783
  B      -1.164657     -0.329786      0.454281
6
Coordinates from ORCA-job B6_random_3d_seed1002_d2.50_q0_m5_R2SCAN-3C E -148.667123434435
  B       0.726379     -0.481708     -0.596433
  B       0.770870      1.081770     -0.893985
  B      -0.701808      0.937382     -0.327365
  B       0.006192     -1.454942      0.481911
  B       0.363644      0.281764      0.927411
  B      -1.165277     -0.364266      0.408462
6
Coordinates from ORCA-job B6_random_3d_seed1002_d2.50_q0_m5_R2SCAN-3C E -148.668346482704
  B       0.705092     -0.487388     -0.589494
  B       0.771380      1.070008     -0.927278
  B      -0.686055      0.968755     -0.288729
  B       0.026940     -1.471886      0.488030
  B       0.338922      0.297442      0.943165
  B      -1.156280     -0.376930      0.374307
6
Coordinates from ORCA-job B6_random_3d_seed1002_d2.50_q0_m5_R2SCAN-3C E -148.669090567896
  B       0.664466     -0.472683     -0.590355
  B       0.769366      1.062257     -0.946990
  B      -0.679645      0.997438     -0.295089
  B       0.040973     -1.494948      0.504634
  B       0.339372      0.295105      0.984848
  B      -1.134532     -0.387169      0.342952
6
Coordinates from ORCA-job B6_random_3d_seed1002_d2.50_q0_m5_R2SCAN-3C E -148.669343895499
  B       0.661870     -0.483717     -0.594371
  B       0.771315      1.063637     -0.943860
  B      -0.681115      0.995469     -0.292053
  B       0.043990     -1.491310      0.501168
  B       0.325640      0.296558      0.982458
  B      -1.121700     -0.380637      0.346658
6
Coordinates from ORCA-job B6_random_3d_seed1002_d2.50_q0_m5_R2SCAN-3C E -148.669420904193
  B       0.659466     -0.482407     -0.600290
  B       0.776610      1.062520     -0.939993
  B      -0.680910      0.989433     -0.294428
  B       0.045170     -1.486404      0.499004
  B       0.323012      0.297805      0.982882
  B      -1.123348     -0.380948      0.352824
6
Coordinates from ORCA-job B6_random_3d_seed1002_d2.50_q0_m5_R2SCAN-3C E -148.669510550656
  B       0.648845     -0.482970     -0.610902
  B       0.784656      1.066595     -0.933526
  B      -0.676808      0.981298     -0.298451
  B       0.047219     -1.482788      0.500677
  B       0.319831      0.302316      0.984141
  B      -1.123742     -0.384451      0.358061
6
Coordinates from ORCA-job B6_random_3d_seed1002_d2.50_q0_m5_R2SCAN-3C E -148.669545771194
  B       0.638102     -0.482519     -0.616189
  B       0.789729      1.065241     -0.931383
  B      -0.672243      0.980054     -0.297687
  B       0.053171     -1.483935      0.501133
  B       0.313177      0.307324      0.985492
  B      -1.121936     -0.386166      0.358634
6
Coordinates from ORCA-job B6_random_3d_seed1002_d2.50_q0_m5_R2SCAN-3C E -148.669561593940
  B       0.634401     -0.484576     -0.617641
  B       0.791627      1.066721     -0.927252
  B      -0.672334      0.979120     -0.299705
  B       0.054441     -1.485070      0.500867
  B       0.313997      0.310604      0.983953
  B      -1.122133     -0.386800      0.359778
6
Coordinates from ORCA-job B6_random_3d_seed1002_d2.50_q0_m5_R2SCAN-3C E -148.669584599970
  B       0.631544     -0.487288     -0.619028
  B       0.793203      1.067241     -0.921172
  B      -0.672984      0.979105     -0.301047
  B       0.055029     -1.488047      0.499910
  B       0.314108      0.316447      0.979688
  B      -1.120900     -0.387459      0.361649
6
Coordinates from ORCA-job B6_random_3d_seed1002_d2.50_q0_m5_R2SCAN-3C E -148.669638779201
  B       0.627280     -0.494441     -0.621660
  B       0.797414      1.067605     -0.902461
  B      -0.679410      0.977080     -0.306787
  B       0.053801     -1.494846      0.494840
  B       0.318736      0.332559      0.967882
  B      -1.117821     -0.387958      0.368185
6
Coordinates from ORCA-job B6_random_3d_seed1002_d2.50_q0_m5_R2SCAN-3C E -148.669713122195
  B       0.623449     -0.505596     -0.625439
  B       0.803167      1.066747     -0.870379
  B      -0.691440      0.972303     -0.314770
  B       0.047657     -1.505275      0.485333
  B       0.328336      0.361449      0.946560
  B      -1.111169     -0.389628      0.378694
6
Coordinates from ORCA-job B6_random_3d_seed1002_d2.50_q0_m5_R2SCAN-3C E -148.669751581413
  B       0.624539     -0.509936     -0.624302
  B       0.805398      1.064668     -0.855635
  B      -0.699892      0.969239     -0.316776
  B       0.040930     -1.511085      0.478437
  B       0.336064      0.378433      0.935647
  B      -1.107039     -0.391318      0.382630
6
Coordinates from ORCA-job B6_random_3d_seed1002_d2.50_q0_m5_R2SCAN-3C E -148.669764773483
  B       0.628448     -0.507567     -0.621044
  B       0.804099      1.062735     -0.861201
  B      -0.700395      0.969106     -0.313200
  B       0.037816     -1.510993      0.476675
  B       0.336984      0.378917      0.938283
  B      -1.106951     -0.392197      0.380488
6
Coordinates from ORCA-job B6_random_3d_seed1002_d2.50_q0_m5_R2SCAN-3C E -148.669766546677
  B       0.627832     -0.508246     -0.622120
  B       0.804741      1.062940     -0.858379
  B      -0.701011      0.967416     -0.314816
  B       0.037398     -1.511264      0.475579
  B       0.337603      0.380922      0.937546
  B      -1.106564     -0.391768      0.382189
6
Coordinates from ORCA-job B6_random_3d_seed1002_d2.50_q0_m5_R2SCAN-3C E -148.669767355072
  B       0.627507     -0.508121     -0.622417
  B       0.804930      1.063101     -0.858478
  B      -0.700486      0.966916     -0.315267
  B       0.037419     -1.511336      0.475173
  B       0.337029      0.381143      0.938074
  B      -1.106399     -0.391704      0.382915
6
Coordinates from ORCA-job B6_random_3d_seed1002_d2.50_q0_m5_R2SCAN-3C E -148.669768313007
  B       0.627464     -0.507800     -0.622138
  B       0.805110      1.063366     -0.859169
  B      -0.700008      0.966290     -0.315999
  B       0.037120     -1.512089      0.474057
  B       0.336393      0.381705      0.939124
  B      -1.106079     -0.391472      0.384124
6
Coordinates from ORCA-job B6_random_3d_seed1002_d2.50_q0_m5_R2SCAN-3C E -148.669768728937
  B       0.627688     -0.507919     -0.621606
  B       0.805187      1.063381     -0.859121
  B      -0.700120      0.966214     -0.316099
  B       0.036621     -1.513078      0.473149
  B       0.336381      0.382970      0.938966
  B      -1.105758     -0.391567      0.384712
6
Coordinates from ORCA-job B6_random_3d_seed1002_d2.50_q0_m5_R2SCAN-3C E -148.669768866523
  B       0.627849     -0.508182     -0.621221
  B       0.805237      1.063357     -0.858618
  B      -0.700497      0.966282     -0.316073
  B       0.036266     -1.513769      0.472686
  B       0.336724      0.383989      0.938332
  B      -1.105579     -0.391677      0.384894
6
Coordinates from ORCA-job B6_random_3d_seed1002_d2.50_q0_m5_R2SCAN-3C E -148.669768877566
  B       0.627845     -0.508219     -0.621120
  B       0.805256      1.063355     -0.858486
  B      -0.700620      0.966267     -0.316121
  B       0.036203     -1.513869      0.472594
  B       0.336882      0.384158      0.938226
  B      -1.105566     -0.391691      0.384907
