6
Coordinates from ORCA-job B6_random_3d_seed1002_d2.50_q0_m5_R2SCAN-3C E -148.669768877566
  B           0.62784471258513     -0.50821936380614     -0.62111966749684
  B           0.80525612549477      1.06335475463338     -0.85848602478665
  B          -0.70061986153847      0.96626662208651     -0.31612126298345
  B           0.03620302106261     -1.51386938299121      0.47259410126176
  B           0.33688249836960      0.38415812898830      0.93822551907111
  B          -1.10556649597363     -0.39169075891083      0.38490734493406
