6
Coordinates from ORCA-job B6_random_3d_seed1003_d2.20_q0_m1_R2SCAN-3C E -148.633284521867
  B           0.27342839708050      0.42159391385289     -0.84197308213985
  B          -0.67064554607094     -0.59462830538735      1.62686190545085
  B          -0.95159800833178     -0.23711857128268      0.00219212236936
  B           1.72277339760702      0.69418927923735     -0.02316514672313
  B           0.24725611239435      0.54022468774070      0.78061342721257
  B          -0.62121435267915     -0.82426099416091     -1.54452922616981
