6
Coordinates from ORCA-job B6_random_3d_seed1003_d2.20_q0_m1_R2SCAN-3C E -148.320275270116
  B       0.220942      0.995121     -1.354569
  B      -0.164741     -0.949649      1.192565
  B      -1.613539      0.215048     -0.062361
  B       1.743084     -0.140170      0.167877
  B       0.085877      1.124318      1.015819
  B      -0.271623     -1.244667     -0.959331
6
Coordinates from ORCA-job B6_random_3d_seed1003_d2.20_q0_m1_R2SCAN-3C E -148.348583569310
  B       0.223771      0.969497     -1.339112
  B      -0.168047     -0.922586      1.174854
  B      -1.581526      0.197825     -0.060150
  B       1.711943     -0.123370      0.168597
  B       0.093873      1.094688      1.007340
  B      -0.280014     -1.216055     -0.951529
6
Coordinates from ORCA-job B6_random_3d_seed1003_d2.20_q0_m1_R2SCAN-3C E -148.377035330309
  B       0.226610      0.943593     -1.324040
  B      -0.171662     -0.895332      1.158176
  B      -1.549852      0.179935     -0.058293
  B       1.681195     -0.106616      0.169100
  B       0.102209      1.065085      0.999378
  B      -0.288499     -1.186665     -0.944321
6
Coordinates from ORCA-job B6_random_3d_seed1003_d2.20_q0_m1_R2SCAN-3C E -148.419505209440
  B       0.231130      0.904820     -1.304040
  B      -0.177931     -0.853070      1.136082
  B      -1.503577      0.150452     -0.056428
  B       1.636647     -0.081114      0.170322
  B       0.116338      1.019931      0.989629
  B      -0.302607     -1.141019     -0.935565
6
Coordinates from ORCA-job B6_random_3d_seed1003_d2.20_q0_m1_R2SCAN-3C E -148.479212472742
  B       0.236322      0.846410     -1.272825
  B      -0.186352     -0.790606      1.104744
  B      -1.435309      0.107859     -0.053578
  B       1.568064     -0.044523      0.172541
  B       0.138105      0.953061      0.973127
  B      -0.320830     -1.072201     -0.924008
6
Coordinates from ORCA-job B6_random_3d_seed1003_d2.20_q0_m1_R2SCAN-3C E -148.527956570500
  B       0.238484      0.779628     -1.235309
  B      -0.195073     -0.734791      1.073266
  B      -1.366595      0.067683     -0.051604
  B       1.494149     -0.008442      0.172702
  B       0.162043      0.892214      0.953415
  B      -0.333009     -0.996292     -0.912469
6
Coordinates from ORCA-job B6_random_3d_seed1003_d2.20_q0_m1_R2SCAN-3C E -148.555233426395
  B       0.237304      0.700729     -1.182772
  B      -0.205814     -0.702186      1.044113
  B      -1.303925      0.044019     -0.043151
  B       1.411204      0.025990      0.165419
  B       0.187015      0.852253      0.924382
  B      -0.325784     -0.920805     -0.907991
6
Coordinates from ORCA-job B6_random_3d_seed1003_d2.20_q0_m1_R2SCAN-3C E -148.561936612497
  B       0.244987      0.634053     -1.123810
  B      -0.219430     -0.715203      1.035644
  B      -1.281709      0.050882     -0.028652
  B       1.357169      0.049376      0.134187
  B       0.196569      0.855944      0.897612
  B      -0.297586     -0.875053     -0.914982
6
Coordinates from ORCA-job B6_random_3d_seed1003_d2.20_q0_m1_R2SCAN-3C E -148.564395801056
  B       0.274272      0.630826     -1.093150
  B      -0.224939     -0.736220      1.048803
  B      -1.284448      0.055687     -0.031028
  B       1.349660      0.067875      0.104626
  B       0.193289      0.867417      0.889117
  B      -0.307833     -0.885585     -0.918368
6
Coordinates from ORCA-job B6_random_3d_seed1003_d2.20_q0_m1_R2SCAN-3C E -148.567412349489
  B       0.332986      0.615821     -1.048021
  B      -0.246646     -0.776946      1.081195
  B      -1.276933      0.068003     -0.023217
  B       1.356485      0.122684      0.055328
  B       0.180056      0.886316      0.883436
  B      -0.345949     -0.915877     -0.948722
6
Coordinates from ORCA-job B6_random_3d_seed1003_d2.20_q0_m1_R2SCAN-3C E -148.570926452072
  B       0.332445      0.608422     -1.055898
  B      -0.262463     -0.797401      1.099349
  B      -1.258925      0.079138     -0.014883
  B       1.389508      0.150420      0.062434
  B       0.170684      0.890686      0.883069
  B      -0.371249     -0.931264     -0.974071
6
Coordinates from ORCA-job B6_random_3d_seed1003_d2.20_q0_m1_R2SCAN-3C E -148.580317729796
  B       0.307107      0.579371     -1.069968
  B      -0.298791     -0.827853      1.135543
  B      -1.196535      0.102855     -0.000714
  B       1.455397      0.213114      0.089765
  B       0.153466      0.878660      0.870761
  B      -0.420644     -0.946147     -1.025387
6
Coordinates from ORCA-job B6_random_3d_seed1003_d2.20_q0_m1_R2SCAN-3C E -148.587356264382
  B       0.280799      0.554544     -1.072239
  B      -0.324481     -0.833924      1.156045
  B      -1.144399      0.114925      0.004889
  B       1.490884      0.256181      0.108569
  B       0.145897      0.854664      0.857742
  B      -0.448700     -0.946390     -1.055006
6
Coordinates from ORCA-job B6_random_3d_seed1003_d2.20_q0_m1_R2SCAN-3C E -148.594464711338
  B       0.262110      0.530126     -1.060186
  B      -0.353495     -0.834137      1.174546
  B      -1.094317      0.122104      0.003480
  B       1.519270      0.307317      0.118860
  B       0.146723      0.822900      0.844001
  B      -0.480291     -0.948311     -1.080701
6
Coordinates from ORCA-job B6_random_3d_seed1003_d2.20_q0_m1_R2SCAN-3C E -148.603714302668
  B       0.259951      0.496155     -1.029209
  B      -0.402619     -0.844536      1.206587
  B      -1.036964      0.130243     -0.003328
  B       1.560604      0.395378      0.116403
  B       0.155341      0.783360      0.829957
  B      -0.536313     -0.960600     -1.120410
6
Coordinates from ORCA-job B6_random_3d_seed1003_d2.20_q0_m1_R2SCAN-3C E -148.610388793011
  B       0.272689      0.468118     -0.968376
  B      -0.450065     -0.821194      1.225566
  B      -1.005736      0.117249     -0.031004
  B       1.563381      0.477025      0.086792
  B       0.189919      0.714937      0.820952
  B      -0.570188     -0.956135     -1.133930
6
Coordinates from ORCA-job B6_random_3d_seed1003_d2.20_q0_m1_R2SCAN-3C E -148.616892444159
  B       0.323748      0.445028     -0.947163
  B      -0.501548     -0.855784      1.272212
  B      -0.997190      0.124798     -0.022009
  B       1.606365      0.556886      0.052474
  B       0.190034      0.706068      0.824577
  B      -0.621409     -0.976995     -1.180091
6
Coordinates from ORCA-job B6_random_3d_seed1003_d2.20_q0_m1_R2SCAN-3C E -148.619829304946
  B       0.325036      0.419650     -0.926408
  B      -0.542646     -0.856609      1.304013
  B      -0.986600      0.118254     -0.038316
  B       1.635478      0.623055      0.039153
  B       0.217502      0.673558      0.828086
  B      -0.648771     -0.977909     -1.206529
6
Coordinates from ORCA-job B6_random_3d_seed1003_d2.20_q0_m1_R2SCAN-3C E -148.622371418873
  B       0.334374      0.415229     -0.917394
  B      -0.575399     -0.835073      1.331994
  B      -1.010774      0.107574     -0.037999
  B       1.649344      0.654841      0.004494
  B       0.235265      0.627287      0.843195
  B      -0.632810     -0.969858     -1.224290
6
Coordinates from ORCA-job B6_random_3d_seed1003_d2.20_q0_m1_R2SCAN-3C E -148.624547324669
  B       0.324971      0.395137     -0.906835
  B      -0.623318     -0.805192      1.367603
  B      -1.000506      0.094609     -0.028509
  B       1.669483      0.711183     -0.016979
  B       0.258871      0.565354      0.843986
  B      -0.629500     -0.961091     -1.259266
6
Coordinates from ORCA-job B6_random_3d_seed1003_d2.20_q0_m1_R2SCAN-3C E -148.625644641782
  B       0.320032      0.385298     -0.897407
  B      -0.659105     -0.776163      1.394824
  B      -1.000034      0.072254     -0.016628
  B       1.683600      0.750956     -0.025921
  B       0.285771      0.522998      0.838075
  B      -0.630264     -0.955343     -1.292943
6
Coordinates from ORCA-job B6_random_3d_seed1003_d2.20_q0_m1_R2SCAN-3C E -148.626489343490
  B       0.317718      0.378541     -0.886457
  B      -0.686994     -0.744159      1.426088
  B      -0.995258      0.041906     -0.009304
  B       1.693356      0.782225     -0.032832
  B       0.305745      0.486702      0.831897
  B      -0.634567     -0.945214     -1.329393
6
Coordinates from ORCA-job B6_random_3d_seed1003_d2.20_q0_m1_R2SCAN-3C E -148.627645855747
  B       0.315483      0.373278     -0.874786
  B      -0.712133     -0.702347      1.472036
  B      -0.987499     -0.005368     -0.004743
  B       1.701357      0.809054     -0.036786
  B       0.325342      0.453974      0.826428
  B      -0.642550     -0.928591     -1.382148
6
Coordinates from ORCA-job B6_random_3d_seed1003_d2.20_q0_m1_R2SCAN-3C E -148.629147491157
  B       0.313109      0.372998     -0.863761
  B      -0.728270     -0.654580      1.527516
  B      -0.973239     -0.069018     -0.003954
  B       1.703236      0.819852     -0.038585
  B       0.336488      0.434785      0.823650
  B      -0.651324     -0.904037     -1.444867
6
Coordinates from ORCA-job B6_random_3d_seed1003_d2.20_q0_m1_R2SCAN-3C E -148.630658469535
  B       0.309537      0.381323     -0.854409
  B      -0.733650     -0.615295      1.578510
  B      -0.953129     -0.136703     -0.004925
  B       1.701344      0.807450     -0.039936
  B       0.332736      0.439857      0.821127
  B      -0.656837     -0.876632     -1.500368
6
Coordinates from ORCA-job B6_random_3d_seed1003_d2.20_q0_m1_R2SCAN-3C E -148.632009544117
  B       0.299973      0.399408     -0.845986
  B      -0.730355     -0.590334      1.618484
  B      -0.930094     -0.200230     -0.004184
  B       1.702668      0.773386     -0.041150
  B       0.312681      0.467796      0.812847
  B      -0.654873     -0.850026     -1.540011
6
Coordinates from ORCA-job B6_random_3d_seed1003_d2.20_q0_m1_R2SCAN-3C E -148.632714536917
  B       0.283869      0.421610     -0.839913
  B      -0.720120     -0.582022      1.641061
  B      -0.911901     -0.245774     -0.000717
  B       1.710997      0.729988     -0.040414
  B       0.282255      0.506026      0.797458
  B      -0.645099     -0.829829     -1.557475
6
Coordinates from ORCA-job B6_random_3d_seed1003_d2.20_q0_m1_R2SCAN-3C E -148.632848358980
  B       0.279037      0.426406     -0.842434
  B      -0.715319     -0.588311      1.636237
  B      -0.914917     -0.246131      0.002538
  B       1.717334      0.719556     -0.039887
  B       0.273025      0.517339      0.793873
  B      -0.639159     -0.828860     -1.550328
6
Coordinates from ORCA-job B6_random_3d_seed1003_d2.20_q0_m1_R2SCAN-3C E -148.632947916681
  B       0.274947      0.429782     -0.846045
  B      -0.707248     -0.596584      1.626161
  B      -0.923798     -0.240121      0.005244
  B       1.722030      0.710417     -0.037541
  B       0.266397      0.527695      0.792074
  B      -0.632329     -0.831189     -1.539893
6
Coordinates from ORCA-job B6_random_3d_seed1003_d2.20_q0_m1_R2SCAN-3C E -148.633029913697
  B       0.270026      0.434332     -0.847108
  B      -0.696078     -0.600108      1.620519
  B      -0.931571     -0.238455      0.006027
  B       1.723431      0.698088     -0.034232
  B       0.259174      0.538028      0.790049
  B      -0.624983     -0.831885     -1.535256
6
Coordinates from ORCA-job B6_random_3d_seed1003_d2.20_q0_m1_R2SCAN-3C E -148.633148183093
  B       0.264149      0.439227     -0.846125
  B      -0.678660     -0.600366      1.615793
  B      -0.945018     -0.237468      0.005842
  B       1.723043      0.682413     -0.030027
  B       0.250561      0.548136      0.788282
  B      -0.614075     -0.831943     -1.533766
6
Coordinates from ORCA-job B6_random_3d_seed1003_d2.20_q0_m1_R2SCAN-3C E -148.633212579802
  B       0.262097      0.440161     -0.842329
  B      -0.670110     -0.596019      1.618732
  B      -0.950440     -0.240612      0.004347
  B       1.721483      0.676025     -0.028482
  B       0.246588      0.550047      0.786373
  B      -0.609618     -0.829602     -1.538641
6
Coordinates from ORCA-job B6_random_3d_seed1003_d2.20_q0_m1_R2SCAN-3C E -148.633245811029
  B       0.264295      0.435978     -0.839894
  B      -0.670125     -0.593010      1.622655
  B      -0.952214     -0.240239      0.002819
  B       1.720401      0.680534     -0.029326
  B       0.248040      0.544860      0.786430
  B      -0.610397     -0.828124     -1.542684
6
Coordinates from ORCA-job B6_random_3d_seed1003_d2.20_q0_m1_R2SCAN-3C E -148.633264397434
  B       0.266986      0.431443     -0.838591
  B      -0.671949     -0.592666      1.625953
  B      -0.951965     -0.239245      0.001992
  B       1.720628      0.685709     -0.029663
  B       0.249048      0.541497      0.784978
  B      -0.612747     -0.826737     -1.544669
6
Coordinates from ORCA-job B6_random_3d_seed1003_d2.20_q0_m1_R2SCAN-3C E -148.633274384006
  B       0.270074      0.425902     -0.839075
  B      -0.673818     -0.594445      1.626450
  B      -0.952731     -0.235087      0.001714
  B       1.721416      0.692190     -0.029599
  B       0.250302      0.537971      0.784279
  B      -0.615242     -0.826531     -1.543769
6
Coordinates from ORCA-job B6_random_3d_seed1003_d2.20_q0_m1_R2SCAN-3C E -148.633278055898
  B       0.270550      0.424825     -0.839563
  B      -0.673333     -0.595512      1.626045
  B      -0.952685     -0.234671      0.002202
  B       1.722295      0.692616     -0.028290
  B       0.249441      0.539051      0.782878
  B      -0.616269     -0.826308     -1.543272
6
Coordinates from ORCA-job B6_random_3d_seed1003_d2.20_q0_m1_R2SCAN-3C E -148.633280750397
  B       0.271081      0.423706     -0.840572
  B      -0.672105     -0.596384      1.624928
  B      -0.952917     -0.234031      0.002660
  B       1.722990      0.692953     -0.026365
  B       0.248478      0.540111      0.781955
  B      -0.617527     -0.826355     -1.542606
6
Coordinates from ORCA-job B6_random_3d_seed1003_d2.20_q0_m1_R2SCAN-3C E -148.633282391985
  B       0.271674      0.423066     -0.841139
  B      -0.671378     -0.596138      1.624862
  B      -0.952557     -0.234678      0.002758
  B       1.723190      0.693258     -0.024922
  B       0.247980      0.540570      0.781468
  B      -0.618910     -0.826079     -1.543027
6
Coordinates from ORCA-job B6_random_3d_seed1003_d2.20_q0_m1_R2SCAN-3C E -148.633283909178
  B       0.272704      0.422094     -0.841710
  B      -0.670512     -0.595236      1.625549
  B      -0.951872     -0.236061      0.002535
  B       1.723098      0.693790     -0.023287
  B       0.247342      0.540670      0.780941
  B      -0.620761     -0.825257     -1.544027
6
Coordinates from ORCA-job B6_random_3d_seed1003_d2.20_q0_m1_R2SCAN-3C E -148.633284318467
  B       0.273149      0.421807     -0.841827
  B      -0.670448     -0.594881      1.626118
  B      -0.951784     -0.236578      0.002330
  B       1.722912      0.694030     -0.023110
  B       0.247301      0.540464      0.780849
  B      -0.621129     -0.824841     -1.544361
6
Coordinates from ORCA-job B6_random_3d_seed1003_d2.20_q0_m1_R2SCAN-3C E -148.633284488601
  B       0.273446      0.421571     -0.841940
  B      -0.670526     -0.594572      1.626820
  B      -0.951538     -0.237159      0.002176
  B       1.722771      0.694158     -0.023061
  B       0.247179      0.540294      0.780638
  B      -0.621332     -0.824292     -1.544633
6
Coordinates from ORCA-job B6_random_3d_seed1003_d2.20_q0_m1_R2SCAN-3C E -148.633284521867
  B       0.273428      0.421594     -0.841973
  B      -0.670646     -0.594628      1.626862
  B      -0.951598     -0.237119      0.002192
  B       1.722773      0.694189     -0.023165
  B       0.247256      0.540225      0.780613
  B      -0.621214     -0.824261     -1.544529
