6
Coordinates from ORCA-job B6_random_3d_seed1003_d2.50_q0_m5_R2SCAN-3C E -148.645456303010
  B           0.22362087606464      0.68414180143222     -0.92807326783182
  B          -0.22338923783183     -0.68422659446731      0.92808656117568
  B          -1.32287680853046      0.07045000538203     -0.04292855492158
  B           1.32292280825881     -0.07041705346308      0.04306132819889
  B           0.17842719930151      0.86678302377770      0.77253434907258
  B          -0.17870485726267     -0.86673119266156     -0.77268041569374
