6
Coordinates from ORCA-job B6_random_3d_seed1003_d2.50_q0_m5_R2SCAN-3C E -148.182272069051
  B       0.245641      1.128679     -1.521570
  B      -0.188163     -1.082174      1.355884
  B      -1.824643      0.248563     -0.065661
  B       1.957133     -0.171984      0.173575
  B       0.108707      1.284490      1.151563
  B      -0.298675     -1.407574     -1.093792
6
Coordinates from ORCA-job B6_random_3d_seed1003_d2.50_q0_m5_R2SCAN-3C E -148.202445268577
  B       0.236933      1.109349     -1.502809
  B      -0.180821     -1.057538      1.330031
  B      -1.796703      0.242487     -0.068028
  B       1.935686     -0.167362      0.181867
  B       0.107891      1.250078      1.131307
  B      -0.302985     -1.377014     -1.072368
6
Coordinates from ORCA-job B6_random_3d_seed1003_d2.50_q0_m5_R2SCAN-3C E -148.223512840551
  B       0.227803      1.089358     -1.483771
  B      -0.172968     -1.032033      1.304012
  B      -1.769517      0.236078     -0.070992
  B       1.914603     -0.162764      0.190788
  B       0.107788      1.215696      1.111676
  B      -0.307709     -1.346335     -1.051713
6
Coordinates from ORCA-job B6_random_3d_seed1003_d2.50_q0_m5_R2SCAN-3C E -148.256704415987
  B       0.213493      1.058411     -1.454653
  B      -0.160440     -0.993281      1.265226
  B      -1.728787      0.226066     -0.076311
  B       1.881803     -0.155882      0.204719
  B       0.108899      1.165115      1.083247
  B      -0.314969     -1.300429     -1.022228
6
Coordinates from ORCA-job B6_random_3d_seed1003_d2.50_q0_m5_R2SCAN-3C E -148.309552108548
  B       0.190212      1.009798     -1.410287
  B      -0.139428     -0.934764      1.208597
  B      -1.667751      0.210573     -0.086697
  B       1.829639     -0.145873      0.227026
  B       0.113361      1.091418      1.042849
  B      -0.326034     -1.231152     -0.981488
6
Coordinates from ORCA-job B6_random_3d_seed1003_d2.50_q0_m5_R2SCAN-3C E -148.373076636927
  B       0.162962      0.956434     -1.366901
  B      -0.113427     -0.871281      1.153987
  B      -1.607705      0.194514     -0.100986
  B       1.773816     -0.136597      0.253326
  B       0.121582      1.013770      1.005213
  B      -0.337229     -1.156840     -0.944639
6
Coordinates from ORCA-job B6_random_3d_seed1003_d2.50_q0_m5_R2SCAN-3C E -148.442860090574
  B       0.144708      0.906051     -1.328879
  B      -0.101292     -0.818395      1.104212
  B      -1.546091      0.167982     -0.113229
  B       1.719257     -0.121136      0.271290
  B       0.133218      0.936964      0.964083
  B      -0.349799     -1.071467     -0.897477
6
Coordinates from ORCA-job B6_random_3d_seed1003_d2.50_q0_m5_R2SCAN-3C E -148.507974212117
  B       0.132903      0.857438     -1.285884
  B      -0.094728     -0.778921      1.054025
  B      -1.478706      0.139583     -0.122474
  B       1.651065     -0.098680      0.285026
  B       0.152140      0.872432      0.919227
  B      -0.362674     -0.991851     -0.849920
6
Coordinates from ORCA-job B6_random_3d_seed1003_d2.50_q0_m5_R2SCAN-3C E -148.560200891811
  B       0.131561      0.809448     -1.229549
  B      -0.097742     -0.765209      1.001582
  B      -1.411486      0.115909     -0.123364
  B       1.564793     -0.064861      0.291861
  B       0.183343      0.832866      0.865631
  B      -0.370469     -0.928153     -0.806161
6
Coordinates from ORCA-job B6_random_3d_seed1003_d2.50_q0_m5_R2SCAN-3C E -148.602916226811
  B       0.137194      0.752909     -1.151769
  B      -0.109373     -0.764763      0.946131
  B      -1.355582      0.119560     -0.103354
  B       1.474238     -0.029168      0.282258
  B       0.204349      0.811317      0.804125
  B      -0.350826     -0.889855     -0.777392
6
Coordinates from ORCA-job B6_random_3d_seed1003_d2.50_q0_m5_R2SCAN-3C E -148.620979784980
  B       0.157094      0.716645     -1.078298
  B      -0.122819     -0.759775      0.872603
  B      -1.318238      0.136994     -0.059655
  B       1.389793     -0.020312      0.252872
  B       0.193184      0.802092      0.744403
  B      -0.299015     -0.875644     -0.731925
6
Coordinates from ORCA-job B6_random_3d_seed1003_d2.50_q0_m5_R2SCAN-3C E -148.629948676665
  B       0.178946      0.673097     -1.017406
  B      -0.129995     -0.760862      0.859981
  B      -1.289184      0.147056     -0.029715
  B       1.362847     -0.044966      0.195990
  B       0.135462      0.833456      0.723523
  B      -0.258075     -0.847782     -0.732373
6
Coordinates from ORCA-job B6_random_3d_seed1003_d2.50_q0_m5_R2SCAN-3C E -148.635775932920
  B       0.219217      0.611557     -0.954622
  B      -0.147968     -0.753132      0.858767
  B      -1.275537      0.157935      0.016530
  B       1.327607     -0.058372      0.122371
  B       0.081360      0.866148      0.717788
  B      -0.204679     -0.824135     -0.760833
6
Coordinates from ORCA-job B6_random_3d_seed1003_d2.50_q0_m5_R2SCAN-3C E -148.641717212320
  B       0.265051      0.645061     -0.959379
  B      -0.168983     -0.757712      0.892995
  B      -1.324565      0.145941      0.025710
  B       1.335156     -0.037394      0.100610
  B       0.107878      0.893535      0.746089
  B      -0.214536     -0.889430     -0.806026
6
Coordinates from ORCA-job B6_random_3d_seed1003_d2.50_q0_m5_R2SCAN-3C E -148.644046072007
  B       0.271643      0.654800     -0.949917
  B      -0.188009     -0.739496      0.884681
  B      -1.307559      0.115475      0.021440
  B       1.338923     -0.030417      0.096281
  B       0.117230      0.877938      0.735388
  B      -0.232228     -0.878299     -0.787871
6
Coordinates from ORCA-job B6_random_3d_seed1003_d2.50_q0_m5_R2SCAN-3C E -148.644718071107
  B       0.253678      0.647726     -0.964108
  B      -0.180425     -0.724869      0.900501
  B      -1.312271      0.101167      0.001713
  B       1.338587     -0.032129      0.112114
  B       0.137517      0.861896      0.743258
  B      -0.237087     -0.853790     -0.793476
6
Coordinates from ORCA-job B6_random_3d_seed1003_d2.50_q0_m5_R2SCAN-3C E -148.645178326245
  B       0.268391      0.647676     -0.948884
  B      -0.184517     -0.718020      0.903250
  B      -1.316477      0.097096      0.004142
  B       1.331586     -0.033011      0.092214
  B       0.133532      0.866186      0.746162
  B      -0.232515     -0.859926     -0.796885
6
Coordinates from ORCA-job B6_random_3d_seed1003_d2.50_q0_m5_R2SCAN-3C E -148.645228060001
  B       0.267386      0.651475     -0.951238
  B      -0.189477     -0.712228      0.904212
  B      -1.317452      0.093190      0.005669
  B       1.338181     -0.036355      0.090418
  B       0.133224      0.867786      0.751418
  B      -0.231862     -0.863867     -0.800479
6
Coordinates from ORCA-job B6_random_3d_seed1003_d2.50_q0_m5_R2SCAN-3C E -148.645269881321
  B       0.266588      0.652975     -0.948067
  B      -0.186834     -0.709949      0.905626
  B      -1.320721      0.091050      0.001303
  B       1.335716     -0.038740      0.089322
  B       0.136328      0.867713      0.751281
  B      -0.231076     -0.863049     -0.799465
6
Coordinates from ORCA-job B6_random_3d_seed1003_d2.50_q0_m5_R2SCAN-3C E -148.645301337733
  B       0.264075      0.655871     -0.944681
  B      -0.186125     -0.705928      0.907209
  B      -1.322761      0.086122     -0.004012
  B       1.332763     -0.044227      0.086557
  B       0.140544      0.869958      0.753050
  B      -0.228498     -0.861796     -0.798122
6
Coordinates from ORCA-job B6_random_3d_seed1003_d2.50_q0_m5_R2SCAN-3C E -148.645347228411
  B       0.257042      0.663738     -0.938945
  B      -0.186504     -0.696762      0.909921
  B      -1.325049      0.076467     -0.013037
  B       1.326091     -0.057563      0.080868
  B       0.148743      0.874925      0.756974
  B      -0.220323     -0.860805     -0.795780
6
Coordinates from ORCA-job B6_random_3d_seed1003_d2.50_q0_m5_R2SCAN-3C E -148.645377993545
  B       0.249724      0.671251     -0.934606
  B      -0.190960     -0.689379      0.912386
  B      -1.326603      0.066949     -0.020076
  B       1.321356     -0.069697      0.074344
  B       0.157230      0.880335      0.760804
  B      -0.210747     -0.859459     -0.792852
6
Coordinates from ORCA-job B6_random_3d_seed1003_d2.50_q0_m5_R2SCAN-3C E -148.645395728190
  B       0.244608      0.676587     -0.933209
  B      -0.196071     -0.684943      0.914480
  B      -1.327111      0.062388     -0.023003
  B       1.319150     -0.076118      0.069927
  B       0.162464      0.881412      0.762582
  B      -0.203040     -0.859326     -0.790777
6
Coordinates from ORCA-job B6_random_3d_seed1003_d2.50_q0_m5_R2SCAN-3C E -148.645412827537
  B       0.240493      0.680243     -0.933343
  B      -0.203159     -0.683678      0.917159
  B      -1.327454      0.060632     -0.024687
  B       1.319277     -0.078534      0.065126
  B       0.166652      0.880251      0.763419
  B      -0.195808     -0.858915     -0.787674
6
Coordinates from ORCA-job B6_random_3d_seed1003_d2.50_q0_m5_R2SCAN-3C E -148.645429410619
  B       0.236705      0.683488     -0.933721
  B      -0.210301     -0.683481      0.921017
  B      -1.327189      0.061486     -0.026986
  B       1.319396     -0.078832      0.059069
  B       0.169701      0.876282      0.763908
  B      -0.188312     -0.858944     -0.783287
6
Coordinates from ORCA-job B6_random_3d_seed1003_d2.50_q0_m5_R2SCAN-3C E -148.645442523404
  B       0.234067      0.685180     -0.933964
  B      -0.216682     -0.685166      0.925323
  B      -1.326363      0.064360     -0.030330
  B       1.320499     -0.076390      0.052314
  B       0.171404      0.871317      0.764709
  B      -0.182925     -0.859301     -0.778052
6
Coordinates from ORCA-job B6_random_3d_seed1003_d2.50_q0_m5_R2SCAN-3C E -148.645447779156
  B       0.232492      0.685811     -0.933220
  B      -0.219199     -0.685766      0.927823
  B      -1.325311      0.066425     -0.033612
  B       1.320861     -0.074673      0.048056
  B       0.172060      0.868541      0.766065
  B      -0.180903     -0.860338     -0.775112
6
Coordinates from ORCA-job B6_random_3d_seed1003_d2.50_q0_m5_R2SCAN-3C E -148.645450409745
  B       0.231241      0.685595     -0.932184
  B      -0.220051     -0.686042      0.928732
  B      -1.324541      0.067848     -0.036182
  B       1.321491     -0.073244      0.045953
  B       0.172605      0.867490      0.767481
  B      -0.180746     -0.861647     -0.773800
6
Coordinates from ORCA-job B6_random_3d_seed1003_d2.50_q0_m5_R2SCAN-3C E -148.645452307903
  B       0.228298      0.685637     -0.930248
  B      -0.221460     -0.685334      0.929438
  B      -1.323657      0.069009     -0.040043
  B       1.321933     -0.072381      0.043294
  B       0.174523      0.866714      0.769872
  B      -0.179637     -0.863646     -0.772313
6
Coordinates from ORCA-job B6_random_3d_seed1003_d2.50_q0_m5_R2SCAN-3C E -148.645448113627
  B       0.221313      0.688127     -0.926930
  B      -0.228085     -0.683488      0.933168
  B      -1.322410      0.070075     -0.048175
  B       1.322163     -0.072380      0.034777
  B       0.179921      0.863787      0.774225
  B      -0.172902     -0.866122     -0.767065
6
Coordinates from ORCA-job B6_random_3d_seed1003_d2.50_q0_m5_R2SCAN-3C E -148.645453381161
  B       0.223744      0.686359     -0.928274
  B      -0.225998     -0.684441      0.931134
  B      -1.322921      0.070106     -0.044752
  B       1.323011     -0.071085      0.038734
  B       0.178349      0.864859      0.772775
  B      -0.176185     -0.865799     -0.769617
6
Coordinates from ORCA-job B6_random_3d_seed1003_d2.50_q0_m5_R2SCAN-3C E -148.645455603841
  B       0.225475      0.685071     -0.929189
  B      -0.223127     -0.684374      0.928654
  B      -1.323483      0.069282     -0.041427
  B       1.322418     -0.071610      0.043135
  B       0.177266      0.866825      0.771381
  B      -0.178549     -0.865194     -0.772554
6
Coordinates from ORCA-job B6_random_3d_seed1003_d2.50_q0_m5_R2SCAN-3C E -148.645456001928
  B       0.225048      0.684454     -0.928902
  B      -0.223032     -0.684666      0.928388
  B      -1.323155      0.070114     -0.041758
  B       1.322840     -0.070705      0.043346
  B       0.177331      0.866657      0.771631
  B      -0.179032     -0.865853     -0.772705
6
Coordinates from ORCA-job B6_random_3d_seed1003_d2.50_q0_m5_R2SCAN-3C E -148.645456044349
  B       0.223812      0.683056     -0.927928
  B      -0.222279     -0.684695      0.927270
  B      -1.322606      0.071303     -0.042661
  B       1.323317     -0.069434      0.044269
  B       0.177923      0.867089      0.772524
  B      -0.180167     -0.867320     -0.773474
6
Coordinates from ORCA-job B6_random_3d_seed1003_d2.50_q0_m5_R2SCAN-3C E -148.645456283515
  B       0.223920      0.683934     -0.928165
  B      -0.223039     -0.684407      0.927940
  B      -1.322849      0.070591     -0.042661
  B       1.322979     -0.070256      0.043396
  B       0.178100      0.866856      0.772375
  B      -0.179111     -0.866717     -0.772885
6
Coordinates from ORCA-job B6_random_3d_seed1003_d2.50_q0_m5_R2SCAN-3C E -148.645456303010
  B       0.223621      0.684142     -0.928073
  B      -0.223389     -0.684227      0.928087
  B      -1.322877      0.070450     -0.042929
  B       1.322923     -0.070417      0.043061
  B       0.178427      0.866783      0.772534
  B      -0.178705     -0.866731     -0.772680
