6
Coordinates from ORCA-job B6_random_3d_seed1002_d3.00_q0_m5_R2SCAN-3C E -148.669768449462
  B           0.62928863071840     -0.51188542780958     -0.61663599759975
  B           0.81725756579919      1.05791054032714     -0.85510800524403
  B          -0.69168072565585      0.97097077840342     -0.32075908208126
  B           0.02409462835196     -1.51271262596967      0.47449969061098
  B           0.33231525026384      0.38005462380083      0.94132040124792
  B          -1.11127533947754     -0.38433788875215      0.37668299306613
