6
Coordinates from ORCA-job B6_random_3d_seed1002_d3.00_q0_m5_R2SCAN-3C E -148.014353648327
  B       0.805712     -0.858980     -1.891957
  B       1.461707      1.817734     -0.536040
  B      -1.487647      0.972941     -1.421272
  B       0.266812     -2.147028      0.743512
  B       0.866992      0.304322      2.092414
  B      -1.913576     -0.088990      1.013343
6
Coordinates from ORCA-job B6_random_3d_seed1002_d3.00_q0_m5_R2SCAN-3C E -148.030579259578
  B       0.789936     -0.840407     -1.851593
  B       1.448796      1.797724     -0.532351
  B      -1.471307      0.949420     -1.383486
  B       0.265999     -2.114937      0.738735
  B       0.850185      0.288866      2.049347
  B      -1.883610     -0.080667      0.979348
6
Coordinates from ORCA-job B6_random_3d_seed1002_d3.00_q0_m5_R2SCAN-3C E -148.047800156524
  B       0.774435     -0.821901     -1.811020
  B       1.435986      1.778271     -0.528880
  B      -1.455026      0.926025     -1.344999
  B       0.264750     -2.083251      0.734351
  B       0.833529      0.273415      2.005735
  B      -1.853673     -0.072558      0.944813
6
Coordinates from ORCA-job B6_random_3d_seed1002_d3.00_q0_m5_R2SCAN-3C E -148.075635860579
  B       0.751710     -0.794776     -1.751274
  B       1.416068      1.748418     -0.523179
  B      -1.430600      0.890585     -1.286513
  B       0.262378     -2.034792      0.727217
  B       0.808842      0.250778      1.941125
  B      -1.808398     -0.060214      0.892624
6
Coordinates from ORCA-job B6_random_3d_seed1002_d3.00_q0_m5_R2SCAN-3C E -148.120121370571
  B       0.719051     -0.755074     -1.665172
  B       1.385077      1.702621     -0.514408
  B      -1.392419      0.841631     -1.208859
  B       0.257921     -1.960607      0.716082
  B       0.772801      0.217436      1.847507
  B      -1.742432     -0.046007      0.824851
6
Coordinates from ORCA-job B6_random_3d_seed1002_d3.00_q0_m5_R2SCAN-3C E -148.171460798873
  B       0.686040     -0.714108     -1.578172
  B       1.353053      1.656615     -0.506398
  B      -1.351870      0.791292     -1.130231
  B       0.251564     -1.882781      0.705487
  B       0.735204      0.181915      1.751825
  B      -1.673991     -0.032932      0.757489
6
Coordinates from ORCA-job B6_random_3d_seed1002_d3.00_q0_m5_R2SCAN-3C E -148.211089975940
  B       0.663178     -0.686230     -1.519242
  B       1.332680      1.628547     -0.501465
  B      -1.325025      0.752614     -1.067872
  B       0.245604     -1.829907      0.700080
  B       0.709603      0.156437      1.685263
  B      -1.626041     -0.021461      0.703237
6
Coordinates from ORCA-job B6_random_3d_seed1002_d3.00_q0_m5_R2SCAN-3C E -148.238917637842
  B       0.646641     -0.667538     -1.479264
  B       1.320192      1.611350     -0.497421
  B      -1.307459      0.726503     -1.026916
  B       0.241701     -1.794264      0.698002
  B       0.693852      0.138233      1.639583
  B      -1.594927     -0.014284      0.666016
6
Coordinates from ORCA-job B6_random_3d_seed1002_d3.00_q0_m5_R2SCAN-3C E -148.281113527741
  B       0.619586     -0.639100     -1.418797
  B       1.301137      1.584058     -0.489588
  B      -1.280369      0.687733     -0.970112
  B       0.236821     -1.737629      0.694830
  B       0.671332      0.109816      1.571158
  B      -1.548507     -0.004878      0.612508
6
Coordinates from ORCA-job B6_random_3d_seed1002_d3.00_q0_m5_R2SCAN-3C E -148.341777388193
  B       0.574180     -0.591493     -1.321358
  B       1.275090      1.545582     -0.479330
  B      -1.235124      0.632892     -0.898713
  B       0.227875     -1.654457      0.691498
  B       0.638530      0.066176      1.464604
  B      -1.480551      0.001299      0.543299
6
Coordinates from ORCA-job B6_random_3d_seed1002_d3.00_q0_m5_R2SCAN-3C E -148.400209587037
  B       0.533026     -0.536765     -1.219234
  B       1.250457      1.505300     -0.474534
  B      -1.185113      0.587336     -0.848130
  B       0.213961     -1.570687      0.688792
  B       0.600845      0.021419      1.352378
  B      -1.413176     -0.006603      0.500727
6
Coordinates from ORCA-job B6_random_3d_seed1002_d3.00_q0_m5_R2SCAN-3C E -148.443353641219
  B       0.504772     -0.495415     -1.152566
  B       1.233017      1.472644     -0.472017
  B      -1.144689      0.565712     -0.839758
  B       0.203396     -1.512863      0.684687
  B       0.574481     -0.005513      1.280362
  B      -1.370978     -0.024565      0.499293
6
Coordinates from ORCA-job B6_random_3d_seed1002_d3.00_q0_m5_R2SCAN-3C E -148.473182396178
  B       0.485096     -0.465128     -1.112868
  B       1.223083      1.450365     -0.471747
  B      -1.113545      0.559329     -0.858070
  B       0.193322     -1.483206      0.678750
  B       0.559961     -0.014021      1.242098
  B      -1.347917     -0.047339      0.521836
6
Coordinates from ORCA-job B6_random_3d_seed1002_d3.00_q0_m5_R2SCAN-3C E -148.512477815512
  B       0.457583     -0.419685     -1.048206
  B       1.202130      1.411343     -0.470361
  B      -1.063845      0.538434     -0.856586
  B       0.168604     -1.448409      0.657985
  B       0.536280     -0.007071      1.182265
  B      -1.300752     -0.074613      0.534903
6
Coordinates from ORCA-job B6_random_3d_seed1002_d3.00_q0_m5_R2SCAN-3C E -148.562258760688
  B       0.437504     -0.353754     -0.954930
  B       1.160567      1.337631     -0.462827
  B      -0.999288      0.515717     -0.851772
  B       0.126235     -1.405917      0.622020
  B       0.509379      0.021586      1.089696
  B      -1.234398     -0.115264      0.557814
6
Coordinates from ORCA-job B6_random_3d_seed1002_d3.00_q0_m5_R2SCAN-3C E -148.597557851546
  B       0.455627     -0.306231     -0.867207
  B       1.112587      1.254274     -0.449410
  B      -0.967171      0.511529     -0.838379
  B       0.085500     -1.362837      0.586315
  B       0.495566      0.055690      0.993901
  B      -1.182110     -0.152426      0.574780
6
Coordinates from ORCA-job B6_random_3d_seed1002_d3.00_q0_m5_R2SCAN-3C E -148.616614626543
  B       0.485379     -0.275695     -0.779231
  B       1.065622      1.183195     -0.431863
  B      -0.947400      0.524313     -0.838808
  B       0.044938     -1.337152      0.554732
  B       0.515447      0.099505      0.899071
  B      -1.163985     -0.194167      0.596099
6
Coordinates from ORCA-job B6_random_3d_seed1002_d3.00_q0_m5_R2SCAN-3C E -148.623934945510
  B       0.479128     -0.340643     -0.748966
  B       1.024664      1.190133     -0.388706
  B      -0.917519      0.532823     -0.819235
  B       0.005058     -1.325352      0.526133
  B       0.534828      0.154515      0.839252
  B      -1.126159     -0.211476      0.591521
6
Coordinates from ORCA-job B6_random_3d_seed1002_d3.00_q0_m5_R2SCAN-3C E -148.629958888173
  B       0.510020     -0.361626     -0.777460
  B       0.980605      1.183924     -0.394688
  B      -0.889476      0.562740     -0.805369
  B      -0.011045     -1.336409      0.535768
  B       0.539786      0.171483      0.844859
  B      -1.129890     -0.220112      0.596890
6
Coordinates from ORCA-job B6_random_3d_seed1002_d3.00_q0_m5_R2SCAN-3C E -148.637961712636
  B       0.554658     -0.401860     -0.775303
  B       0.908809      1.189622     -0.423833
  B      -0.842319      0.605906     -0.761114
  B      -0.015509     -1.356264      0.536472
  B       0.551320      0.174529      0.840903
  B      -1.156958     -0.211934      0.582874
6
Coordinates from ORCA-job B6_random_3d_seed1002_d3.00_q0_m5_R2SCAN-3C E -148.646975790299
  B       0.616723     -0.441944     -0.767982
  B       0.814539      1.206376     -0.472923
  B      -0.783345      0.657968     -0.703504
  B      -0.050021     -1.363457      0.546744
  B       0.571770      0.161383      0.839294
  B      -1.169666     -0.220326      0.558371
6
Coordinates from ORCA-job B6_random_3d_seed1002_d3.00_q0_m5_R2SCAN-3C E -148.647079341469
  B       0.660057     -0.484152     -0.706141
  B       0.710668      1.198888     -0.503677
  B      -0.738458      0.729884     -0.674158
  B      -0.039169     -1.379109      0.538363
  B       0.621015      0.143019      0.813630
  B      -1.214113     -0.208531      0.531982
6
Coordinates from ORCA-job B6_random_3d_seed1002_d3.00_q0_m5_R2SCAN-3C E -148.649648255558
  B       0.656717     -0.462791     -0.693975
  B       0.776190      1.221270     -0.522113
  B      -0.801329      0.715206     -0.678253
  B      -0.056054     -1.358135      0.546203
  B       0.640830      0.121274      0.826164
  B      -1.216355     -0.236824      0.521974
6
Coordinates from ORCA-job B6_random_3d_seed1002_d3.00_q0_m5_R2SCAN-3C E -148.649470278084
  B       0.638038     -0.466075     -0.737603
  B       0.773257      1.184114     -0.504706
  B      -0.786174      0.705082     -0.658077
  B      -0.053720     -1.337362      0.543328
  B       0.612252      0.154554      0.848211
  B      -1.183653     -0.240313      0.508847
6
Coordinates from ORCA-job B6_random_3d_seed1002_d3.00_q0_m5_R2SCAN-3C E -148.650957675990
  B       0.641369     -0.463087     -0.717423
  B       0.766607      1.202021     -0.525882
  B      -0.772676      0.732845     -0.659799
  B      -0.051109     -1.370850      0.558215
  B       0.612820      0.146877      0.834658
  B      -1.197011     -0.247807      0.510231
6
Coordinates from ORCA-job B6_random_3d_seed1002_d3.00_q0_m5_R2SCAN-3C E -148.651266409150
  B       0.643030     -0.475953     -0.698398
  B       0.763011      1.197076     -0.531981
  B      -0.784229      0.751084     -0.652220
  B      -0.039616     -1.367301      0.553803
  B       0.619561      0.143789      0.832881
  B      -1.201757     -0.248694      0.495915
6
Coordinates from ORCA-job B6_random_3d_seed1002_d3.00_q0_m5_R2SCAN-3C E -148.651703945429
  B       0.639563     -0.477576     -0.690726
  B       0.765232      1.192064     -0.547202
  B      -0.785895      0.771117     -0.634693
  B      -0.038184     -1.373095      0.561443
  B       0.616041      0.149586      0.834102
  B      -1.196757     -0.262096      0.477075
6
Coordinates from ORCA-job B6_random_3d_seed1002_d3.00_q0_m5_R2SCAN-3C E -148.652319830314
  B       0.633474     -0.478689     -0.685106
  B       0.769822      1.181784     -0.566762
  B      -0.788152      0.795120     -0.616038
  B      -0.034556     -1.382388      0.565959
  B       0.607080      0.161201      0.843581
  B      -1.187668     -0.277027      0.458365
6
Coordinates from ORCA-job B6_random_3d_seed1002_d3.00_q0_m5_R2SCAN-3C E -148.652843037680
  B       0.633083     -0.476742     -0.681090
  B       0.771886      1.171435     -0.581691
  B      -0.790844      0.809498     -0.604756
  B      -0.032978     -1.393192      0.564248
  B       0.598526      0.171306      0.853318
  B      -1.179673     -0.282305      0.449971
6
Coordinates from ORCA-job B6_random_3d_seed1002_d3.00_q0_m5_R2SCAN-3C E -148.653746558963
  B       0.630906     -0.479100     -0.672835
  B       0.773793      1.159553     -0.604405
  B      -0.792599      0.833246     -0.586916
  B      -0.030265     -1.405740      0.561256
  B       0.584508      0.185098      0.866173
  B      -1.166343     -0.293057      0.436727
6
Coordinates from ORCA-job B6_random_3d_seed1002_d3.00_q0_m5_R2SCAN-3C E -148.655483821914
  B       0.627357     -0.480702     -0.661827
  B       0.776031      1.139960     -0.638527
  B      -0.792846      0.866114     -0.557152
  B      -0.023950     -1.424886      0.557464
  B       0.560202      0.205284      0.884341
  B      -1.146794     -0.305769      0.415700
6
Coordinates from ORCA-job B6_random_3d_seed1002_d3.00_q0_m5_R2SCAN-3C E -148.658690918690
  B       0.620408     -0.487058     -0.647689
  B       0.778864      1.111501     -0.688032
  B      -0.786578      0.913621     -0.509250
  B      -0.012695     -1.451089      0.550241
  B       0.516484      0.238280      0.908228
  B      -1.116483     -0.325255      0.386503
6
Coordinates from ORCA-job B6_random_3d_seed1002_d3.00_q0_m5_R2SCAN-3C E -148.662314151594
  B       0.612817     -0.495478     -0.639249
  B       0.784552      1.083937     -0.736514
  B      -0.769997      0.952330     -0.454336
  B       0.002392     -1.475492      0.539656
  B       0.459356      0.276123      0.926812
  B      -1.089120     -0.341420      0.363630
6
Coordinates from ORCA-job B6_random_3d_seed1002_d3.00_q0_m5_R2SCAN-3C E -148.667721185926
  B       0.622498     -0.518742     -0.640250
  B       0.805202      1.066487     -0.812283
  B      -0.709811      0.967881     -0.376573
  B       0.030043     -1.509009      0.489164
  B       0.325246      0.337823      0.940792
  B      -1.073177     -0.344441      0.399149
6
Coordinates from ORCA-job B6_random_3d_seed1002_d3.00_q0_m5_R2SCAN-3C E -148.668205887574
  B       0.616692     -0.527783     -0.614482
  B       0.822840      1.069480     -0.857570
  B      -0.667241      0.950387     -0.320785
  B       0.032407     -1.490280      0.454973
  B       0.329005      0.392871      0.949884
  B      -1.133703     -0.394675      0.387980
6
Coordinates from ORCA-job B6_random_3d_seed1002_d3.00_q0_m5_R2SCAN-3C E -148.668342932487
  B       0.611885     -0.490725     -0.620807
  B       0.823469      1.017457     -0.872142
  B      -0.683558      0.979392     -0.293455
  B       0.040346     -1.512447      0.470090
  B       0.313380      0.398236      0.961204
  B      -1.105522     -0.391913      0.355109
6
Coordinates from ORCA-job B6_random_3d_seed1002_d3.00_q0_m5_R2SCAN-3C E -148.669008785141
  B       0.630102     -0.506951     -0.631413
  B       0.818894      1.082006     -0.840801
  B      -0.702381      0.963644     -0.342416
  B       0.019232     -1.513821      0.504364
  B       0.352313      0.350265      0.933268
  B      -1.118160     -0.375143      0.376999
6
Coordinates from ORCA-job B6_random_3d_seed1002_d3.00_q0_m5_R2SCAN-3C E -148.669240781730
  B       0.616112     -0.528251     -0.619727
  B       0.816180      1.064082     -0.858184
  B      -0.682991      0.986139     -0.308519
  B       0.027659     -1.508562      0.484198
  B       0.319415      0.382234      0.938925
  B      -1.096375     -0.395643      0.363307
6
Coordinates from ORCA-job B6_random_3d_seed1002_d3.00_q0_m5_R2SCAN-3C E -148.669614926940
  B       0.625592     -0.508109     -0.623902
  B       0.823398      1.051305     -0.856042
  B      -0.685095      0.960985     -0.322375
  B       0.031369     -1.501398      0.466324
  B       0.324917      0.381396      0.950060
  B      -1.120181     -0.384179      0.385935
6
Coordinates from ORCA-job B6_random_3d_seed1002_d3.00_q0_m5_R2SCAN-3C E -148.669703377627
  B       0.622321     -0.509568     -0.624516
  B       0.818491      1.059245     -0.854206
  B      -0.690707      0.973254     -0.318930
  B       0.028544     -1.511967      0.487624
  B       0.332199      0.373433      0.942263
  B      -1.110849     -0.384396      0.367766
6
Coordinates from ORCA-job B6_random_3d_seed1002_d3.00_q0_m5_R2SCAN-3C E -148.669754442997
  B       0.624143     -0.512424     -0.623449
  B       0.819774      1.058206     -0.855020
  B      -0.689127      0.971340     -0.321266
  B       0.028025     -1.507889      0.478721
  B       0.327657      0.376221      0.944837
  B      -1.110472     -0.385453      0.376178
6
Coordinates from ORCA-job B6_random_3d_seed1002_d3.00_q0_m5_R2SCAN-3C E -148.669757542248
  B       0.623686     -0.511590     -0.622800
  B       0.819832      1.057459     -0.855747
  B      -0.687481      0.970233     -0.319422
  B       0.028879     -1.509005      0.478002
  B       0.326834      0.377975      0.944263
  B      -1.111750     -0.385071      0.375703
6
Coordinates from ORCA-job B6_random_3d_seed1002_d3.00_q0_m5_R2SCAN-3C E -148.669759926578
  B       0.623894     -0.511227     -0.622291
  B       0.819417      1.057268     -0.855606
  B      -0.688658      0.970639     -0.320331
  B       0.028287     -1.509128      0.478125
  B       0.328374      0.377507      0.944977
  B      -1.111315     -0.385059      0.375127
6
Coordinates from ORCA-job B6_random_3d_seed1002_d3.00_q0_m5_R2SCAN-3C E -148.669761867814
  B       0.624630     -0.511312     -0.621620
  B       0.819221      1.057658     -0.855639
  B      -0.689195      0.970859     -0.320739
  B       0.027540     -1.509708      0.477804
  B       0.328757      0.377502      0.944601
  B      -1.110953     -0.384998      0.375594
6
Coordinates from ORCA-job B6_random_3d_seed1002_d3.00_q0_m5_R2SCAN-3C E -148.669766239601
  B       0.626921     -0.511338     -0.618794
  B       0.818204      1.058216     -0.855838
  B      -0.690511      0.971014     -0.321368
  B       0.025372     -1.511611      0.476096
  B       0.330549      0.378427      0.943469
  B      -1.110536     -0.384709      0.376435
6
Coordinates from ORCA-job B6_random_3d_seed1002_d3.00_q0_m5_R2SCAN-3C E -148.669767955044
  B       0.628653     -0.511387     -0.616811
  B       0.817483      1.058304     -0.855849
  B      -0.691241      0.970832     -0.321303
  B       0.024076     -1.512771      0.474704
  B       0.331772      0.379436      0.942338
  B      -1.110744     -0.384413      0.376922
6
Coordinates from ORCA-job B6_random_3d_seed1002_d3.00_q0_m5_R2SCAN-3C E -148.669768295129
  B       0.629151     -0.511529     -0.616405
  B       0.817247      1.058132     -0.855673
  B      -0.691392      0.970809     -0.320975
  B       0.023911     -1.512900      0.474404
  B       0.332126      0.379840      0.941813
  B      -1.111044     -0.384351      0.376837
6
Coordinates from ORCA-job B6_random_3d_seed1002_d3.00_q0_m5_R2SCAN-3C E -148.669768384398
  B       0.629274     -0.511677     -0.616465
  B       0.817219      1.058004     -0.855463
  B      -0.691499      0.970863     -0.320806
  B       0.023993     -1.512789      0.474427
  B       0.332236      0.379941      0.941577
  B      -1.111222     -0.384341      0.376730
6
Coordinates from ORCA-job B6_random_3d_seed1002_d3.00_q0_m5_R2SCAN-3C E -148.669768417908
  B       0.629417     -0.511892     -0.616543
  B       0.817177      1.057893     -0.855063
  B      -0.691715      0.970986     -0.320673
  B       0.024039     -1.512709      0.474515
  B       0.332452      0.380070      0.941157
  B      -1.111371     -0.384348      0.376606
6
Coordinates from ORCA-job B6_random_3d_seed1002_d3.00_q0_m5_R2SCAN-3C E -148.669768449462
  B       0.629289     -0.511885     -0.616636
  B       0.817258      1.057911     -0.855108
  B      -0.691681      0.970971     -0.320759
  B       0.024095     -1.512713      0.474500
  B       0.332315      0.380055      0.941320
  B      -1.111275     -0.384338      0.376683
