6
Coordinates from ORCA-job B6_random_3d_seed1000_d2.50_q0_m1_R2SCAN-3C E -148.158791571710
  B       0.769497     -0.791239      1.567437
  B       1.974748     -0.208730     -0.572847
  B      -0.037640     -1.822347     -0.676393
  B      -0.858908      0.904332      1.333443
  B      -0.103949      1.877160     -0.845414
  B      -1.743748      0.040824     -0.806226
6
Coordinates from ORCA-job B6_random_3d_seed1000_d2.50_q0_m1_R2SCAN-3C E -148.188151532991
  B       0.754182     -0.756206      1.541615
  B       1.938082     -0.217112     -0.554252
  B      -0.044548     -1.786245     -0.678047
  B      -0.826551      0.885776      1.313338
  B      -0.115894      1.839788     -0.820864
  B      -1.705271      0.034000     -0.801791
6
Coordinates from ORCA-job B6_random_3d_seed1000_d2.50_q0_m1_R2SCAN-3C E -148.219201693912
  B       0.739141     -0.721028      1.515917
  B       1.901619     -0.226080     -0.535294
  B      -0.051391     -1.750083     -0.680041
  B      -0.793861      0.867513      1.293314
  B      -0.128616      1.802361     -0.796133
  B      -1.666893      0.027317     -0.797763
6
Coordinates from ORCA-job B6_random_3d_seed1000_d2.50_q0_m1_R2SCAN-3C E -148.268690713269
  B       0.717504     -0.669125      1.477238
  B       1.846678     -0.240070     -0.506407
  B      -0.061239     -1.695218     -0.682925
  B      -0.745206      0.840961      1.262959
  B      -0.148378      1.745808     -0.758944
  B      -1.609360      0.017643     -0.791921
6
Coordinates from ORCA-job B6_random_3d_seed1000_d2.50_q0_m1_R2SCAN-3C E -148.348721003578
  B       0.688239     -0.594506      1.418789
  B       1.763390     -0.262769     -0.462108
  B      -0.074598     -1.610973     -0.686722
  B      -0.674455      0.804149      1.216452
  B      -0.179873      1.659892     -0.703041
  B      -1.522702      0.004207     -0.783370
6
Coordinates from ORCA-job B6_random_3d_seed1000_d2.50_q0_m1_R2SCAN-3C E -148.436094579327
  B       0.661735     -0.520505      1.357137
  B       1.677784     -0.290546     -0.414360
  B      -0.085702     -1.522475     -0.690283
  B      -0.603615      0.769916      1.166465
  B      -0.217007      1.570822     -0.644428
  B      -1.433194     -0.007213     -0.774530
6
Coordinates from ORCA-job B6_random_3d_seed1000_d2.50_q0_m1_R2SCAN-3C E -148.521030368519
  B       0.644636     -0.457333      1.294186
  B       1.592041     -0.325163     -0.365650
  B      -0.091204     -1.430312     -0.691259
  B      -0.542494      0.745394      1.113091
  B      -0.260014      1.482468     -0.585902
  B      -1.342964     -0.015055     -0.764466
6
Coordinates from ORCA-job B6_random_3d_seed1000_d2.50_q0_m1_R2SCAN-3C E -148.594849661181
  B       0.648931     -0.416167      1.230132
  B       1.509818     -0.380377     -0.315225
  B      -0.082925     -1.334129     -0.688379
  B      -0.502819      0.742980      1.055061
  B      -0.319944      1.403122     -0.528088
  B      -1.253061     -0.015430     -0.753502
6
Coordinates from ORCA-job B6_random_3d_seed1000_d2.50_q0_m1_R2SCAN-3C E -148.642403286893
  B       0.653422     -0.394065      1.162887
  B       1.434346     -0.449317     -0.276607
  B      -0.056202     -1.237604     -0.669286
  B      -0.480369      0.745041      1.002499
  B      -0.381397      1.354144     -0.482415
  B      -1.169801     -0.018199     -0.737077
6
Coordinates from ORCA-job B6_random_3d_seed1000_d2.50_q0_m1_R2SCAN-3C E -148.662272361425
  B       0.634450     -0.381668      1.106484
  B       1.388635     -0.542915     -0.269420
  B       0.004174     -1.164877     -0.629748
  B      -0.466540      0.733177      0.975778
  B      -0.448826      1.378960     -0.466696
  B      -1.111892     -0.022678     -0.716398
6
Coordinates from ORCA-job B6_random_3d_seed1000_d2.50_q0_m1_R2SCAN-3C E -148.669567188942
  B       0.650570     -0.391797      1.065719
  B       1.426566     -0.605806     -0.233206
  B       0.001783     -1.144574     -0.618652
  B      -0.471310      0.745807      0.935610
  B      -0.516447      1.413596     -0.443549
  B      -1.091161     -0.017226     -0.705923
6
Coordinates from ORCA-job B6_random_3d_seed1000_d2.50_q0_m1_R2SCAN-3C E -148.676780889248
  B       0.643858     -0.387398      1.065708
  B       1.458372     -0.660687     -0.235664
  B       0.014732     -1.133524     -0.613091
  B      -0.467846      0.742908      0.935885
  B      -0.569958      1.440581     -0.450716
  B      -1.079158     -0.001879     -0.702123
6
Coordinates from ORCA-job B6_random_3d_seed1000_d2.50_q0_m1_R2SCAN-3C E -148.680676955661
  B       0.642648     -0.382349      1.058824
  B       1.474783     -0.694842     -0.228040
  B       0.024618     -1.133795     -0.612058
  B      -0.460711      0.743151      0.935231
  B      -0.601814      1.471898     -0.447064
  B      -1.079524     -0.004063     -0.706894
6
Coordinates from ORCA-job B6_random_3d_seed1000_d2.50_q0_m1_R2SCAN-3C E -148.685882454235
  B       0.648374     -0.379151      1.048412
  B       1.504572     -0.752450     -0.213155
  B       0.035087     -1.126401     -0.611575
  B      -0.456091      0.749895      0.924901
  B      -0.660510      1.496080     -0.439797
  B      -1.071431      0.012028     -0.708787
6
Coordinates from ORCA-job B6_random_3d_seed1000_d2.50_q0_m1_R2SCAN-3C E -148.691919780846
  B       0.654817     -0.367659      1.032473
  B       1.532272     -0.833538     -0.189958
  B       0.037633     -1.095504     -0.614714
  B      -0.441356      0.757172      0.913472
  B      -0.742582      1.527543     -0.426510
  B      -1.040784      0.011986     -0.714762
6
Coordinates from ORCA-job B6_random_3d_seed1000_d2.50_q0_m1_R2SCAN-3C E -148.698786326106
  B       0.671758     -0.352959      0.995599
  B       1.540160     -0.935517     -0.144907
  B       0.084504     -1.087757     -0.615242
  B      -0.417241      0.773595      0.885965
  B      -0.849681      1.560806     -0.391358
  B      -1.029499      0.041831     -0.730058
6
Coordinates from ORCA-job B6_random_3d_seed1000_d2.50_q0_m1_R2SCAN-3C E -148.704499371078
  B       0.693544     -0.330480      0.987124
  B       1.567217     -1.038762     -0.108813
  B       0.094370     -1.067100     -0.636908
  B      -0.399099      0.799441      0.869804
  B      -0.950219      1.575247     -0.360620
  B      -1.005813      0.061654     -0.750587
6
Coordinates from ORCA-job B6_random_3d_seed1000_d2.50_q0_m1_R2SCAN-3C E -148.706655952356
  B       0.724967     -0.334903      0.964647
  B       1.574784     -1.108866     -0.068351
  B       0.108074     -1.044630     -0.641464
  B      -0.379162      0.805129      0.864913
  B      -1.040835      1.596153     -0.359679
  B      -0.987828      0.087117     -0.760067
6
Coordinates from ORCA-job B6_random_3d_seed1000_d2.50_q0_m1_R2SCAN-3C E -148.708578838222
  B       0.722937     -0.317954      0.959048
  B       1.579330     -1.163673     -0.060402
  B       0.131126     -1.037583     -0.645373
  B      -0.378095      0.824639      0.836708
  B      -1.082059      1.601604     -0.327200
  B      -0.973239      0.092968     -0.762781
6
Coordinates from ORCA-job B6_random_3d_seed1000_d2.50_q0_m1_R2SCAN-3C E -148.709698357804
  B       0.733080     -0.300739      0.947499
  B       1.575368     -1.202708     -0.030880
  B       0.137719     -1.027000     -0.659687
  B      -0.356817      0.828179      0.825017
  B      -1.124926      1.593337     -0.307146
  B      -0.964425      0.108930     -0.774802
6
Coordinates from ORCA-job B6_random_3d_seed1000_d2.50_q0_m1_R2SCAN-3C E -148.710633021722
  B       0.762759     -0.292252      0.942371
  B       1.557888     -1.264387     -0.003365
  B       0.158794     -1.007245     -0.675122
  B      -0.339398      0.851794      0.815876
  B      -1.195535      1.589175     -0.287023
  B      -0.944509      0.122914     -0.792737
6
Coordinates from ORCA-job B6_random_3d_seed1000_d2.50_q0_m1_R2SCAN-3C E -148.711105155355
  B       0.769087     -0.280035      0.929327
  B       1.542950     -1.296234      0.018862
  B       0.171796     -0.989997     -0.680993
  B      -0.323449      0.857779      0.797205
  B      -1.228119      1.575489     -0.264390
  B      -0.932265      0.132998     -0.800011
6
Coordinates from ORCA-job B6_random_3d_seed1000_d2.50_q0_m1_R2SCAN-3C E -148.711218033166
  B       0.777641     -0.273198      0.925416
  B       1.532469     -1.318491      0.034816
  B       0.182022     -0.980190     -0.688510
  B      -0.310640      0.864322      0.787916
  B      -1.252781      1.567651     -0.250182
  B      -0.928710      0.139906     -0.809455
6
Coordinates from ORCA-job B6_random_3d_seed1000_d2.50_q0_m1_R2SCAN-3C E -148.711255837892
  B       0.783641     -0.271879      0.921827
  B       1.526602     -1.336392      0.045700
  B       0.189843     -0.968100     -0.690537
  B      -0.301650      0.868085      0.777926
  B      -1.272662      1.563031     -0.242182
  B      -0.925775      0.145255     -0.812733
6
Coordinates from ORCA-job B6_random_3d_seed1000_d2.50_q0_m1_R2SCAN-3C E -148.711296148202
  B       0.788592     -0.271026      0.925115
  B       1.518920     -1.347375      0.053574
  B       0.196097     -0.955987     -0.695011
  B      -0.291286      0.871652      0.769434
  B      -1.284746      1.555972     -0.235570
  B      -0.927577      0.146763     -0.817543
6
Coordinates from ORCA-job B6_random_3d_seed1000_d2.50_q0_m1_R2SCAN-3C E -148.711467667103
  B       0.800294     -0.274362      0.937072
  B       1.501883     -1.375995      0.073858
  B       0.215385     -0.917261     -0.702098
  B      -0.261551      0.876915      0.738799
  B      -1.316239      1.540988     -0.219018
  B      -0.939772      0.149714     -0.828613
6
Coordinates from ORCA-job B6_random_3d_seed1000_d2.50_q0_m1_R2SCAN-3C E -148.711720522012
  B       0.807064     -0.280667      0.949214
  B       1.490168     -1.392552      0.086321
  B       0.229434     -0.884129     -0.703725
  B      -0.238615      0.877172      0.712169
  B      -1.334726      1.530573     -0.208980
  B      -0.953325      0.149603     -0.834999
6
Coordinates from ORCA-job B6_random_3d_seed1000_d2.50_q0_m1_R2SCAN-3C E -148.712065537765
  B       0.806566     -0.289494      0.960371
  B       1.485358     -1.394426      0.090146
  B       0.236691     -0.861365     -0.702896
  B      -0.223809      0.874337      0.694448
  B      -1.337745      1.525447     -0.207268
  B      -0.967060      0.145501     -0.834802
6
Coordinates from ORCA-job B6_random_3d_seed1000_d2.50_q0_m1_R2SCAN-3C E -148.712507178848
  B       0.803654     -0.299531      0.971094
  B       1.483773     -1.392909      0.091322
  B       0.242386     -0.841612     -0.700861
  B      -0.211685      0.870641      0.678813
  B      -1.337020      1.523124     -0.208136
  B      -0.981108      0.140287     -0.832232
6
Coordinates from ORCA-job B6_random_3d_seed1000_d2.50_q0_m1_R2SCAN-3C E -148.712939036273
  B       0.798538     -0.309134      0.978239
  B       1.487081     -1.386596      0.089064
  B       0.244075     -0.830576     -0.697462
  B      -0.206194      0.866016      0.669814
  B      -1.331071      1.524831     -0.212743
  B      -0.992428      0.135460     -0.826912
6
Coordinates from ORCA-job B6_random_3d_seed1000_d2.50_q0_m1_R2SCAN-3C E -148.713305282840
  B       0.795611     -0.316708      0.983746
  B       1.490675     -1.382419      0.087335
  B       0.245065     -0.821991     -0.693512
  B      -0.202699      0.861355      0.662301
  B      -1.327099      1.527191     -0.216441
  B      -1.001553      0.132571     -0.823430
6
Coordinates from ORCA-job B6_random_3d_seed1000_d2.50_q0_m1_R2SCAN-3C E -148.713680630577
  B       0.793104     -0.324127      0.989892
  B       1.493439     -1.377455      0.085461
  B       0.245438     -0.812712     -0.689447
  B      -0.198696      0.856103      0.654894
  B      -1.322494      1.528687     -0.220297
  B      -1.010791      0.129504     -0.820503
6
Coordinates from ORCA-job B6_random_3d_seed1000_d2.50_q0_m1_R2SCAN-3C E -148.714070830652
  B       0.790889     -0.331453      0.996191
  B       1.495933     -1.372419      0.083578
  B       0.245676     -0.803082     -0.685062
  B      -0.194611      0.850487      0.647246
  B      -1.317806      1.529914     -0.224070
  B      -1.020080      0.126554     -0.817883
6
Coordinates from ORCA-job B6_random_3d_seed1000_d2.50_q0_m1_R2SCAN-3C E -148.714472517253
  B       0.788897     -0.338718      1.002440
  B       1.498276     -1.367393      0.081749
  B       0.245816     -0.793202     -0.680351
  B      -0.190520      0.844542      0.639365
  B      -1.313149      1.530989     -0.227777
  B      -1.029321      0.123782     -0.815427
6
Coordinates from ORCA-job B6_random_3d_seed1000_d2.50_q0_m1_R2SCAN-3C E -148.714879787962
  B       0.787075     -0.345910      1.008555
  B       1.500515     -1.362422      0.079987
  B       0.245892     -0.783182     -0.675373
  B      -0.186475      0.838356      0.631309
  B      -1.308565      1.531963     -0.231412
  B      -1.038442      0.121195     -0.813065
6
Coordinates from ORCA-job B6_random_3d_seed1000_d2.50_q0_m1_R2SCAN-3C E -148.715285114533
  B       0.785371     -0.353002      1.014481
  B       1.502662     -1.357538      0.078296
  B       0.245935     -0.773127     -0.670212
  B      -0.182505      0.832031      0.623148
  B      -1.304087      1.532859     -0.234962
  B      -1.047377      0.118776     -0.810750
6
Coordinates from ORCA-job B6_random_3d_seed1000_d2.50_q0_m1_R2SCAN-3C E -148.715817254603
  B       0.786502     -0.361289      1.020552
  B       1.508991     -1.354697      0.076201
  B       0.245759     -0.761737     -0.658568
  B      -0.181639      0.820699      0.610517
  B      -1.300731      1.538091     -0.238547
  B      -1.058882      0.118932     -0.810154
6
Coordinates from ORCA-job B6_random_3d_seed1000_d2.50_q0_m1_R2SCAN-3C E -148.716323371998
  B       0.789746     -0.369433      1.028245
  B       1.513749     -1.349705      0.074205
  B       0.243306     -0.748676     -0.646230
  B      -0.179682      0.806684      0.598061
  B      -1.295991      1.541581     -0.242818
  B      -1.071129      0.119549     -0.811462
6
Coordinates from ORCA-job B6_random_3d_seed1000_d2.50_q0_m1_R2SCAN-3C E -148.716967793990
  B       0.794004     -0.381040      1.040682
  B       1.518925     -1.339544      0.069981
  B       0.238298     -0.729341     -0.628548
  B      -0.176265      0.785772      0.581068
  B      -1.286338      1.544702     -0.249820
  B      -1.088624      0.119452     -0.813363
6
Coordinates from ORCA-job B6_random_3d_seed1000_d2.50_q0_m1_R2SCAN-3C E -148.717531894401
  B       0.792078     -0.398843      1.057194
  B       1.525525     -1.318713      0.061080
  B       0.231673     -0.706924     -0.609539
  B      -0.171127      0.762403      0.563272
  B      -1.266496      1.547576     -0.262561
  B      -1.111653      0.114500     -0.809446
6
Coordinates from ORCA-job B6_random_3d_seed1000_d2.50_q0_m1_R2SCAN-3C E -148.717549155906
  B       0.762561     -0.421823      1.065277
  B       1.536743     -1.282360      0.045737
  B       0.228217     -0.705271     -0.613134
  B      -0.167337      0.762617      0.568058
  B      -1.231925      1.551622     -0.285107
  B      -1.128259      0.095216     -0.780830
6
Coordinates from ORCA-job B6_random_3d_seed1000_d2.50_q0_m1_R2SCAN-3C E -148.717651210026
  B       0.780963     -0.416964      1.071951
  B       1.527370     -1.300627      0.054922
  B       0.232842     -0.687696     -0.606255
  B      -0.159183      0.755546      0.551014
  B      -1.250468      1.546070     -0.273081
  B      -1.131523      0.103671     -0.798551
6
Coordinates from ORCA-job B6_random_3d_seed1000_d2.50_q0_m1_R2SCAN-3C E -148.717668387107
  B       0.781941     -0.410298      1.064782
  B       1.532046     -1.306482      0.054042
  B       0.232182     -0.699229     -0.604450
  B      -0.168670      0.757277      0.556187
  B      -1.253864      1.552496     -0.270270
  B      -1.123635      0.106236     -0.800291
6
Coordinates from ORCA-job B6_random_3d_seed1000_d2.50_q0_m1_R2SCAN-3C E -148.717688399391
  B       0.774118     -0.410293      1.062107
  B       1.524593     -1.309977      0.058419
  B       0.238950     -0.696186     -0.617115
  B      -0.159369      0.769745      0.557536
  B      -1.258993      1.544839     -0.267368
  B      -1.119299      0.101872     -0.793579
6
Coordinates from ORCA-job B6_random_3d_seed1000_d2.50_q0_m1_R2SCAN-3C E -148.717710656566
  B       0.774217     -0.414537      1.065392
  B       1.527609     -1.306402      0.056636
  B       0.237957     -0.691771     -0.611812
  B      -0.159382      0.764092      0.552713
  B      -1.255388      1.547067     -0.270070
  B      -1.125013      0.101550     -0.792859
6
Coordinates from ORCA-job B6_random_3d_seed1000_d2.50_q0_m1_R2SCAN-3C E -148.717718117027
  B       0.774109     -0.413884      1.064306
  B       1.527379     -1.309674      0.057926
  B       0.239925     -0.690943     -0.612066
  B      -0.158916      0.765227      0.550870
  B      -1.258420      1.547396     -0.268298
  B      -1.124077      0.101876     -0.792737
6
Coordinates from ORCA-job B6_random_3d_seed1000_d2.50_q0_m1_R2SCAN-3C E -148.717724023357
  B       0.770867     -0.413318      1.061445
  B       1.525025     -1.318170      0.062018
  B       0.247117     -0.686259     -0.615094
  B      -0.154537      0.770480      0.544816
  B      -1.266766      1.546438     -0.263359
  B      -1.121706      0.100828     -0.789826
6
Coordinates from ORCA-job B6_random_3d_seed1000_d2.50_q0_m1_R2SCAN-3C E -148.717725585030
  B       0.770204     -0.413909      1.061981
  B       1.525595     -1.315791      0.060985
  B       0.245991     -0.687418     -0.615458
  B      -0.155125      0.770292      0.546391
  B      -1.264427      1.546463     -0.264771
  B      -1.122238      0.100363     -0.789128
6
Coordinates from ORCA-job B6_random_3d_seed1000_d2.50_q0_m1_R2SCAN-3C E -148.717725659501
  B       0.770117     -0.413956      1.062033
  B       1.525494     -1.315613      0.061005
  B       0.245984     -0.687432     -0.615653
  B      -0.155004      0.770348      0.546470
  B      -1.264319      1.546359     -0.264818
  B      -1.122272      0.100294     -0.789037
