6
Coordinates from ORCA-job B6_random_3d_seed1000_d2.50_q0_m1_R2SCAN-3C E -148.717725659501
  B           0.77011653555927     -0.41395593234438      1.06203346459151
  B           1.52549382679902     -1.31561325351479      0.06100459660217
  B           0.24598426793773     -0.68743179515668     -0.61565318519760
  B          -0.15500390893471      0.77034753420363      0.54647029253919
  B          -1.26431893140054      1.54635898233939     -0.26481842037337
  B          -1.12227177996076      0.10029446447283     -0.78903674816189
