6
Coordinates from ORCA-job B6_rhombic_planar_d1.80_q0_m1_R2SCAN-3C E -148.616548595366
  B      -2.250000     -0.779423      0.000000
  B      -0.450000     -0.779423      0.000000
  B       1.350000     -0.779423      0.000000
  B      -1.350000      0.779423      0.000000
  B       0.450000      0.779423      0.000000
  B       2.250000      0.779423      0.000000
6
Coordinates from ORCA-job B6_rhombic_planar_d1.80_q0_m1_R2SCAN-3C E -148.650876406777
  B      -2.172545     -0.747715      0.000000
  B      -0.420381     -0.784833     -0.000000
  B       1.308251     -0.766095      0.000000
  B      -1.308252      0.766094     -0.000000
  B       0.420381      0.784835      0.000000
  B       2.172546      0.747714     -0.000000
6
Coordinates from ORCA-job B6_rhombic_planar_d1.80_q0_m1_R2SCAN-3C E -148.678222129946
  B      -2.096342     -0.714892      0.000000
  B      -0.390650     -0.795762     -0.000000
  B       1.267778     -0.752788      0.000000
  B      -1.267779      0.752787      0.000000
  B       0.390650      0.795762     -0.000000
  B       2.096342      0.714891      0.000000
6
Coordinates from ORCA-job B6_rhombic_planar_d1.80_q0_m1_R2SCAN-3C E -148.699500302263
  B      -1.983881     -0.663798     -0.000000
  B      -0.350168     -0.820644      0.000000
  B       1.210983     -0.731069     -0.000000
  B      -1.210982      0.731071     -0.000000
  B       0.350169      0.820642      0.000000
  B       1.983879      0.663798     -0.000000
6
Coordinates from ORCA-job B6_rhombic_planar_d1.80_q0_m1_R2SCAN-3C E -148.701703478182
  B      -1.955730     -0.648443     -0.000000
  B      -0.348319     -0.841440      0.000000
  B       1.200872     -0.722517     -0.000000
  B      -1.200877      0.722508      0.000000
  B       0.348313      0.841446     -0.000000
  B       1.955742      0.648447      0.000000
6
Coordinates from ORCA-job B6_rhombic_planar_d1.80_q0_m1_R2SCAN-3C E -148.703741706913
  B      -1.945995     -0.643933      0.000000
  B      -0.357265     -0.870859     -0.000000
  B       1.193219     -0.718083     -0.000000
  B      -1.193221      0.718076     -0.000000
  B       0.357261      0.870868      0.000000
  B       1.946002      0.643931      0.000000
6
Coordinates from ORCA-job B6_rhombic_planar_d1.80_q0_m1_R2SCAN-3C E -148.706791997771
  B      -1.943510     -0.645099     -0.000000
  B      -0.378302     -0.931561      0.000000
  B       1.172763     -0.711831     -0.000000
  B      -1.172761      0.711827      0.000000
  B       0.378304      0.931570      0.000000
  B       1.943506      0.645093     -0.000000
6
Coordinates from ORCA-job B6_rhombic_planar_d1.80_q0_m1_R2SCAN-3C E -148.708517151723
  B      -1.946911     -0.646370      0.000000
  B      -0.397871     -0.989049     -0.000000
  B       1.148293     -0.700222      0.000000
  B      -1.148291      0.700213      0.000000
  B       0.397871      0.989057     -0.000000
  B       1.946909      0.646370      0.000000
6
Coordinates from ORCA-job B6_rhombic_planar_d1.80_q0_m1_R2SCAN-3C E -148.709747943637
  B      -1.947616     -0.646434     -0.000000
  B      -0.422049     -1.056866      0.000000
  B       1.110667     -0.679656      0.000000
  B      -1.110661      0.679654     -0.000000
  B       0.422053      1.056871      0.000000
  B       1.947605      0.646431     -0.000000
6
Coordinates from ORCA-job B6_rhombic_planar_d1.80_q0_m1_R2SCAN-3C E -148.710282722488
  B      -1.948082     -0.646865      0.000000
  B      -0.443391     -1.110100     -0.000000
  B       1.072798     -0.656880      0.000000
  B      -1.072793      0.656885     -0.000000
  B       0.443399      1.110099     -0.000000
  B       1.948069      0.646861      0.000000
6
Coordinates from ORCA-job B6_rhombic_planar_d1.80_q0_m1_R2SCAN-3C E -148.710485039112
  B      -1.951890     -0.647993     -0.000000
  B      -0.451418     -1.125121      0.000000
  B       1.055493     -0.643955      0.000000
  B      -1.055498      0.643950      0.000000
  B       0.451410      1.125123      0.000000
  B       1.951903      0.647997     -0.000000
6
Coordinates from ORCA-job B6_rhombic_planar_d1.80_q0_m1_R2SCAN-3C E -148.710621918183
  B      -1.957080     -0.649615      0.000000
  B      -0.456705     -1.128160     -0.000000
  B       1.042147     -0.631284     -0.000000
  B      -1.042147      0.631283      0.000000
  B       0.456705      1.128159     -0.000000
  B       1.957080      0.649616      0.000000
6
Coordinates from ORCA-job B6_rhombic_planar_d1.80_q0_m1_R2SCAN-3C E -148.710630363029
  B      -1.956815     -0.649766     -0.000000
  B      -0.457606     -1.127116      0.000000
  B       1.040463     -0.629302      0.000000
  B      -1.040473      0.629284     -0.000000
  B       0.457585      1.127125      0.000000
  B       1.956846      0.649775     -0.000000
6
Coordinates from ORCA-job B6_rhombic_planar_d1.80_q0_m1_R2SCAN-3C E -148.710630923323
  B      -1.956579     -0.649707      0.000000
  B      -0.457378     -1.126007     -0.000000
  B       1.041197     -0.629523     -0.000000
  B      -1.041194      0.629517      0.000000
  B       0.457377      1.126012     -0.000000
  B       1.956578      0.649708      0.000000
6
Coordinates from ORCA-job B6_rhombic_planar_d1.80_q0_m1_R2SCAN-3C E -148.710630945905
  B      -1.956492     -0.649675     -0.000000
  B      -0.457121     -1.125326      0.000000
  B       1.041821     -0.629880      0.000000
  B      -1.041823      0.629868     -0.000000
  B       0.457112      1.125334      0.000000
  B       1.956503      0.649678     -0.000000
