6
Coordinates from ORCA-job B6_rhombic_planar_d1.80_q0_m1_R2SCAN-3C E -148.710630945905
  B          -1.95649200902696     -0.64967508802069     -0.00000001962088
  B          -0.45712092468444     -1.12532586164670      0.00000001752124
  B           1.04182083928840     -0.62988001560980      0.00000000443808
  B          -1.04182250743470      0.62986842469248     -0.00000000116059
  B           0.45711197060285      1.12533442478575      0.00000002276853
  B           1.95650263125486      0.64967811579896     -0.00000002394638
