6
Coordinates from ORCA-job FINAL_rank01_B6_random_3d_seed1000_d2.50_q0_m3_R2SCAN-3C_PBE0_def2-TZVP_OptFreq E -148.631674632504
  B       0.979377     -0.233843      0.985035
  B       1.396330     -1.472946      0.209517
  B       0.188758     -0.746332     -0.546585
  B      -0.188785      0.746322      0.546622
  B      -1.396326      1.472924     -0.209497
  B      -0.979354      0.233875     -0.985093
6
Coordinates from ORCA-job FINAL_rank01_B6_random_3d_seed1000_d2.50_q0_m3_R2SCAN-3C_PBE0_def2-TZVP_OptFreq E -148.631709542963
  B       0.979154     -0.233461      0.985225
  B       1.394401     -1.470907      0.209169
  B       0.188499     -0.746985     -0.547534
  B      -0.188527      0.746976      0.547569
  B      -1.394383      1.470900     -0.209164
  B      -0.979145      0.233477     -0.985265
6
Coordinates from ORCA-job FINAL_rank01_B6_random_3d_seed1000_d2.50_q0_m3_R2SCAN-3C_PBE0_def2-TZVP_OptFreq E -148.631769282850
  B       0.978546     -0.232109      0.986103
  B       1.389740     -1.466107      0.208149
  B       0.187874     -0.749756     -0.551025
  B      -0.187900      0.749754      0.551048
  B      -1.389683      1.466137     -0.208187
  B      -0.978576      0.232081     -0.986089
6
Coordinates from ORCA-job FINAL_rank01_B6_random_3d_seed1000_d2.50_q0_m3_R2SCAN-3C_PBE0_def2-TZVP_OptFreq E -148.631777392156
  B       0.978303     -0.231486      0.986517
  B       1.388878     -1.465302      0.207858
  B       0.187736     -0.751426     -0.552851
  B      -0.187759      0.751425      0.552871
  B      -1.388834      1.465327     -0.207892
  B      -0.978325      0.231462     -0.986504
6
Coordinates from ORCA-job FINAL_rank01_B6_random_3d_seed1000_d2.50_q0_m3_R2SCAN-3C_PBE0_def2-TZVP_OptFreq E -148.631794407737
  B       0.977555     -0.230101      0.987156
  B       1.388213     -1.464808      0.207453
  B       0.187592     -0.755834     -0.557420
  B      -0.187592      0.755837      0.557433
  B      -1.388235      1.464804     -0.207454
  B      -0.977534      0.230101     -0.987168
6
Coordinates from ORCA-job FINAL_rank01_B6_random_3d_seed1000_d2.50_q0_m3_R2SCAN-3C_PBE0_def2-TZVP_OptFreq E -148.631802969148
  B       0.977118     -0.229939      0.986814
  B       1.388771     -1.465329      0.207575
  B       0.187697     -0.757061     -0.558520
  B      -0.187695      0.757061      0.558530
  B      -1.388793      1.465323     -0.207573
  B      -0.977098      0.229945     -0.986827
6
Coordinates from ORCA-job FINAL_rank01_B6_random_3d_seed1000_d2.50_q0_m3_R2SCAN-3C_PBE0_def2-TZVP_OptFreq E -148.631806760886
  B       0.976494     -0.230041      0.985961
  B       1.389507     -1.465930      0.207833
  B       0.187926     -0.757917     -0.559101
  B      -0.187925      0.757913      0.559106
  B      -1.389511      1.465931     -0.207837
  B      -0.976492      0.230044     -0.985964
6
Coordinates from ORCA-job FINAL_rank01_B6_random_3d_seed1000_d2.50_q0_m3_R2SCAN-3C_PBE0_def2-TZVP_OptFreq E -148.631807449668
  B       0.975884     -0.230213      0.985033
  B       1.389905     -1.466190      0.208042
  B       0.188190     -0.758461     -0.559336
  B      -0.188190      0.758457      0.559337
  B      -1.389894      1.466198     -0.208049
  B      -0.975895      0.230210     -0.985027
6
Coordinates from ORCA-job FINAL_rank01_B6_random_3d_seed1000_d2.50_q0_m3_R2SCAN-3C_PBE0_def2-TZVP_OptFreq E -148.631806954904
  B       0.975507     -0.230324      0.984435
  B       1.389922     -1.466149      0.208118
  B       0.188400     -0.758733     -0.559368
  B      -0.188399      0.758731      0.559364
  B      -1.389915      1.466153     -0.208120
  B      -0.975515      0.230322     -0.984431
6
Coordinates from ORCA-job FINAL_rank01_B6_random_3d_seed1000_d2.50_q0_m3_R2SCAN-3C_PBE0_def2-TZVP_OptFreq E -148.631809216764
  B       0.975454     -0.230335      0.984352
  B       1.389818     -1.466060      0.208085
  B       0.188472     -0.758744     -0.559301
  B      -0.188470      0.758743      0.559298
  B      -1.389812      1.466067     -0.208089
  B      -0.975462      0.230329     -0.984347
6
Coordinates from ORCA-job FINAL_rank01_B6_random_3d_seed1000_d2.50_q0_m3_R2SCAN-3C_PBE0_def2-TZVP_OptFreq E -148.631808279344
  B       0.975455     -0.230317      0.984364
  B       1.389768     -1.466038      0.208054
  B       0.188506     -0.758757     -0.559279
  B      -0.188506      0.758757      0.559274
  B      -1.389761      1.466040     -0.208054
  B      -0.975462      0.230315     -0.984359
