6
Coordinates from ORCA-job FINAL_rank01_B6_random_3d_seed1000_d2.50_q0_m3_R2SCAN-3C_PBE0_def2-TZVP_OptFreq E -148.631808279344
  B           0.97545481553860     -0.23031734621894      0.98436366518026
  B           1.38976789297376     -1.46603751870994      0.20805352907307
  B           0.18850638418723     -0.75875719581595     -0.55927893426540
  B          -0.18850620669222      0.75875672963816      0.55927400070059
  B          -1.38976106243229      1.46604028769627     -0.20805438368392
  B          -0.97546182357508      0.23031504341040     -0.98435887700460
