6
Coordinates from ORCA-job B6_rectangular_planar_d3.00_q0_m3_R2SCAN-3C E -148.728610602439
  B          -1.41420839529379     -0.57832754007606     -0.17863505017485
  B           0.00037288698318     -1.21704763520617      0.00008370324465
  B           1.41448802461286     -0.57720215280190      0.17855876724515
  B          -1.61174873946406      0.89278184127809      0.15712361290358
  B          -0.00017615843017      0.58575619163155     -0.00006102711322
  B           1.61127238159198      0.89403929517451     -0.15707000610531
