6
Coordinates from ORCA-job B6_rectangular_planar_d3.00_q0_m3_R2SCAN-3C E -147.974704963225
  B      -3.000000     -1.500000      0.000000
  B       0.000000     -1.500000      0.000000
  B       3.000000     -1.500000      0.000000
  B      -3.000000      1.500000      0.000000
  B       0.000000      1.500000      0.000000
  B       3.000000      1.500000      0.000000
6
Coordinates from ORCA-job B6_rectangular_planar_d3.00_q0_m3_R2SCAN-3C E -147.992092558150
  B      -2.949640     -1.465056      0.000000
  B       0.000000     -1.463636     -0.000000
  B       2.949640     -1.465056      0.000000
  B      -2.949640      1.465057      0.000000
  B       0.000000      1.463634     -0.000000
  B       2.949640      1.465057      0.000000
6
Coordinates from ORCA-job B6_rectangular_planar_d3.00_q0_m3_R2SCAN-3C E -148.010562858045
  B      -2.899012     -1.430328      0.000000
  B       0.000000     -1.427233     -0.000000
  B       2.899012     -1.430328      0.000000
  B      -2.899012      1.430329      0.000000
  B      -0.000000      1.427231     -0.000000
  B       2.899012      1.430329      0.000000
6
Coordinates from ORCA-job B6_rectangular_planar_d3.00_q0_m3_R2SCAN-3C E -148.043386392772
  B      -2.822578     -1.378564     -0.000000
  B       0.000000     -1.372685      0.000000
  B       2.822579     -1.378565     -0.000000
  B      -2.822577      1.378567     -0.000000
  B      -0.000001      1.372679      0.000000
  B       2.822577      1.378567     -0.000000
6
Coordinates from ORCA-job B6_rectangular_planar_d3.00_q0_m3_R2SCAN-3C E -148.091262515677
  B      -2.699763     -1.303727     -0.000000
  B      -0.000002     -1.301284      0.000000
  B       2.699760     -1.303723     -0.000000
  B      -2.695679      1.309034     -0.000000
  B       0.000003      1.290664      0.000000
  B       2.695681      1.309036     -0.000000
6
Coordinates from ORCA-job B6_rectangular_planar_d3.00_q0_m3_R2SCAN-3C E -148.148796168584
  B      -2.572255     -1.226426     -0.000000
  B      -0.000001     -1.228201      0.000000
  B       2.572251     -1.226422     -0.000000
  B      -2.564031      1.238023     -0.000000
  B       0.000003      1.205004      0.000000
  B       2.564032      1.238023     -0.000000
6
Coordinates from ORCA-job B6_rectangular_planar_d3.00_q0_m3_R2SCAN-3C E -148.214063410337
  B      -2.444595     -1.149932     -0.000000
  B      -0.000001     -1.152662      0.000000
  B       2.444592     -1.149928     -0.000000
  B      -2.433951      1.165348     -0.000000
  B       0.000003      1.121827      0.000000
  B       2.433951      1.165347     -0.000000
6
Coordinates from ORCA-job B6_rectangular_planar_d3.00_q0_m3_R2SCAN-3C E -148.284507228792
  B      -2.311514     -1.077390     -0.000000
  B      -0.000001     -1.076719      0.000000
  B       2.311512     -1.077386     -0.000000
  B      -2.298619      1.095222     -0.000000
  B       0.000004      1.041052      0.000000
  B       2.298617      1.095221     -0.000000
6
Coordinates from ORCA-job B6_rectangular_planar_d3.00_q0_m3_R2SCAN-3C E -148.356252757062
  B      -2.169411     -1.009879     -0.000000
  B      -0.000002     -1.008552      0.000000
  B       2.169411     -1.009875     -0.000000
  B      -2.153950      1.031009     -0.000000
  B       0.000006      0.966291      0.000000
  B       2.153947      1.031007     -0.000000
6
Coordinates from ORCA-job B6_rectangular_planar_d3.00_q0_m3_R2SCAN-3C E -148.485548283986
  B      -2.015762     -0.947447     -0.000001
  B      -0.000003     -0.956030      0.000002
  B       2.015762     -0.947442     -0.000001
  B      -1.998535      0.976652      0.000001
  B       0.000006      0.897618     -0.000002
  B       1.998530      0.976649      0.000001
6
Coordinates from ORCA-job B6_rectangular_planar_d3.00_q0_m3_R2SCAN-3C E -148.580276654547
  B      -1.860817     -0.881191     -0.000003
  B      -0.000003     -0.911949      0.000001
  B       1.860818     -0.881181      0.000003
  B      -1.846263      0.912974      0.000005
  B       0.000008      0.848383     -0.000003
  B       1.846257      0.912965     -0.000002
6
Coordinates from ORCA-job B6_rectangular_planar_d3.00_q0_m3_R2SCAN-3C E -148.628673572049
  B      -1.744502     -0.842009     -0.000006
  B      -0.000008     -0.912402     -0.000001
  B       1.744506     -0.842015      0.000007
  B      -1.741804      0.877105      0.000007
  B       0.000002      0.842206     -0.000001
  B       1.741805      0.877116     -0.000006
6
Coordinates from ORCA-job B6_rectangular_planar_d3.00_q0_m3_R2SCAN-3C E -148.695838155369
  B      -1.574901     -0.776222     -0.000153
  B      -0.000003     -0.973706     -0.000007
  B       1.574904     -0.776169      0.000160
  B      -1.615154      0.839503      0.000157
  B       0.000017      0.847147      0.000001
  B       1.615137      0.839448     -0.000158
6
Coordinates from ORCA-job B6_rectangular_planar_d3.00_q0_m3_R2SCAN-3C E -148.702525464993
  B      -1.451778     -0.668309     -0.000192
  B       0.000022     -1.077077      0.000000
  B       1.451782     -0.668276      0.000190
  B      -1.546214      0.791653      0.000197
  B      -0.000010      0.830422     -0.000002
  B       1.546198      0.791587     -0.000194
6
Coordinates from ORCA-job B6_rectangular_planar_d3.00_q0_m3_R2SCAN-3C E -148.717758593612
  B      -1.485128     -0.661895     -0.000260
  B      -0.000019     -1.108027     -0.000002
  B       1.485169     -0.662143      0.000262
  B      -1.584200      0.848976      0.000262
  B       0.000015      0.733902      0.000001
  B       1.584163      0.849187     -0.000262
6
Coordinates from ORCA-job B6_rectangular_planar_d3.00_q0_m3_R2SCAN-3C E -148.725424834360
  B      -1.448924     -0.629198     -0.000279
  B       0.000052     -1.161964     -0.000004
  B       1.449013     -0.628422      0.000282
  B      -1.623081      0.886325      0.000293
  B      -0.000130      0.647794      0.000002
  B       1.623071      0.885465     -0.000293
6
Coordinates from ORCA-job B6_rectangular_planar_d3.00_q0_m3_R2SCAN-3C E -148.720454202143
  B      -1.412448     -0.537640     -0.000317
  B       0.000183     -1.327723     -0.000002
  B       1.412005     -0.543014      0.000320
  B      -1.536453      0.964091      0.000316
  B       0.000730      0.475343      0.000002
  B       1.535983      0.968943     -0.000319
6
Coordinates from ORCA-job B6_rectangular_planar_d3.00_q0_m3_R2SCAN-3C E -148.727442940470
  B      -1.433242     -0.587789     -0.000349
  B      -0.000770     -1.245012     -0.000000
  B       1.434895     -0.581404      0.000344
  B      -1.631177      0.913527      0.000361
  B      -0.000561      0.593203      0.000001
  B       1.630855      0.907476     -0.000357
6
Coordinates from ORCA-job B6_rectangular_planar_d3.00_q0_m3_R2SCAN-3C E -148.713158582459
  B      -1.418655     -0.564349     -0.000384
  B       0.013486     -1.148550      0.000015
  B       1.393557     -0.653079      0.000398
  B      -1.621574      0.865416      0.000383
  B       0.013888      0.554713      0.000006
  B       1.619297      0.945850     -0.000419
6
Coordinates from ORCA-job B6_rectangular_planar_d3.00_q0_m3_R2SCAN-3C E -148.724863132126
  B      -1.405113     -0.604329     -0.000420
  B      -0.016056     -1.185264     -0.000004
  B       1.423458     -0.588800      0.000410
  B      -1.603337      0.923529      0.000424
  B      -0.003909      0.541295     -0.000002
  B       1.604958      0.913570     -0.000408
6
Coordinates from ORCA-job B6_rectangular_planar_d3.00_q0_m3_R2SCAN-3C E -148.722240095735
  B      -1.474809     -0.573892     -0.000456
  B       0.034540     -1.282664      0.000006
  B       1.448226     -0.568898      0.000432
  B      -1.636098      0.928804      0.000446
  B       0.004283      0.595198     -0.000002
  B       1.623857      0.901453     -0.000425
6
Coordinates from ORCA-job B6_rectangular_planar_d3.00_q0_m3_R2SCAN-3C E -148.722951088194
  B      -1.425632     -0.562781     -0.000462
  B      -0.037464     -1.264786     -0.000024
  B       1.452945     -0.597915      0.000521
  B      -1.623033      0.883652      0.000471
  B      -0.009036      0.599666     -0.000007
  B       1.642220      0.942165     -0.000499
6
Coordinates from ORCA-job B6_rectangular_planar_d3.00_q0_m3_R2SCAN-3C E -148.725909910270
  B      -1.387845     -0.599150     -0.000497
  B      -0.004136     -1.222996     -0.000013
  B       1.397213     -0.592529      0.000504
  B      -1.615709      0.920451      0.000505
  B      -0.002758      0.579905     -0.000000
  B       1.613235      0.914318     -0.000499
6
Coordinates from ORCA-job B6_rectangular_planar_d3.00_q0_m3_R2SCAN-3C E -148.727338197034
  B      -1.439187     -0.589484     -0.000633
  B       0.015555     -1.241560      0.000018
  B       1.428153     -0.580316      0.000590
  B      -1.616579      0.923262      0.000592
  B      -0.001635      0.580330      0.000012
  B       1.613694      0.907769     -0.000578
6
Coordinates from ORCA-job B6_rectangular_planar_d3.00_q0_m3_R2SCAN-3C E -148.727732838939
  B      -1.427984     -0.582531     -0.000751
  B      -0.003492     -1.226090     -0.000018
  B       1.433051     -0.589285      0.000783
  B      -1.626351      0.910921      0.000726
  B       0.013597      0.570326     -0.000017
  B       1.611179      0.916659     -0.000724
6
Coordinates from ORCA-job B6_rectangular_planar_d3.00_q0_m3_R2SCAN-3C E -148.727613757498
  B      -1.419494     -0.585569     -0.000849
  B      -0.003174     -1.222695     -0.000012
  B       1.424612     -0.587327      0.000872
  B      -1.613803      0.908893      0.000820
  B      -0.018331      0.570127     -0.000024
  B       1.630190      0.916571     -0.000807
6
Coordinates from ORCA-job B6_rectangular_planar_d3.00_q0_m3_R2SCAN-3C E -148.727942315350
  B      -1.421670     -0.586632     -0.001005
  B       0.002947     -1.231956      0.000023
  B       1.422712     -0.584609      0.000950
  B      -1.623605      0.914770      0.000902
  B      -0.000714      0.577249      0.000059
  B       1.620330      0.911177     -0.000929
6
Coordinates from ORCA-job B6_rectangular_planar_d3.00_q0_m3_R2SCAN-3C E -148.727960911363
  B      -1.426139     -0.586216     -0.001141
  B       0.000520     -1.226589     -0.000111
  B       1.427282     -0.586876      0.001331
  B      -1.619431      0.912258      0.001173
  B       0.000702      0.573578     -0.000152
  B       1.617066      0.913845     -0.001100
6
Coordinates from ORCA-job B6_rectangular_planar_d3.00_q0_m3_R2SCAN-3C E -148.727967322214
  B      -1.424074     -0.586244     -0.001674
  B       0.000522     -1.228484      0.000236
  B       1.425371     -0.585916      0.001259
  B      -1.620430      0.912460      0.001268
  B      -0.000433      0.574915      0.000329
  B       1.619044      0.913270     -0.001417
6
Coordinates from ORCA-job B6_rectangular_planar_d3.00_q0_m3_R2SCAN-3C E -148.727967244320
  B      -1.424199     -0.586380     -0.001112
  B       0.000681     -1.228451     -0.000849
  B       1.425119     -0.585816      0.002578
  B      -1.620140      0.912506      0.001939
  B      -0.000377      0.574907     -0.001142
  B       1.618915      0.913235     -0.001413
6
Coordinates from ORCA-job B6_rectangular_planar_d3.00_q0_m3_R2SCAN-3C E -148.727967520062
  B      -1.424365     -0.586479     -0.002408
  B       0.000727     -1.228376      0.000110
  B       1.424974     -0.585739      0.002216
  B      -1.619883      0.912481      0.002062
  B      -0.000279      0.574853      0.000129
  B       1.618826      0.913261     -0.002110
6
Coordinates from ORCA-job B6_rectangular_planar_d3.00_q0_m3_R2SCAN-3C E -148.727967719950
  B      -1.424378     -0.586457     -0.003071
  B       0.000477     -1.228451      0.000199
  B       1.424992     -0.585656      0.002713
  B      -1.619930      0.912322      0.002525
  B      -0.000217      0.574881      0.000302
  B       1.619056      0.913362     -0.002669
6
Coordinates from ORCA-job B6_rectangular_planar_d3.00_q0_m3_R2SCAN-3C E -148.727968751206
  B      -1.424618     -0.586602     -0.006625
  B      -0.000186     -1.228593      0.000267
  B       1.424739     -0.585262      0.006147
  B      -1.619690      0.911831      0.005573
  B       0.000013      0.574944      0.000408
  B       1.619742      0.913682     -0.005769
6
Coordinates from ORCA-job B6_rectangular_planar_d3.00_q0_m3_R2SCAN-3C E -148.727972011304
  B      -1.424934     -0.586811     -0.012360
  B      -0.000860     -1.228717      0.000566
  B       1.424318     -0.584743      0.011325
  B      -1.619299      0.911274      0.010218
  B       0.000335      0.575006      0.000975
  B       1.620441      0.913991     -0.010724
6
Coordinates from ORCA-job B6_rectangular_planar_d3.00_q0_m3_R2SCAN-3C E -148.727982354848
  B      -1.425336     -0.587038     -0.022366
  B      -0.001994     -1.228908      0.001063
  B       1.423591     -0.583835      0.020476
  B      -1.618670      0.910253      0.018501
  B       0.000834      0.575116      0.001620
  B       1.621576      0.914411     -0.019294
6
Coordinates from ORCA-job B6_rectangular_planar_d3.00_q0_m3_R2SCAN-3C E -148.728013069826
  B      -1.425715     -0.587154     -0.039650
  B      -0.003901     -1.229173      0.001929
  B       1.422193     -0.582137      0.036249
  B      -1.617585      0.908278      0.032762
  B       0.001662      0.575351      0.002831
  B       1.623346      0.914835     -0.034120
6
Coordinates from ORCA-job B6_rectangular_planar_d3.00_q0_m3_R2SCAN-3C E -148.728069787887
  B      -1.425759     -0.587106     -0.057796
  B      -0.005119     -1.228991      0.002769
  B       1.420682     -0.580605      0.053059
  B      -1.616327      0.906425      0.048107
  B       0.002267      0.575679      0.003380
  B       1.624256      0.914598     -0.049519
6
Coordinates from ORCA-job B6_rectangular_planar_d3.00_q0_m3_R2SCAN-3C E -148.728147063574
  B      -1.425417     -0.586794     -0.075781
  B      -0.005866     -1.228444      0.003399
  B       1.419216     -0.579260      0.070088
  B      -1.615101      0.904569      0.063573
  B       0.002648      0.576148      0.003562
  B       1.624520      0.913782     -0.064841
6
Coordinates from ORCA-job B6_rectangular_planar_d3.00_q0_m3_R2SCAN-3C E -148.728236558722
  B      -1.424649     -0.586140     -0.093722
  B      -0.006350     -1.227641      0.003969
  B       1.417759     -0.577992      0.087205
  B      -1.613964      0.902542      0.079115
  B       0.002894      0.576786      0.003561
  B       1.624310      0.912445     -0.080128
6
Coordinates from ORCA-job B6_rectangular_planar_d3.00_q0_m3_R2SCAN-3C E -148.728329634626
  B      -1.423483     -0.585159     -0.111629
  B      -0.006669     -1.226614      0.004472
  B       1.416284     -0.576739      0.104398
  B      -1.612879      0.900256      0.094675
  B       0.003044      0.577653      0.003528
  B       1.623702      0.910603     -0.095443
6
Coordinates from ORCA-job B6_rectangular_planar_d3.00_q0_m3_R2SCAN-3C E -148.728434835366
  B      -1.422375     -0.586198     -0.126405
  B       0.001438     -1.221132      0.002330
  B       1.418280     -0.582028      0.122982
  B      -1.612163      0.904104      0.110561
  B       0.000163      0.580038     -0.001283
  B       1.614657      0.905215     -0.108185
6
Coordinates from ORCA-job B6_rectangular_planar_d3.00_q0_m3_R2SCAN-3C E -148.728530632433
  B      -1.419733     -0.583019     -0.143026
  B      -0.001129     -1.221454      0.001516
  B       1.415892     -0.578438      0.140872
  B      -1.612212      0.899489      0.125536
  B       0.000890      0.580175     -0.000804
  B       1.616293      0.903247     -0.124093
6
Coordinates from ORCA-job B6_rectangular_planar_d3.00_q0_m3_R2SCAN-3C E -148.728585655619
  B      -1.417248     -0.581232     -0.160883
  B       0.000146     -1.219473      0.001598
  B       1.414709     -0.577936      0.158502
  B      -1.611381      0.897116      0.140951
  B       0.000349      0.582286     -0.000283
  B       1.613426      0.899240     -0.139885
6
Coordinates from ORCA-job B6_rectangular_planar_d3.00_q0_m3_R2SCAN-3C E -148.728606910258
  B      -1.413204     -0.577431     -0.184479
  B      -0.000049     -1.216919     -0.000509
  B       1.413298     -0.575889      0.185160
  B      -1.611139      0.891287      0.162398
  B      -0.000012      0.586082      0.000316
  B       1.611107      0.892870     -0.162885
6
Coordinates from ORCA-job B6_rectangular_planar_d3.00_q0_m3_R2SCAN-3C E -148.728610520192
  B      -1.414488     -0.578571     -0.177944
  B       0.000185     -1.217220      0.000398
  B       1.414477     -0.577171      0.177467
  B      -1.611566      0.892896      0.156507
  B      -0.000123      0.585652     -0.000330
  B       1.611515      0.894415     -0.156098
6
Coordinates from ORCA-job B6_rectangular_planar_d3.00_q0_m3_R2SCAN-3C E -148.728610582779
  B      -1.414349     -0.578464     -0.178289
  B       0.000345     -1.217090      0.000005
  B       1.414444     -0.577167      0.178250
  B      -1.611700      0.892858      0.156712
  B      -0.000076      0.585712      0.000221
  B       1.611336      0.894150     -0.156899
6
Coordinates from ORCA-job B6_rectangular_planar_d3.00_q0_m3_R2SCAN-3C E -148.728610602439
  B      -1.414208     -0.578328     -0.178635
  B       0.000373     -1.217048      0.000084
  B       1.414488     -0.577202      0.178559
  B      -1.611749      0.892782      0.157124
  B      -0.000176      0.585756     -0.000061
  B       1.611272      0.894039     -0.157070
