6
Coordinates from ORCA-job B6_rhombic_planar_d1.60_q0_m3_R2SCAN-3C E -148.714826006637
  B      -2.000000     -0.692820      0.000000
  B      -0.400000     -0.692820      0.000000
  B       1.200000     -0.692820      0.000000
  B      -1.200000      0.692820      0.000000
  B       0.400000      0.692820      0.000000
  B       2.000000      0.692820      0.000000
6
Coordinates from ORCA-job B6_rhombic_planar_d1.60_q0_m3_R2SCAN-3C E -148.726359900765
  B      -1.993532     -0.671806     -0.000000
  B      -0.390285     -0.716565      0.000000
  B       1.222765     -0.688197     -0.000000
  B      -1.222765      0.688197      0.000000
  B       0.390285      0.716565      0.000000
  B       1.993532      0.671806     -0.000000
6
Coordinates from ORCA-job B6_rhombic_planar_d1.60_q0_m3_R2SCAN-3C E -148.736532999965
  B      -1.977298     -0.639462      0.000000
  B      -0.370198     -0.760365      0.000000
  B       1.245671     -0.683029     -0.000000
  B      -1.245671      0.683029     -0.000000
  B       0.370198      0.760365     -0.000000
  B       1.977298      0.639462      0.000000
6
Coordinates from ORCA-job B6_rhombic_planar_d1.60_q0_m3_R2SCAN-3C E -148.739849234493
  B      -1.965535     -0.627099     -0.000000
  B      -0.357220     -0.793738      0.000000
  B       1.247077     -0.688054     -0.000000
  B      -1.247077      0.688054      0.000000
  B       0.357220      0.793738     -0.000000
  B       1.965535      0.627099      0.000000
6
Coordinates from ORCA-job B6_rhombic_planar_d1.60_q0_m3_R2SCAN-3C E -148.742281431580
  B      -1.953066     -0.624118     -0.000000
  B      -0.347160     -0.829576      0.000000
  B       1.237612     -0.701072      0.000000
  B      -1.237612      0.701072     -0.000000
  B       0.347160      0.829576      0.000000
  B       1.953066      0.624118     -0.000000
6
Coordinates from ORCA-job B6_rhombic_planar_d1.60_q0_m3_R2SCAN-3C E -148.742981688521
  B      -1.945225     -0.626746     -0.000000
  B      -0.345949     -0.850156      0.000000
  B       1.228763     -0.710745      0.000000
  B      -1.228763      0.710745      0.000000
  B       0.345949      0.850156      0.000000
  B       1.945225      0.626746     -0.000000
6
Coordinates from ORCA-job B6_rhombic_planar_d1.60_q0_m3_R2SCAN-3C E -148.743151474369
  B      -1.941849     -0.628743     -0.000000
  B      -0.349059     -0.858280      0.000000
  B       1.225396     -0.713816      0.000000
  B      -1.225396      0.713816     -0.000000
  B       0.349059      0.858280      0.000000
  B       1.941849      0.628743     -0.000000
6
Coordinates from ORCA-job B6_rhombic_planar_d1.60_q0_m3_R2SCAN-3C E -148.743265597446
  B      -1.938718     -0.630238      0.000000
  B      -0.354302     -0.865754      0.000000
  B       1.222790     -0.714731     -0.000000
  B      -1.222790      0.714731      0.000000
  B       0.354302      0.865754     -0.000000
  B       1.938718      0.630238      0.000000
6
Coordinates from ORCA-job B6_rhombic_planar_d1.60_q0_m3_R2SCAN-3C E -148.743302249467
  B      -1.937866     -0.630178     -0.000000
  B      -0.357308     -0.869038      0.000000
  B       1.221756     -0.713294      0.000000
  B      -1.221756      0.713294     -0.000000
  B       0.357308      0.869038      0.000000
  B       1.937866      0.630178     -0.000000
6
Coordinates from ORCA-job B6_rhombic_planar_d1.60_q0_m3_R2SCAN-3C E -148.743319960278
  B      -1.938292     -0.629675      0.000000
  B      -0.358958     -0.870831     -0.000000
  B       1.220858     -0.711103     -0.000000
  B      -1.220858      0.711103      0.000000
  B       0.358958      0.870831     -0.000000
  B       1.938292      0.629675      0.000000
6
Coordinates from ORCA-job B6_rhombic_planar_d1.60_q0_m3_R2SCAN-3C E -148.743330038078
  B      -1.939425     -0.629299     -0.000000
  B      -0.359794     -0.871962      0.000000
  B       1.219705     -0.708986      0.000000
  B      -1.219705      0.708986     -0.000000
  B       0.359794      0.871962      0.000000
  B       1.939425      0.629299     -0.000000
6
Coordinates from ORCA-job B6_rhombic_planar_d1.60_q0_m3_R2SCAN-3C E -148.743334794310
  B      -1.940571     -0.629277      0.000000
  B      -0.360086     -0.872616     -0.000000
  B       1.218549     -0.707671     -0.000000
  B      -1.218549      0.707671      0.000000
  B       0.360086      0.872616     -0.000000
  B       1.940571      0.629277      0.000000
6
Coordinates from ORCA-job B6_rhombic_planar_d1.60_q0_m3_R2SCAN-3C E -148.743335740104
  B      -1.940998     -0.629441     -0.000000
  B      -0.360085     -0.872812      0.000000
  B       1.218010     -0.707458      0.000000
  B      -1.218010      0.707458     -0.000000
  B       0.360085      0.872812      0.000000
  B       1.940998      0.629441     -0.000000
6
Coordinates from ORCA-job B6_rhombic_planar_d1.60_q0_m3_R2SCAN-3C E -148.743335803665
  B      -1.940997     -0.629516      0.000000
  B      -0.360062     -0.872820     -0.000000
  B       1.217933     -0.707552     -0.000000
  B      -1.217933      0.707552      0.000000
  B       0.360062      0.872820     -0.000000
  B       1.940997      0.629516      0.000000
