6
Coordinates from ORCA-job B6_rhombic_planar_d1.60_q0_m3_R2SCAN-3C E -148.743335803665
  B          -1.94099725141015     -0.62951584217738      0.00000002014781
  B          -0.36006229450165     -0.87282034520405     -0.00000001415066
  B           1.21793330523642     -0.70755201369025     -0.00000001026710
  B          -1.21793330687369      0.70755201534427      0.00000000974272
  B           0.36006229354597      0.87282034286533     -0.00000004363981
  B           1.94099725400310      0.62951584286207      0.00000003816703
