6
Coordinates from ORCA-job B6_random_3d_seed1004_d1.80_q0_m3_R2SCAN-3C E -148.700569351199
  B          -0.65277173675076     -0.50192561427338      0.81476982227034
  B           1.08862218063979      0.68097974122842      0.37427452294061
  B           0.90852485032973     -0.87072526767390      0.53035479866427
  B          -1.23077913004523      0.14930153900410     -0.56271975392095
  B          -0.19966341465833      1.30148931344505     -0.28513185809897
  B           0.08606725048481     -0.75911970173029     -0.87154753185531
