6
Coordinates from ORCA-job B6_random_3d_seed1004_d1.80_q0_m3_R2SCAN-3C E -148.609365778434
  B      -0.544323     -0.492287      1.097675
  B       0.842811      0.766976      0.834753
  B       0.928994     -0.966689      0.381944
  B      -1.249320      0.098061     -0.415606
  B       0.010929      1.224658     -0.750014
  B       0.010910     -0.630718     -1.148751
6
Coordinates from ORCA-job B6_random_3d_seed1004_d1.80_q0_m3_R2SCAN-3C E -148.631811784442
  B      -0.550468     -0.489870      1.047801
  B       0.844159      0.754871      0.781784
  B       0.921428     -0.947935      0.381992
  B      -1.244785      0.105923     -0.411308
  B       0.005009      1.215368     -0.701502
  B       0.024657     -0.638357     -1.098767
6
Coordinates from ORCA-job B6_random_3d_seed1004_d1.80_q0_m3_R2SCAN-3C E -148.651107534881
  B      -0.558661     -0.488897      0.995447
  B       0.845416      0.743594      0.732932
  B       0.918846     -0.927018      0.379282
  B      -1.243708      0.116781     -0.406200
  B       0.001358      1.205517     -0.654784
  B       0.036749     -0.649978     -1.046678
6
Coordinates from ORCA-job B6_random_3d_seed1004_d1.80_q0_m3_R2SCAN-3C E -148.665943267340
  B      -0.569479     -0.488788      0.943593
  B       0.852240      0.729155      0.688366
  B       0.923516     -0.907056      0.378797
  B      -1.247409      0.132219     -0.404476
  B      -0.007947      1.197835     -0.612279
  B       0.049078     -0.663363     -0.994001
6
Coordinates from ORCA-job B6_random_3d_seed1004_d1.80_q0_m3_R2SCAN-3C E -148.680086617368
  B      -0.586051     -0.491523      0.870996
  B       0.877854      0.702478      0.630804
  B       0.940235     -0.882517      0.389332
  B      -1.259114      0.160044     -0.413159
  B      -0.036741      1.195227     -0.557893
  B       0.063817     -0.683710     -0.920080
6
Coordinates from ORCA-job B6_random_3d_seed1004_d1.80_q0_m3_R2SCAN-3C E -148.688413529272
  B      -0.600865     -0.493802      0.816796
  B       0.926571      0.677217      0.575819
  B       0.959330     -0.875597      0.420697
  B      -1.275392      0.181925     -0.440062
  B      -0.084980      1.210372     -0.505762
  B       0.075336     -0.700115     -0.867488
6
Coordinates from ORCA-job B6_random_3d_seed1004_d1.80_q0_m3_R2SCAN-3C E -148.693591730576
  B      -0.614487     -0.492217      0.801233
  B       0.975231      0.669456      0.524334
  B       0.966440     -0.889355      0.458155
  B      -1.287106      0.185463     -0.472722
  B      -0.127552      1.235846     -0.456573
  B       0.087475     -0.709193     -0.854427
6
Coordinates from ORCA-job B6_random_3d_seed1004_d1.80_q0_m3_R2SCAN-3C E -148.696979147684
  B      -0.631002     -0.488123      0.806078
  B       1.019058      0.667864      0.468231
  B       0.957812     -0.902108      0.492290
  B      -1.288237      0.175612     -0.503881
  B      -0.160967      1.262140     -0.402659
  B       0.103336     -0.715385     -0.860059
6
Coordinates from ORCA-job B6_random_3d_seed1004_d1.80_q0_m3_R2SCAN-3C E -148.698855789907
  B      -0.645174     -0.486723      0.813039
  B       1.052367      0.665766      0.417431
  B       0.940332     -0.901279      0.517425
  B      -1.277024      0.163324     -0.528171
  B      -0.184400      1.281402     -0.352028
  B       0.113900     -0.722489     -0.867697
6
Coordinates from ORCA-job B6_random_3d_seed1004_d1.80_q0_m3_R2SCAN-3C E -148.699992282308
  B      -0.654054     -0.492301      0.817406
  B       1.075719      0.667242      0.377463
  B       0.920178     -0.890613      0.535299
  B      -1.256819      0.153155     -0.546641
  B      -0.198112      1.295576     -0.309528
  B       0.113088     -0.733059     -0.873998
6
Coordinates from ORCA-job B6_random_3d_seed1004_d1.80_q0_m3_R2SCAN-3C E -148.700458244576
  B      -0.655731     -0.503423      0.816584
  B       1.087112      0.672193      0.359779
  B       0.906441     -0.877426      0.542916
  B      -1.237789      0.148808     -0.556321
  B      -0.201725      1.304079     -0.287797
  B       0.101691     -0.744231     -0.875162
6
Coordinates from ORCA-job B6_random_3d_seed1004_d1.80_q0_m3_R2SCAN-3C E -148.700529294390
  B      -0.654096     -0.509394      0.813916
  B       1.087568      0.675504      0.362293
  B       0.904979     -0.872527      0.541281
  B      -1.232035      0.149788     -0.556972
  B      -0.199997      1.305741     -0.287959
  B       0.093581     -0.749112     -0.872560
6
Coordinates from ORCA-job B6_random_3d_seed1004_d1.80_q0_m3_R2SCAN-3C E -148.700542162481
  B      -0.653528     -0.510267      0.813290
  B       1.086430      0.676737      0.366055
  B       0.906228     -0.871955      0.538696
  B      -1.231317      0.150680     -0.556489
  B      -0.198913      1.305496     -0.290374
  B       0.091101     -0.750692     -0.871178
6
Coordinates from ORCA-job B6_random_3d_seed1004_d1.80_q0_m3_R2SCAN-3C E -148.700552434498
  B      -0.653545     -0.509838      0.813648
  B       1.085605      0.678084      0.369680
  B       0.907583     -0.871732      0.535478
  B      -1.230540      0.151087     -0.556790
  B      -0.198242      1.305254     -0.291682
  B       0.089140     -0.752855     -0.870333
6
Coordinates from ORCA-job B6_random_3d_seed1004_d1.80_q0_m3_R2SCAN-3C E -148.700560612775
  B      -0.654014     -0.508150      0.814760
  B       1.085573      0.679394      0.372347
  B       0.908616     -0.871607      0.532348
  B      -1.229692      0.150857     -0.558152
  B      -0.198241      1.305149     -0.291059
  B       0.087758     -0.755644     -0.870245
6
Coordinates from ORCA-job B6_random_3d_seed1004_d1.80_q0_m3_R2SCAN-3C E -148.700564852128
  B      -0.654386     -0.506201      0.815604
  B       1.086334      0.680124      0.372994
  B       0.908858     -0.871418      0.530906
  B      -1.229193      0.150295     -0.559865
  B      -0.198841      1.305121     -0.288869
  B       0.087229     -0.757921     -0.870770
6
Coordinates from ORCA-job B6_random_3d_seed1004_d1.80_q0_m3_R2SCAN-3C E -148.700566824468
  B      -0.654306     -0.504698      0.815749
  B       1.087168      0.680417      0.372803
  B       0.908712     -0.871202      0.530673
  B      -1.229163      0.149889     -0.561155
  B      -0.199480      1.304923     -0.286763
  B       0.087069     -0.759329     -0.871306
6
Coordinates from ORCA-job B6_random_3d_seed1004_d1.80_q0_m3_R2SCAN-3C E -148.700567827039
  B      -0.653852     -0.503610      0.815459
  B       1.087744      0.680571      0.372749
  B       0.908539     -0.871016      0.530784
  B      -1.229418      0.149705     -0.561963
  B      -0.199899      1.304486     -0.285372
  B       0.086886     -0.760136     -0.871658
6
Coordinates from ORCA-job B6_random_3d_seed1004_d1.80_q0_m3_R2SCAN-3C E -148.700568427397
  B      -0.653217     -0.502703      0.814985
  B       1.088076      0.680738      0.373081
  B       0.908457     -0.870888      0.530827
  B      -1.229765      0.149644     -0.562443
  B      -0.200120      1.303798     -0.284605
  B       0.086569     -0.760590     -0.871845
6
Coordinates from ORCA-job B6_random_3d_seed1004_d1.80_q0_m3_R2SCAN-3C E -148.700568697533
  B      -0.652838     -0.502347      0.814749
  B       1.088132      0.680806      0.373535
  B       0.908475     -0.870813      0.530703
  B      -1.230050      0.149628     -0.562556
  B      -0.200055      1.303227     -0.284633
  B       0.086336     -0.760500     -0.871798
6
Coordinates from ORCA-job B6_random_3d_seed1004_d1.80_q0_m3_R2SCAN-3C E -148.700568938141
  B      -0.652724     -0.502398      0.814700
  B       1.088075      0.680781      0.373842
  B       0.908512     -0.870824      0.530622
  B      -1.230278      0.149612     -0.562413
  B      -0.199853      1.302777     -0.285103
  B       0.086267     -0.759947     -0.871647
6
Coordinates from ORCA-job B6_random_3d_seed1004_d1.80_q0_m3_R2SCAN-3C E -148.700569157883
  B      -0.652623     -0.502117      0.814668
  B       1.088289      0.680854      0.374295
  B       0.908547     -0.870790      0.530405
  B      -1.230699      0.149445     -0.562488
  B      -0.199639      1.301818     -0.285394
  B       0.086125     -0.759210     -0.871486
6
Coordinates from ORCA-job B6_random_3d_seed1004_d1.80_q0_m3_R2SCAN-3C E -148.700569351199
  B      -0.652772     -0.501926      0.814770
  B       1.088622      0.680980      0.374275
  B       0.908525     -0.870725      0.530355
  B      -1.230779      0.149302     -0.562720
  B      -0.199663      1.301489     -0.285132
  B       0.086067     -0.759120     -0.871548
