6
Coordinates from ORCA-job B6_rhombic_planar_d2.00_q0_m5_R2SCAN-3C E -148.481435941128
  B      -2.500000     -0.866025      0.000000
  B      -0.500000     -0.866025      0.000000
  B       1.500000     -0.866025      0.000000
  B      -1.500000      0.866025      0.000000
  B       0.500000      0.866025      0.000000
  B       2.500000      0.866025      0.000000
6
Coordinates from ORCA-job B6_rhombic_planar_d2.00_q0_m5_R2SCAN-3C E -148.526457675314
  B      -2.428687     -0.832138      0.000000
  B      -0.476711     -0.852115     -0.000000
  B       1.471536     -0.843094      0.000000
  B      -1.471536      0.843094     -0.000000
  B       0.476711      0.852115      0.000000
  B       2.428687      0.832138      0.000000
6
Coordinates from ORCA-job B6_rhombic_planar_d2.00_q0_m5_R2SCAN-3C E -148.569819263242
  B      -2.357897     -0.797027      0.000000
  B      -0.452286     -0.839819     -0.000000
  B       1.443845     -0.819473     -0.000000
  B      -1.443845      0.819473     -0.000000
  B       0.452286      0.839819     -0.000000
  B       2.357897      0.797027      0.000000
6
Coordinates from ORCA-job B6_rhombic_planar_d2.00_q0_m5_R2SCAN-3C E -148.627924060929
  B      -2.254897     -0.743592     -0.000000
  B      -0.416321     -0.822580     -0.000000
  B       1.401810     -0.780728      0.000000
  B      -1.401810      0.780728     -0.000000
  B       0.416321      0.822580      0.000000
  B       2.254897      0.743592     -0.000000
6
Coordinates from ORCA-job B6_rhombic_planar_d2.00_q0_m5_R2SCAN-3C E -148.684885543748
  B      -2.113837     -0.667295     -0.000000
  B      -0.366048     -0.795575      0.000000
  B       1.329710     -0.714149     -0.000000
  B      -1.329710      0.714149      0.000000
  B       0.366048      0.795575     -0.000000
  B       2.113837      0.667295      0.000000
6
Coordinates from ORCA-job B6_rhombic_planar_d2.00_q0_m5_R2SCAN-3C E -148.694553548542
  B      -2.048182     -0.635604     -0.000000
  B      -0.340319     -0.769282      0.000000
  B       1.252522     -0.663418      0.000000
  B      -1.252522      0.663418      0.000000
  B       0.340319      0.769282     -0.000000
  B       2.048182      0.635604     -0.000000
6
Coordinates from ORCA-job B6_rhombic_planar_d2.00_q0_m5_R2SCAN-3C E -148.696053006552
  B      -2.080194     -0.644834     -0.000000
  B      -0.352692     -0.766554      0.000000
  B       1.257850     -0.656749      0.000000
  B      -1.257850      0.656749      0.000000
  B       0.352692      0.766554      0.000000
  B       2.080194      0.644834     -0.000000
6
Coordinates from ORCA-job B6_rhombic_planar_d2.00_q0_m5_R2SCAN-3C E -148.696316387864
  B      -2.096417     -0.643339      0.000000
  B      -0.355617     -0.762554     -0.000000
  B       1.258711     -0.643505     -0.000000
  B      -1.258711      0.643505     -0.000000
  B       0.355617      0.762554     -0.000000
  B       2.096417      0.643339      0.000000
6
Coordinates from ORCA-job B6_rhombic_planar_d2.00_q0_m5_R2SCAN-3C E -148.696349023782
  B      -2.100506     -0.643540     -0.000000
  B      -0.353079     -0.762150      0.000000
  B       1.256310     -0.641947      0.000000
  B      -1.256310      0.641947      0.000000
  B       0.353079      0.762150      0.000000
  B       2.100506      0.643540     -0.000000
6
Coordinates from ORCA-job B6_rhombic_planar_d2.00_q0_m5_R2SCAN-3C E -148.696362928208
  B      -2.102574     -0.642247      0.000000
  B      -0.351148     -0.763372     -0.000000
  B       1.257436     -0.640815     -0.000000
  B      -1.257436      0.640815     -0.000000
  B       0.351148      0.763372     -0.000000
  B       2.102574      0.642247      0.000000
6
Coordinates from ORCA-job B6_rhombic_planar_d2.00_q0_m5_R2SCAN-3C E -148.696365286175
  B      -2.102764     -0.641786     -0.000000
  B      -0.350676     -0.764392      0.000000
  B       1.257170     -0.640384      0.000000
  B      -1.257170      0.640384      0.000000
  B       0.350676      0.764392      0.000000
  B       2.102764      0.641786     -0.000000
6
Coordinates from ORCA-job B6_rhombic_planar_d2.00_q0_m5_R2SCAN-3C E -148.696365837091
  B      -2.102777     -0.641662      0.000000
  B      -0.350706     -0.765025     -0.000000
  B       1.256808     -0.640143     -0.000000
  B      -1.256808      0.640143      0.000000
  B       0.350706      0.765025     -0.000000
  B       2.102777      0.641662      0.000000
6
Coordinates from ORCA-job B6_rhombic_planar_d2.00_q0_m5_R2SCAN-3C E -148.696365865756
  B      -2.102734     -0.641696     -0.000000
  B      -0.350813     -0.765102      0.000000
  B       1.256742     -0.640145      0.000000
  B      -1.256742      0.640145     -0.000000
  B       0.350813      0.765102      0.000000
  B       2.102734      0.641696     -0.000000
