6
Coordinates from ORCA-job B6_rhombic_planar_d2.00_q0_m5_R2SCAN-3C E -148.696365865756
  B          -2.10273363522018     -0.64169586946461     -0.00000001842135
  B          -0.35081305568047     -0.76510220448772      0.00000001873081
  B           1.25674241176239     -0.64014468146260      0.00000000003094
  B          -1.25674241568403      0.64014468313503     -0.00000000225269
  B           0.35081305804328      0.76510220266584      0.00000002227042
  B           2.10273363677900      0.64169586961406     -0.00000002035813
