6
Coordinates from ORCA-job FINAL_rank07_B6_rhombic_planar_d1.60_q0_m3_R2SCAN-3C_PBE0_def2-TZVP_OptFreq E -148.631808352915
  B          -1.93165169590720     -0.62692668573537      0.00000098688574
  B          -0.36222421270352     -0.89049379527271     -0.00000167985846
  B           1.21275740384004     -0.70888106848879      0.00000093543544
  B          -1.21275521118470      0.70888568358760     -0.00000023302048
  B           0.36222745891116      0.89048688516775      0.00000006828747
  B           1.93164625704422      0.62692898074152     -0.00000007772970
