6
Coordinates from ORCA-job FINAL_rank07_B6_rhombic_planar_d1.60_q0_m3_R2SCAN-3C_PBE0_def2-TZVP_OptFreq E -148.631673350131
  B      -1.940997     -0.629516      0.000000
  B      -0.360062     -0.872820     -0.000000
  B       1.217933     -0.707552     -0.000000
  B      -1.217933      0.707552      0.000000
  B       0.360062      0.872820     -0.000000
  B       1.940997      0.629516      0.000000
6
Coordinates from ORCA-job FINAL_rank07_B6_rhombic_planar_d1.60_q0_m3_R2SCAN-3C_PBE0_def2-TZVP_OptFreq E -148.631713988508
  B      -1.938247     -0.628694     -0.000001
  B      -0.359912     -0.873990      0.000001
  B       1.217605     -0.707928      0.000001
  B      -1.217606      0.707927      0.000001
  B       0.359910      0.873991      0.000000
  B       1.938250      0.628694     -0.000001
6
Coordinates from ORCA-job FINAL_rank07_B6_rhombic_planar_d1.60_q0_m3_R2SCAN-3C_PBE0_def2-TZVP_OptFreq E -148.631763778413
  B      -1.931618     -0.626920     -0.000006
  B      -0.359780     -0.878497      0.000001
  B       1.216677     -0.709415      0.000005
  B      -1.216677      0.709415      0.000004
  B       0.359777      0.878495      0.000002
  B       1.931620      0.626923     -0.000006
6
Coordinates from ORCA-job FINAL_rank07_B6_rhombic_planar_d1.60_q0_m3_R2SCAN-3C_PBE0_def2-TZVP_OptFreq E -148.631775845213
  B      -1.930450     -0.626735     -0.000004
  B      -0.359955     -0.880943      0.000000
  B       1.216300     -0.710100      0.000004
  B      -1.216301      0.710100      0.000003
  B       0.359953      0.880941      0.000002
  B       1.930452      0.626737     -0.000004
6
Coordinates from ORCA-job FINAL_rank07_B6_rhombic_planar_d1.60_q0_m3_R2SCAN-3C_PBE0_def2-TZVP_OptFreq E -148.631797014687
  B      -1.929565     -0.626812      0.000009
  B      -0.360652     -0.887348     -0.000001
  B       1.215197     -0.711416     -0.000008
  B      -1.215196      0.711424     -0.000010
  B       0.360654      0.887344      0.000003
  B       1.929562      0.626809      0.000007
6
Coordinates from ORCA-job FINAL_rank07_B6_rhombic_planar_d1.60_q0_m3_R2SCAN-3C_PBE0_def2-TZVP_OptFreq E -148.631802858186
  B      -1.930319     -0.626976      0.000006
  B      -0.360981     -0.888797     -0.000001
  B       1.214690     -0.711179     -0.000005
  B      -1.214687      0.711189     -0.000007
  B       0.360987      0.888789      0.000003
  B       1.930309      0.626973      0.000004
6
Coordinates from ORCA-job FINAL_rank07_B6_rhombic_planar_d1.60_q0_m3_R2SCAN-3C_PBE0_def2-TZVP_OptFreq E -148.631804251917
  B      -1.931327     -0.627072      0.000004
  B      -0.361457     -0.889979     -0.000001
  B       1.213892     -0.710352     -0.000002
  B      -1.213892      0.710358     -0.000004
  B       0.361461      0.889972      0.000002
  B       1.931323      0.627073      0.000001
6
Coordinates from ORCA-job FINAL_rank07_B6_rhombic_planar_d1.60_q0_m3_R2SCAN-3C_PBE0_def2-TZVP_OptFreq E -148.631806587835
  B      -1.931754     -0.627027     -0.000003
  B      -0.361822     -0.890362     -0.000002
  B       1.213285     -0.709554      0.000005
  B      -1.213285      0.709557      0.000003
  B       0.361824      0.890355      0.000001
  B       1.931752      0.627030     -0.000005
6
Coordinates from ORCA-job FINAL_rank07_B6_rhombic_planar_d1.60_q0_m3_R2SCAN-3C_PBE0_def2-TZVP_OptFreq E -148.631804713171
  B      -1.931773     -0.626936      0.000001
  B      -0.362145     -0.890539     -0.000002
  B       1.212813     -0.708939      0.000001
  B      -1.212810      0.708942     -0.000000
  B       0.362148      0.890532     -0.000001
  B       1.931768      0.626940      0.000000
6
Coordinates from ORCA-job FINAL_rank07_B6_rhombic_planar_d1.60_q0_m3_R2SCAN-3C_PBE0_def2-TZVP_OptFreq E -148.631808352915
  B      -1.931652     -0.626927      0.000001
  B      -0.362224     -0.890494     -0.000002
  B       1.212757     -0.708881      0.000001
  B      -1.212755      0.708886     -0.000000
  B       0.362227      0.890487      0.000000
  B       1.931646      0.626929     -0.000000
