6
Coordinates from ORCA-job B6_random_3d_seed1001_d1.80_q0_m5_R2SCAN-3C E -148.594936559371
  B       0.119858     -1.283895     -0.365851
  B      -0.054950      1.176853      0.398707
  B       0.320761      0.451743     -1.139454
  B      -0.368686     -0.572121      1.181593
  B       1.223598      0.086552      0.381535
  B      -1.240580      0.140868     -0.456531
6
Coordinates from ORCA-job B6_random_3d_seed1001_d1.80_q0_m5_R2SCAN-3C E -148.614377948948
  B       0.109895     -1.251201     -0.343549
  B      -0.056453      1.160551      0.388662
  B       0.305322      0.452504     -1.131252
  B      -0.348355     -0.571071      1.154855
  B       1.192680      0.073471      0.384711
  B      -1.203090      0.135746     -0.453428
6
Coordinates from ORCA-job B6_random_3d_seed1001_d1.80_q0_m5_R2SCAN-3C E -148.628279069864
  B       0.097743     -1.218342     -0.321674
  B      -0.055697      1.146098      0.378900
  B       0.289963      0.456146     -1.127701
  B      -0.327226     -0.571896      1.131960
  B       1.160943      0.060300      0.390462
  B      -1.165726      0.127693     -0.451948
6
Coordinates from ORCA-job B6_random_3d_seed1001_d1.80_q0_m5_R2SCAN-3C E -148.636480458688
  B       0.081682     -1.184649     -0.305536
  B      -0.053132      1.135008      0.370209
  B       0.278316      0.464662     -1.131575
  B      -0.306248     -0.571532      1.118031
  B       1.129272      0.045216      0.399503
  B      -1.129891      0.111295     -0.450631
6
Coordinates from ORCA-job B6_random_3d_seed1001_d1.80_q0_m5_R2SCAN-3C E -148.641371416274
  B       0.054370     -1.143676     -0.300895
  B      -0.049315      1.127371      0.358838
  B       0.274239      0.484108     -1.145302
  B      -0.283021     -0.567228      1.120114
  B       1.094346      0.023952      0.414076
  B      -1.090619      0.075473     -0.446831
6
Coordinates from ORCA-job B6_random_3d_seed1001_d1.80_q0_m5_R2SCAN-3C E -148.643524534525
  B       0.037591     -1.127499     -0.310295
  B      -0.048152      1.128852      0.351769
  B       0.280674      0.500876     -1.158072
  B      -0.276397     -0.564077      1.137928
  B       1.084488      0.012540      0.421881
  B      -1.078205      0.049308     -0.443211
6
Coordinates from ORCA-job B6_random_3d_seed1001_d1.80_q0_m5_R2SCAN-3C E -148.645172940801
  B       0.027099     -1.123204     -0.326090
  B      -0.048326      1.134977      0.343840
  B       0.292922      0.521214     -1.173092
  B      -0.277138     -0.562313      1.167556
  B       1.085624      0.002344      0.427415
  B      -1.080181      0.026982     -0.439629
6
Coordinates from ORCA-job B6_random_3d_seed1001_d1.80_q0_m5_R2SCAN-3C E -148.645363944001
  B       0.030553     -1.126897     -0.329861
  B      -0.048554      1.136232      0.340140
  B       0.296219      0.526643     -1.174895
  B      -0.278522     -0.561478      1.174796
  B       1.087333     -0.000959      0.428204
  B      -1.087030      0.026459     -0.438383
6
Coordinates from ORCA-job B6_random_3d_seed1001_d1.80_q0_m5_R2SCAN-3C E -148.645418858999
  B       0.031661     -1.126252     -0.331721
  B      -0.047987      1.135368      0.335864
  B       0.297755      0.531524     -1.175031
  B      -0.277669     -0.559723      1.178157
  B       1.085423     -0.004787      0.429647
  B      -1.089183      0.023870     -0.436917
6
Coordinates from ORCA-job B6_random_3d_seed1001_d1.80_q0_m5_R2SCAN-3C E -148.645448732958
  B       0.033457     -1.125698     -0.333041
  B      -0.046990      1.133754      0.331806
  B       0.298173      0.535239     -1.173113
  B      -0.276805     -0.557002      1.178960
  B       1.083597     -0.008235      0.430962
  B      -1.091431      0.021942     -0.435574
6
Coordinates from ORCA-job B6_random_3d_seed1001_d1.80_q0_m5_R2SCAN-3C E -148.645455630657
  B       0.034001     -1.125431     -0.333524
  B      -0.046358      1.132953      0.330952
  B       0.297692      0.535943     -1.171645
  B      -0.276837     -0.555333      1.178155
  B       1.083531     -0.009131      0.431347
  B      -1.092029      0.021000     -0.435286
6
Coordinates from ORCA-job B6_random_3d_seed1001_d1.80_q0_m5_R2SCAN-3C E -148.645460164802
  B       0.034384     -1.125242     -0.334014
  B      -0.045686      1.132239      0.330969
  B       0.296811      0.536236     -1.170381
  B      -0.277394     -0.553412      1.177080
  B       1.084223     -0.009721      0.431604
  B      -1.092339      0.019901     -0.435258
6
Coordinates from ORCA-job B6_random_3d_seed1001_d1.80_q0_m5_R2SCAN-3C E -148.645463229473
  B       0.034776     -1.125146     -0.334356
  B      -0.045136      1.131657      0.331475
  B       0.295814      0.536569     -1.169913
  B      -0.278259     -0.551698      1.176388
  B       1.085207     -0.010293      0.431798
  B      -1.092402      0.018912     -0.435391
6
Coordinates from ORCA-job B6_random_3d_seed1001_d1.80_q0_m5_R2SCAN-3C E -148.645467224067
  B       0.035666     -1.125061     -0.334641
  B      -0.044301      1.130639      0.332424
  B       0.294049      0.537528     -1.170016
  B      -0.279853     -0.549090      1.175748
  B       1.086777     -0.011498      0.432169
  B      -1.092338      0.017482     -0.435684
6
Coordinates from ORCA-job B6_random_3d_seed1001_d1.80_q0_m5_R2SCAN-3C E -148.645471355585
  B       0.036947     -1.125028     -0.334543
  B      -0.043373      1.129280      0.333460
  B       0.291851      0.539043     -1.170924
  B      -0.281741     -0.546454      1.175421
  B       1.088354     -0.013060      0.432678
  B      -1.092038      0.016219     -0.436093
6
Coordinates from ORCA-job B6_random_3d_seed1001_d1.80_q0_m5_R2SCAN-3C E -148.645475405159
  B       0.038673     -1.125107     -0.333964
  B      -0.042219      1.127401      0.334393
  B       0.289112      0.541286     -1.172576
  B      -0.283902     -0.543792      1.175345
  B       1.089852     -0.014962      0.433417
  B      -1.091515      0.015174     -0.436615
6
Coordinates from ORCA-job B6_random_3d_seed1001_d1.80_q0_m5_R2SCAN-3C E -148.645477315528
  B       0.039639     -1.125317     -0.333297
  B      -0.041488      1.126162      0.334587
  B       0.287539      0.542793     -1.173761
  B      -0.284970     -0.542801      1.175440
  B       1.090379     -0.015824      0.433950
  B      -1.091099      0.014986     -0.436918
6
Coordinates from ORCA-job B6_random_3d_seed1001_d1.80_q0_m5_R2SCAN-3C E -148.645478037930
  B       0.039573     -1.125558     -0.332921
  B      -0.041376      1.126014      0.334264
  B       0.287502      0.543044     -1.174059
  B      -0.284858     -0.543403      1.175564
  B       1.090096     -0.015506      0.434071
  B      -1.090938      0.015408     -0.436919
6
Coordinates from ORCA-job B6_random_3d_seed1001_d1.80_q0_m5_R2SCAN-3C E -148.645478284303
  B       0.039570     -1.125847     -0.332683
  B      -0.041165      1.125765      0.334132
  B       0.287219      0.543270     -1.174202
  B      -0.284986     -0.543572      1.175448
  B       1.090148     -0.015243      0.434240
  B      -1.090787      0.015628     -0.436936
6
Coordinates from ORCA-job B6_random_3d_seed1001_d1.80_q0_m5_R2SCAN-3C E -148.645478400310
  B       0.039597     -1.125973     -0.332723
  B      -0.040984      1.125558      0.334082
  B       0.286957      0.543510     -1.174173
  B      -0.285191     -0.543287      1.175295
  B       1.090325     -0.015271      0.434397
  B      -1.090705      0.015462     -0.436877
