6
Coordinates from ORCA-job B6_random_3d_seed1001_d1.80_q0_m5_R2SCAN-3C E -148.645478400310
  B           0.03959730123072     -1.12597255307333     -0.33272339248443
  B          -0.04098355186563      1.12555843278398      0.33408187063994
  B           0.28695724364093      0.54350990908432     -1.17417349414611
  B          -0.28519090829498     -0.54328712607910      1.17529511301944
  B           1.09032527829252     -0.01527104429176      0.43439726038644
  B          -1.09070536300357      0.01546237157589     -0.43687734741529
