6
Coordinates from ORCA-job B6_random_3d_seed1002_d1.60_q0_m5_R2SCAN-3C E -148.658756685459
  B           0.37648821202461     -0.49769409289391     -0.83361287564778
  B           0.43047815922960      1.21770258435492     -0.08924108541398
  B          -0.72913627416386      0.65714676203340     -1.03181421058461
  B           0.06344056855775     -1.41607676680453      0.68173267141242
  B           0.79582238506924     -0.02172846809323      0.82312653255984
  B          -0.93709304071734      0.06064996140335      0.44980895767409
