6
Coordinates from ORCA-job B6_random_3d_seed1002_d1.60_q0_m5_R2SCAN-3C E -148.538103344050
  B       0.410000     -0.459995     -1.003892
  B       0.791274      0.981879     -0.292941
  B      -0.818388      0.500488     -0.742463
  B       0.141194     -1.141754      0.404911
  B       0.482778      0.139860      1.110875
  B      -1.006859     -0.020478      0.523511
6
Coordinates from ORCA-job B6_random_3d_seed1002_d1.60_q0_m5_R2SCAN-3C E -148.570832398772
  B       0.416979     -0.457350     -1.012051
  B       0.780045      1.013885     -0.291730
  B      -0.818796      0.515366     -0.796313
  B       0.130111     -1.187641      0.427231
  B       0.510248      0.133733      1.117843
  B      -1.018587     -0.017994      0.555020
6
Coordinates from ORCA-job B6_random_3d_seed1002_d1.60_q0_m5_R2SCAN-3C E -148.590913760592
  B       0.411739     -0.457654     -1.011304
  B       0.764716      1.045886     -0.280163
  B      -0.817537      0.534324     -0.849940
  B       0.127243     -1.238807      0.453599
  B       0.539681      0.129051      1.114552
  B      -1.025844     -0.012800      0.573256
6
Coordinates from ORCA-job B6_random_3d_seed1002_d1.60_q0_m5_R2SCAN-3C E -148.605125251908
  B       0.398402     -0.459590     -0.998723
  B       0.740834      1.075575     -0.262603
  B      -0.813952      0.556258     -0.899397
  B       0.128808     -1.288921      0.482796
  B       0.569390      0.121225      1.101404
  B      -1.023481     -0.004547      0.576523
6
Coordinates from ORCA-job B6_random_3d_seed1002_d1.60_q0_m5_R2SCAN-3C E -148.622351262887
  B       0.373392     -0.464929     -0.965477
  B       0.693534      1.114828     -0.235089
  B      -0.803504      0.594154     -0.963741
  B       0.135579     -1.359225      0.527230
  B       0.610211      0.104898      1.070594
  B      -1.009212      0.010274      0.566483
6
Coordinates from ORCA-job B6_random_3d_seed1002_d1.60_q0_m5_R2SCAN-3C E -148.640706941902
  B       0.336749     -0.475588     -0.898932
  B       0.606677      1.163066     -0.198573
  B      -0.774365      0.654275     -1.039649
  B       0.148799     -1.452146      0.588631
  B       0.661179      0.075143      1.007290
  B      -0.979039      0.035249      0.541234
6
Coordinates from ORCA-job B6_random_3d_seed1002_d1.60_q0_m5_R2SCAN-3C E -148.649442586844
  B       0.318780     -0.485326     -0.837976
  B       0.523167      1.189526     -0.174564
  B      -0.737575      0.691193     -1.076334
  B       0.155536     -1.503959      0.622947
  B       0.693047      0.045120      0.943395
  B      -0.952956      0.063446      0.522532
6
Coordinates from ORCA-job B6_random_3d_seed1002_d1.60_q0_m5_R2SCAN-3C E -148.653302594347
  B       0.324825     -0.492216     -0.808522
  B       0.470112      1.193451     -0.158454
  B      -0.714938      0.688505     -1.079110
  B       0.151256     -1.503859      0.622916
  B       0.709017      0.021427      0.905882
  B      -0.940272      0.092691      0.517288
6
Coordinates from ORCA-job B6_random_3d_seed1002_d1.60_q0_m5_R2SCAN-3C E -148.655678259844
  B       0.339665     -0.498894     -0.800277
  B       0.441631      1.187764     -0.141415
  B      -0.706374      0.663241     -1.067427
  B       0.141960     -1.473282      0.606306
  B       0.719990      0.001975      0.887823
  B      -0.936873      0.119197      0.514990
6
Coordinates from ORCA-job B6_random_3d_seed1002_d1.60_q0_m5_R2SCAN-3C E -148.656333039766
  B       0.342673     -0.502954     -0.805072
  B       0.444190      1.186250     -0.132634
  B      -0.709435      0.649757     -1.060243
  B       0.138089     -1.452707      0.598904
  B       0.725083     -0.002275      0.888487
  B      -0.940600      0.121929      0.510559
6
Coordinates from ORCA-job B6_random_3d_seed1002_d1.60_q0_m5_R2SCAN-3C E -148.656748882595
  B       0.338909     -0.507449     -0.807911
  B       0.448812      1.189689     -0.124847
  B      -0.711769      0.647170     -1.057806
  B       0.136533     -1.442941      0.600900
  B       0.731826     -0.003042      0.887406
  B      -0.944312      0.116573      0.502259
6
Coordinates from ORCA-job B6_random_3d_seed1002_d1.60_q0_m5_R2SCAN-3C E -148.657306288621
  B       0.328995     -0.515709     -0.810672
  B       0.453798      1.199774     -0.111151
  B      -0.713217      0.650773     -1.055771
  B       0.133419     -1.434222      0.612789
  B       0.746343     -0.002938      0.880571
  B      -0.949337      0.102321      0.484233
6
Coordinates from ORCA-job B6_random_3d_seed1002_d1.60_q0_m5_R2SCAN-3C E -148.657634191882
  B       0.323657     -0.520994     -0.812489
  B       0.452798      1.208845     -0.101804
  B      -0.711965      0.656543     -1.053710
  B       0.128205     -1.432453      0.626221
  B       0.758260     -0.002703      0.871024
  B      -0.950955      0.090763      0.470759
6
Coordinates from ORCA-job B6_random_3d_seed1002_d1.60_q0_m5_R2SCAN-3C E -148.657941666069
  B       0.325075     -0.524177     -0.816119
  B       0.446952      1.217449     -0.094107
  B      -0.709680      0.661270     -1.049200
  B       0.118047     -1.431965      0.641257
  B       0.769866     -0.003523      0.857935
  B      -0.950260      0.080945      0.460234
6
Coordinates from ORCA-job B6_random_3d_seed1002_d1.60_q0_m5_R2SCAN-3C E -148.658255452480
  B       0.336074     -0.524050     -0.823267
  B       0.437914      1.224721     -0.088104
  B      -0.708577      0.662661     -1.041406
  B       0.101221     -1.429878      0.657125
  B       0.780869     -0.006223      0.841970
  B      -0.947500      0.072771      0.453682
6
Coordinates from ORCA-job B6_random_3d_seed1002_d1.60_q0_m5_R2SCAN-3C E -148.658494142411
  B       0.354023     -0.519368     -0.832062
  B       0.430306      1.228654     -0.085097
  B      -0.711123      0.660037     -1.033055
  B       0.081713     -1.425318      0.670301
  B       0.788766     -0.010796      0.827746
  B      -0.943686      0.066791      0.452166
6
Coordinates from ORCA-job B6_random_3d_seed1002_d1.60_q0_m5_R2SCAN-3C E -148.658619721329
  B       0.368217     -0.512416     -0.837446
  B       0.428030      1.228460     -0.085419
  B      -0.716300      0.656692     -1.029129
  B       0.069140     -1.421201      0.677171
  B       0.791526     -0.015234      0.821079
  B      -0.940614      0.063699      0.453745
6
Coordinates from ORCA-job B6_random_3d_seed1002_d1.60_q0_m5_R2SCAN-3C E -148.658694181660
  B       0.375821     -0.505569     -0.838776
  B       0.428954      1.225510     -0.087150
  B      -0.721845      0.654649     -1.029433
  B       0.064230     -1.418534      0.679618
  B       0.791227     -0.018951      0.820158
  B      -0.938387      0.062894      0.455582
6
Coordinates from ORCA-job B6_random_3d_seed1002_d1.60_q0_m5_R2SCAN-3C E -148.658729239446
  B       0.376947     -0.501297     -0.837377
  B       0.430561      1.222096     -0.088187
  B      -0.725573      0.654610     -1.031679
  B       0.064679     -1.417132      0.680074
  B       0.790597     -0.021226      0.821713
  B      -0.937210      0.062948      0.455457
6
Coordinates from ORCA-job B6_random_3d_seed1002_d1.60_q0_m5_R2SCAN-3C E -148.658741564919
  B       0.375404     -0.500001     -0.835876
  B       0.431222      1.220367     -0.088152
  B      -0.726813      0.655734     -1.033016
  B       0.065966     -1.416667      0.680652
  B       0.791149     -0.021856      0.822669
  B      -0.936929      0.062423      0.453724
6
Coordinates from ORCA-job B6_random_3d_seed1002_d1.60_q0_m5_R2SCAN-3C E -148.658748869393
  B       0.374309     -0.499227     -0.834827
  B       0.431146      1.219327     -0.087926
  B      -0.727464      0.657079     -1.033363
  B       0.066109     -1.416381      0.681942
  B       0.792662     -0.022065      0.822730
  B      -0.936762      0.061266      0.451445
6
Coordinates from ORCA-job B6_random_3d_seed1002_d1.60_q0_m5_R2SCAN-3C E -148.658753038609
  B       0.374241     -0.498616     -0.834317
  B       0.430740      1.218668     -0.088040
  B      -0.727892      0.657978     -1.032951
  B       0.065343     -1.416257      0.682995
  B       0.794267     -0.022007      0.822560
  B      -0.936699      0.060235      0.449753
6
Coordinates from ORCA-job B6_random_3d_seed1002_d1.60_q0_m5_R2SCAN-3C E -148.658755131314
  B       0.374714     -0.498285     -0.834062
  B       0.430468      1.218225     -0.088554
  B      -0.728119      0.658060     -1.032447
  B       0.064721     -1.416355      0.682853
  B       0.795012     -0.021779      0.822799
  B      -0.936796      0.060135      0.449411
6
Coordinates from ORCA-job B6_random_3d_seed1002_d1.60_q0_m5_R2SCAN-3C E -148.658756229413
  B       0.376130     -0.497657     -0.833947
  B       0.430214      1.217766     -0.089056
  B      -0.728808      0.657662     -1.031711
  B       0.063401     -1.416064      0.682652
  B       0.795945     -0.021795      0.822779
  B      -0.936881      0.060088      0.449284
6
Coordinates from ORCA-job B6_random_3d_seed1002_d1.60_q0_m5_R2SCAN-3C E -148.658756536569
  B       0.376287     -0.497678     -0.833794
  B       0.430381      1.217699     -0.089240
  B      -0.728949      0.657393     -1.031766
  B       0.063491     -1.416132      0.682089
  B       0.795792     -0.021712      0.823070
  B      -0.937003      0.060431      0.449641
6
Coordinates from ORCA-job B6_random_3d_seed1002_d1.60_q0_m5_R2SCAN-3C E -148.658756685459
  B       0.376488     -0.497694     -0.833613
  B       0.430478      1.217703     -0.089241
  B      -0.729136      0.657147     -1.031814
  B       0.063441     -1.416077      0.681733
  B       0.795822     -0.021728      0.823127
  B      -0.937093      0.060650      0.449809
