6
Coordinates from ORCA-job B6_trigonal_prism_d2.20_q0_m5_R2SCAN-3C E -148.560739104774
  B           0.82285304606422      0.47502845611636     -0.96966345852126
  B          -0.82285297930383      0.47502853507789     -0.96966332152808
  B           0.00000004785754     -0.95005674711672     -0.96949663153947
  B           0.82285309907124      0.47502831986908      0.96966316531415
  B          -0.82285316192116      0.47502823413451      0.96966329728641
  B          -0.00000005176801     -0.95005677808111      0.96949694898825
