6
Coordinates from ORCA-job B6_trigonal_prism_d2.20_q0_m5_R2SCAN-3C E -148.345209886262
  B       1.100000      0.635085     -1.100000
  B      -1.100000      0.635085     -1.100000
  B      -0.000000     -1.270171     -1.100000
  B       1.100000      0.635085      1.100000
  B      -1.100000      0.635085      1.100000
  B      -0.000000     -1.270171      1.100000
6
Coordinates from ORCA-job B6_trigonal_prism_d2.20_q0_m5_R2SCAN-3C E -148.375131502186
  B       1.070373      0.617991     -1.081400
  B      -1.070373      0.617991     -1.081400
  B      -0.000000     -1.235982     -1.081412
  B       1.070373      0.617991      1.081400
  B      -1.070373      0.617991      1.081400
  B      -0.000000     -1.235982      1.081412
6
Coordinates from ORCA-job B6_trigonal_prism_d2.20_q0_m5_R2SCAN-3C E -148.405441967134
  B       1.040332      0.600644     -1.064218
  B      -1.040332      0.600644     -1.064218
  B      -0.000000     -1.201289     -1.064243
  B       1.040332      0.600644      1.064218
  B      -1.040332      0.600644      1.064218
  B      -0.000000     -1.201289      1.064243
6
Coordinates from ORCA-job B6_trigonal_prism_d2.20_q0_m5_R2SCAN-3C E -148.450081511354
  B       0.994321      0.574088     -1.042019
  B      -0.994321      0.574088     -1.042019
  B      -0.000000     -1.148176     -1.042051
  B       0.994321      0.574088      1.042019
  B      -0.994321      0.574088      1.042019
  B      -0.000000     -1.148176      1.042051
6
Coordinates from ORCA-job B6_trigonal_prism_d2.20_q0_m5_R2SCAN-3C E -148.512679233011
  B       0.924201      0.533588     -1.013833
  B      -0.924201      0.533588     -1.013833
  B       0.000000     -1.067176     -1.013851
  B       0.924201      0.533588      1.013833
  B      -0.924201      0.533588      1.013833
  B       0.000000     -1.067176      1.013851
6
Coordinates from ORCA-job B6_trigonal_prism_d2.20_q0_m5_R2SCAN-3C E -148.555741412784
  B       0.850349      0.490946     -0.990926
  B      -0.850349      0.490946     -0.990926
  B       0.000000     -0.981891     -0.990905
  B       0.850349      0.490946      0.990926
  B      -0.850349      0.490946      0.990926
  B      -0.000000     -0.981891      0.990905
6
Coordinates from ORCA-job B6_trigonal_prism_d2.20_q0_m5_R2SCAN-3C E -148.559143687470
  B       0.807509      0.466276     -0.975677
  B      -0.807509      0.466276     -0.975677
  B       0.000000     -0.932552     -0.975652
  B       0.807509      0.466276      0.975677
  B      -0.807509      0.466276      0.975677
  B      -0.000000     -0.932552      0.975652
6
Coordinates from ORCA-job B6_trigonal_prism_d2.20_q0_m5_R2SCAN-3C E -148.560651632065
  B       0.823948      0.475709     -0.977007
  B      -0.823948      0.475709     -0.977007
  B       0.000000     -0.951419     -0.976954
  B       0.823948      0.475709      0.977007
  B      -0.823948      0.475709      0.977007
  B      -0.000000     -0.951419      0.976954
6
Coordinates from ORCA-job B6_trigonal_prism_d2.20_q0_m5_R2SCAN-3C E -148.560710724295
  B       0.822768      0.475066     -0.974041
  B      -0.822768      0.475066     -0.974041
  B       0.000000     -0.950132     -0.973952
  B       0.822768      0.475066      0.974041
  B      -0.822768      0.475066      0.974041
  B      -0.000000     -0.950132      0.973952
6
Coordinates from ORCA-job B6_trigonal_prism_d2.20_q0_m5_R2SCAN-3C E -148.560738165939
  B       0.822475      0.474843     -0.970067
  B      -0.822475      0.474843     -0.970067
  B       0.000000     -0.949685     -0.969936
  B       0.822475      0.474843      0.970067
  B      -0.822475      0.474843      0.970067
  B      -0.000000     -0.949685      0.969936
6
Coordinates from ORCA-job B6_trigonal_prism_d2.20_q0_m5_R2SCAN-3C E -148.560739067196
  B       0.822662      0.475025     -0.969685
  B      -0.822662      0.475025     -0.969685
  B       0.000000     -0.950051     -0.969536
  B       0.822662      0.475025      0.969685
  B      -0.822662      0.475025      0.969685
  B      -0.000000     -0.950051      0.969537
6
Coordinates from ORCA-job B6_trigonal_prism_d2.20_q0_m5_R2SCAN-3C E -148.560739104774
  B       0.822853      0.475028     -0.969663
  B      -0.822853      0.475029     -0.969663
  B       0.000000     -0.950057     -0.969497
  B       0.822853      0.475028      0.969663
  B      -0.822853      0.475028      0.969663
  B      -0.000000     -0.950057      0.969497
