6
Coordinates from ORCA-job B6_random_3d_seed1002_d2.20_q0_m1_R2SCAN-3C E -148.374579085355
  B       0.563750     -0.632493     -1.380352
  B       1.088002      1.350083     -0.402794
  B      -1.125284      0.688171     -1.020887
  B       0.194142     -1.569912      0.556752
  B       0.663820      0.192308      1.527453
  B      -1.384431     -0.028157      0.719828
6
Coordinates from ORCA-job B6_random_3d_seed1002_d2.20_q0_m1_R2SCAN-3C E -148.408705500406
  B       0.543005     -0.608042     -1.349430
  B       1.080382      1.318517     -0.386621
  B      -1.107366      0.655477     -0.999808
  B       0.185138     -1.518580      0.546467
  B       0.660322      0.185391      1.493337
  B      -1.361481     -0.032763      0.696056
6
Coordinates from ORCA-job B6_random_3d_seed1002_d2.20_q0_m1_R2SCAN-3C E -148.442264167072
  B       0.520993     -0.581456     -1.320933
  B       1.074975      1.287626     -0.370899
  B      -1.089205      0.621309     -0.979913
  B       0.175564     -1.466098      0.538795
  B       0.657095      0.177322      1.460242
  B      -1.339421     -0.038705      0.672708
6
Coordinates from ORCA-job B6_random_3d_seed1002_d2.20_q0_m1_R2SCAN-3C E -148.490886997511
  B       0.487298     -0.538195     -1.281752
  B       1.066942      1.240164     -0.347828
  B      -1.059938      0.570860     -0.954903
  B       0.159488     -1.387494      0.530720
  B       0.651231      0.165441      1.411209
  B      -1.305021     -0.050777      0.642555
6
Coordinates from ORCA-job B6_random_3d_seed1002_d2.20_q0_m1_R2SCAN-3C E -148.554115417250
  B       0.439997     -0.467945     -1.229821
  B       1.052064      1.162776     -0.313957
  B      -1.013789      0.500652     -0.928138
  B       0.134298     -1.273127      0.523091
  B       0.638910      0.150572      1.337893
  B      -1.251480     -0.072928      0.610932
6
Coordinates from ORCA-job B6_random_3d_seed1002_d2.20_q0_m1_R2SCAN-3C E -148.598576313393
  B       0.402601     -0.384857     -1.190180
  B       1.030774      1.064812     -0.275729
  B      -0.965706      0.432290     -0.912566
  B       0.105728     -1.164883      0.515560
  B       0.619377      0.149163      1.260904
  B      -1.192773     -0.096525      0.602012
6
Coordinates from ORCA-job B6_random_3d_seed1002_d2.20_q0_m1_R2SCAN-3C E -148.616014853183
  B       0.420309     -0.329763     -1.180594
  B       1.008837      0.973590     -0.247846
  B      -0.959392      0.399282     -0.901534
  B       0.093710     -1.118323      0.497228
  B       0.599132      0.172672      1.211052
  B      -1.162596     -0.097457      0.621694
6
Coordinates from ORCA-job B6_random_3d_seed1002_d2.20_q0_m1_R2SCAN-3C E -148.636064644966
  B       0.463660     -0.257845     -1.191470
  B       1.000902      0.847843     -0.217076
  B      -0.972717      0.338284     -0.881410
  B       0.085622     -1.070002      0.440805
  B       0.547245      0.218055      1.175114
  B      -1.124712     -0.076334      0.674036
6
Coordinates from ORCA-job B6_random_3d_seed1002_d2.20_q0_m1_R2SCAN-3C E -148.661173670358
  B       0.483643     -0.229533     -1.214707
  B       1.014245      0.755465     -0.165884
  B      -0.987919      0.264531     -0.862071
  B       0.085683     -1.015809      0.341795
  B       0.487873      0.267021      1.168956
  B      -1.083526     -0.041676      0.731911
6
Coordinates from ORCA-job B6_random_3d_seed1002_d2.20_q0_m1_R2SCAN-3C E -148.693408885873
  B       0.497570     -0.239012     -1.263657
  B       1.049095      0.697202     -0.126272
  B      -1.005020      0.192174     -0.838167
  B       0.095838     -0.960836      0.217091
  B       0.427970      0.312373      1.217228
  B      -1.065454     -0.001901      0.793778
6
Coordinates from ORCA-job B6_random_3d_seed1002_d2.20_q0_m1_R2SCAN-3C E -148.714051640483
  B       0.495162     -0.227952     -1.271723
  B       1.122378      0.625558     -0.104516
  B      -1.047617      0.113819     -0.817291
  B       0.119596     -0.870946      0.115375
  B       0.411141      0.345866      1.263888
  B      -1.100661      0.013656      0.814268
6
Coordinates from ORCA-job B6_random_3d_seed1002_d2.20_q0_m1_R2SCAN-3C E -148.724092103549
  B       0.466112     -0.193305     -1.304354
  B       1.206266      0.576589     -0.090916
  B      -1.076439      0.054829     -0.802738
  B       0.131165     -0.808299      0.110577
  B       0.371140      0.353932      1.284657
  B      -1.098244      0.016255      0.802774
6
Coordinates from ORCA-job B6_random_3d_seed1002_d2.20_q0_m1_R2SCAN-3C E -148.729732488787
  B       0.422071     -0.137006     -1.302327
  B       1.270005      0.510228     -0.043430
  B      -1.115762     -0.012518     -0.811199
  B       0.164325     -0.758932      0.106726
  B       0.381900      0.371186      1.266637
  B      -1.122539      0.027043      0.783594
6
Coordinates from ORCA-job B6_random_3d_seed1002_d2.20_q0_m1_R2SCAN-3C E -148.733595688207
  B       0.412926     -0.070708     -1.288218
  B       1.319921      0.478913     -0.065720
  B      -1.114278     -0.077746     -0.813246
  B       0.136563     -0.744260      0.116653
  B       0.373192      0.370163      1.272477
  B      -1.128324      0.043638      0.778054
6
Coordinates from ORCA-job B6_random_3d_seed1002_d2.20_q0_m1_R2SCAN-3C E -148.735257268943
  B       0.414732     -0.033502     -1.293441
  B       1.321142      0.444821     -0.057275
  B      -1.117605     -0.112319     -0.811825
  B       0.139972     -0.735923      0.111895
  B       0.366504      0.378102      1.264714
  B      -1.124746      0.058820      0.785932
6
Coordinates from ORCA-job B6_random_3d_seed1002_d2.20_q0_m1_R2SCAN-3C E -148.735468233388
  B       0.409589      0.027376     -1.337719
  B       1.340457      0.415919     -0.032664
  B      -1.120066     -0.171924     -0.813889
  B       0.126446     -0.752166      0.119225
  B       0.394719      0.395570      1.277912
  B      -1.151145      0.085225      0.787137
6
Coordinates from ORCA-job B6_random_3d_seed1002_d2.20_q0_m1_R2SCAN-3C E -148.736930732965
  B       0.408206      0.029468     -1.321391
  B       1.317158      0.401114     -0.035904
  B      -1.104703     -0.170241     -0.809030
  B       0.129430     -0.747341      0.106689
  B       0.379124      0.401064      1.269015
  B      -1.129215      0.085936      0.790620
6
Coordinates from ORCA-job B6_random_3d_seed1002_d2.20_q0_m1_R2SCAN-3C E -148.736848784541
  B       0.410184      0.027488     -1.318175
  B       1.316979      0.395211     -0.046369
  B      -1.111423     -0.153858     -0.808931
  B       0.146183     -0.749350      0.118826
  B       0.370225      0.403982      1.266618
  B      -1.132148      0.076528      0.788031
6
Coordinates from ORCA-job B6_random_3d_seed1002_d2.20_q0_m1_R2SCAN-3C E -148.737063242928
  B       0.409146      0.031389     -1.317291
  B       1.320361      0.397677     -0.040548
  B      -1.109277     -0.163027     -0.806974
  B       0.134882     -0.750640      0.112996
  B       0.374538      0.404755      1.264857
  B      -1.129651      0.079845      0.786959
6
Coordinates from ORCA-job B6_random_3d_seed1002_d2.20_q0_m1_R2SCAN-3C E -148.737074656637
  B       0.407298      0.033878     -1.317889
  B       1.320737      0.394505     -0.039436
  B      -1.107874     -0.164050     -0.806710
  B       0.135451     -0.751639      0.112066
  B       0.374169      0.407748      1.264956
  B      -1.129781      0.079558      0.787013
6
Coordinates from ORCA-job B6_random_3d_seed1002_d2.20_q0_m1_R2SCAN-3C E -148.737081125800
  B       0.407217      0.035660     -1.317607
  B       1.321376      0.392260     -0.039166
  B      -1.107758     -0.163396     -0.805822
  B       0.135405     -0.752968      0.112125
  B       0.373342      0.410656      1.263562
  B      -1.129583      0.077788      0.786908
6
Coordinates from ORCA-job B6_random_3d_seed1002_d2.20_q0_m1_R2SCAN-3C E -148.737083610042
  B       0.407303      0.036097     -1.317515
  B       1.322080      0.390890     -0.039176
  B      -1.107877     -0.162124     -0.805595
  B       0.135497     -0.753351      0.112373
  B       0.372655      0.412709      1.262632
  B      -1.129657      0.075779      0.787281
6
Coordinates from ORCA-job B6_random_3d_seed1002_d2.20_q0_m1_R2SCAN-3C E -148.737084652548
  B       0.407597      0.035814     -1.317510
  B       1.322432      0.390336     -0.039222
  B      -1.107973     -0.161111     -0.805725
  B       0.135328     -0.753130      0.112419
  B       0.372380      0.413814      1.262149
  B      -1.129764      0.074276      0.787888
6
Coordinates from ORCA-job B6_random_3d_seed1002_d2.20_q0_m1_R2SCAN-3C E -148.737084932262
  B       0.407766      0.035382     -1.317543
  B       1.322527      0.390330     -0.039233
  B      -1.108016     -0.160640     -0.805968
  B       0.135164     -0.752771      0.112394
  B       0.372393      0.414072      1.262060
  B      -1.129835      0.073627      0.788290
6
Coordinates from ORCA-job B6_random_3d_seed1002_d2.20_q0_m1_R2SCAN-3C E -148.737084947026
  B       0.407798      0.035256     -1.317554
  B       1.322504      0.390419     -0.039240
  B      -1.108019     -0.160629     -0.806045
  B       0.135119     -0.752656      0.112367
  B       0.372452      0.413993      1.262117
  B      -1.129853      0.073617      0.788354
