6
Coordinates from ORCA-job B6_random_3d_seed1002_d2.20_q0_m1_R2SCAN-3C E -148.737084947026
  B           0.40779767322628      0.03525576692211     -1.31755358494999
  B           1.32250379992617      0.39041850527593     -0.03923958212890
  B          -1.10801909254178     -0.16062883937575     -0.80604504574521
  B           0.13511909622147     -0.75265552678974      0.11236694524203
  B           0.37245172158488      0.41399268327287      1.26211718137857
  B          -1.12985319841702      0.07361741069458      0.78835407620349
