6
Coordinates from ORCA-job B6_octahedral_3d_d2.20_q0_m3_R2SCAN-3C E -148.387372574867
  B       1.555635      0.000000      0.000000
  B      -1.555635      0.000000      0.000000
  B       0.000000      1.555635      0.000000
  B       0.000000     -1.555635      0.000000
  B       0.000000      0.000000      1.555635
  B       0.000000      0.000000     -1.555635
6
Coordinates from ORCA-job B6_octahedral_3d_d2.20_q0_m3_R2SCAN-3C E -148.414257475132
  B       1.522722      0.001038     -0.000444
  B      -1.522071     -0.001029     -0.000891
  B       0.001209      1.523079     -0.002244
  B      -0.000857     -1.522535      0.001771
  B      -0.000279     -0.002284      1.525596
  B      -0.000725      0.001731     -1.523787
6
Coordinates from ORCA-job B6_octahedral_3d_d2.20_q0_m3_R2SCAN-3C E -148.440700702247
  B       1.489372     -0.000380     -0.001553
  B      -1.488183     -0.000681     -0.001954
  B       0.000473      1.491931     -0.007815
  B       0.000171     -1.490033      0.006938
  B      -0.000721     -0.007790      1.496036
  B      -0.001113      0.006954     -1.491652
6
Coordinates from ORCA-job B6_octahedral_3d_d2.20_q0_m3_R2SCAN-3C E -148.486356025502
  B       1.437278     -0.004568     -0.006197
  B      -1.436125     -0.000002     -0.000056
  B      -0.001929      1.447970     -0.017904
  B       0.002663     -1.442147      0.015096
  B      -0.004021     -0.017108      1.452804
  B       0.002135      0.015855     -1.443744
6
Coordinates from ORCA-job B6_octahedral_3d_d2.20_q0_m3_R2SCAN-3C E -148.562814508755
  B       1.342529     -0.008412     -0.009132
  B      -1.340105      0.000836      0.000778
  B      -0.003991      1.391052     -0.025786
  B       0.005387     -1.381987      0.020903
  B      -0.006950     -0.024068      1.397035
  B       0.003131      0.022579     -1.383798
6
Coordinates from ORCA-job B6_octahedral_3d_d2.20_q0_m3_R2SCAN-3C E -148.636748701743
  B       1.260746     -0.014255     -0.015178
  B      -1.259098      0.003575      0.003211
  B      -0.008062      1.311456     -0.036409
  B       0.009696     -1.299861      0.027134
  B      -0.010893     -0.032527      1.339969
  B       0.007610      0.031611     -1.318727
6
Coordinates from ORCA-job B6_octahedral_3d_d2.20_q0_m3_R2SCAN-3C E -148.683896244196
  B       1.188361     -0.021113     -0.023856
  B      -1.189024      0.006646      0.002718
  B      -0.013083      1.240915     -0.043626
  B       0.014403     -1.225311      0.026093
  B      -0.013515     -0.035462      1.267728
  B       0.012859      0.034325     -1.229057
6
Coordinates from ORCA-job B6_octahedral_3d_d2.20_q0_m3_R2SCAN-3C E -148.691131711701
  B       1.151381     -0.028915     -0.024092
  B      -1.153353      0.004269      0.007645
  B      -0.017400      1.209772     -0.038849
  B       0.015478     -1.182307      0.026455
  B      -0.013523     -0.033257      1.195390
  B       0.017417      0.030439     -1.166550
6
Coordinates from ORCA-job B6_octahedral_3d_d2.20_q0_m3_R2SCAN-3C E -148.692766922912
  B       1.158619     -0.033004     -0.018392
  B      -1.160742      0.005572      0.003233
  B      -0.021071      1.203079     -0.028531
  B       0.016580     -1.177951      0.018372
  B      -0.007640     -0.022267      1.215521
  B       0.014254      0.024571     -1.190203
6
Coordinates from ORCA-job B6_octahedral_3d_d2.20_q0_m3_R2SCAN-3C E -148.694301087027
  B       1.171326     -0.026969     -0.014514
  B      -1.171657     -0.005747      0.003406
  B      -0.016300      1.204508     -0.019905
  B       0.004056     -1.182894      0.016178
  B      -0.002745     -0.012464      1.210049
  B       0.015320      0.023565     -1.195214
6
Coordinates from ORCA-job B6_octahedral_3d_d2.20_q0_m3_R2SCAN-3C E -148.695955578678
  B       1.182267     -0.023384     -0.003240
  B      -1.182759     -0.016109      0.000791
  B      -0.014693      1.188554      0.004176
  B      -0.008536     -1.178574      0.004828
  B       0.009573      0.014181      1.189447
  B       0.014147      0.015333     -1.196002
6
Coordinates from ORCA-job B6_octahedral_3d_d2.20_q0_m3_R2SCAN-3C E -148.696153824749
  B       1.182873     -0.017359     -0.001874
  B      -1.183401     -0.015303      0.000072
  B      -0.010974      1.186144      0.003582
  B      -0.010090     -1.181762      0.003293
  B       0.009567      0.014048      1.182601
  B       0.012024      0.014232     -1.187674
6
Coordinates from ORCA-job B6_octahedral_3d_d2.20_q0_m3_R2SCAN-3C E -148.696238342049
  B       1.182294     -0.010792     -0.001490
  B      -1.182622     -0.010209     -0.000910
  B      -0.007249      1.183419      0.000805
  B      -0.007880     -1.183793      0.001483
  B       0.007214      0.010147      1.181585
  B       0.008243      0.011228     -1.181473
6
Coordinates from ORCA-job B6_octahedral_3d_d2.20_q0_m3_R2SCAN-3C E -148.696273972271
  B       1.182405     -0.006009     -0.000999
  B      -1.182543     -0.005469     -0.001109
  B      -0.004338      1.182090     -0.000269
  B      -0.005027     -1.184190      0.000318
  B       0.004594      0.006307      1.182244
  B       0.004909      0.007270     -1.180185
6
Coordinates from ORCA-job B6_octahedral_3d_d2.20_q0_m3_R2SCAN-3C E -148.696299079993
  B       1.182858     -0.000971     -0.000215
  B      -1.182797     -0.000348     -0.000674
  B      -0.000848      1.181929     -0.000650
  B      -0.001459     -1.183754     -0.000403
  B       0.001145      0.001267      1.183088
  B       0.001101      0.001877     -1.181147
6
Coordinates from ORCA-job B6_octahedral_3d_d2.20_q0_m3_R2SCAN-3C E -148.696303008465
  B       1.183040     -0.000018      0.000114
  B      -1.182995      0.000687     -0.000225
  B       0.000101      1.182590     -0.000251
  B      -0.000428     -1.183220     -0.000272
  B       0.000104     -0.000190      1.183111
  B       0.000178      0.000151     -1.182478
6
Coordinates from ORCA-job B6_octahedral_3d_d2.20_q0_m3_R2SCAN-3C E -148.696303320526
  B       1.183019     -0.000151      0.000164
  B      -1.182998      0.000509     -0.000087
  B       0.000199      1.182911     -0.000002
  B      -0.000375     -1.182980     -0.000135
  B      -0.000003     -0.000258      1.182997
  B       0.000159     -0.000029     -1.182936
6
Coordinates from ORCA-job B6_octahedral_3d_d2.20_q0_m3_R2SCAN-3C E -148.696303335783
  B       1.182980     -0.000242      0.000144
  B      -1.182973      0.000383     -0.000079
  B       0.000206      1.182954      0.000060
  B      -0.000402     -1.182947     -0.000108
  B      -0.000001     -0.000171      1.182961
  B       0.000190      0.000023     -1.182978
