6
Coordinates from ORCA-job B6_octahedral_3d_d2.20_q0_m3_R2SCAN-3C E -148.696303335783
  B           1.18297980288438     -0.00024242714334      0.00014362273742
  B          -1.18297335654245      0.00038344175739     -0.00007883138053
  B           0.00020620791221      1.18295442166010      0.00005974486117
  B          -0.00040160151430     -1.18294748386153     -0.00010759317402
  B          -0.00000133208725     -0.00017130798055      1.18296138647116
  B           0.00019027934741      0.00002335556793     -1.18297832951519
