6
Coordinates from ORCA-job B6_compact_planar_triangle_d1.80_q0_m3_R2SCAN-3C E -148.620684450731
  B      -1.800000     -1.039230      0.000000
  B       0.000000     -1.039230      0.000000
  B       1.800000     -1.039230      0.000000
  B      -0.900000      0.519615      0.000000
  B       0.900000      0.519615      0.000000
  B       0.000000      2.078461      0.000000
6
Coordinates from ORCA-job B6_compact_planar_triangle_d1.80_q0_m3_R2SCAN-3C E -148.644111968411
  B      -1.738218     -1.006315      0.000000
  B      -0.000001     -1.021740      0.000000
  B       1.738222     -1.006321     -0.000000
  B      -0.880784      0.510878     -0.000000
  B       0.880784      0.510879      0.000000
  B      -0.000004      2.012618      0.000000
6
Coordinates from ORCA-job B6_compact_planar_triangle_d1.80_q0_m3_R2SCAN-3C E -148.658292695056
  B      -1.676418     -0.973489      0.000000
  B      -0.000001     -1.004410     -0.000000
  B       1.676423     -0.973497     -0.000000
  B      -0.860559      0.501879      0.000000
  B       0.860559      0.501880      0.000000
  B      -0.000005      1.947637     -0.000000
6
Coordinates from ORCA-job B6_compact_planar_triangle_d1.80_q0_m3_R2SCAN-3C E -148.661073170822
  B      -1.630491     -0.948285      0.000000
  B       0.000001     -0.990407     -0.000000
  B       1.630484     -0.948276      0.000000
  B      -0.842184      0.493428     -0.000000
  B       0.842185      0.493427     -0.000000
  B       0.000004      1.900113      0.000000
6
Coordinates from ORCA-job B6_compact_planar_triangle_d1.80_q0_m3_R2SCAN-3C E -148.661197374656
  B      -1.638796     -0.951770      0.000000
  B       0.000001     -0.992319     -0.000000
  B       1.638792     -0.951765      0.000000
  B      -0.842890      0.493502     -0.000000
  B       0.842891      0.493502     -0.000000
  B       0.000002      1.908850      0.000000
6
Coordinates from ORCA-job B6_compact_planar_triangle_d1.80_q0_m3_R2SCAN-3C E -148.661210324747
  B      -1.639389     -0.951332     -0.000000
  B       0.000001     -0.992193      0.000000
  B       1.639384     -0.951325     -0.000000
  B      -0.841303      0.492654      0.000000
  B       0.841303      0.492652      0.000000
  B       0.000004      1.909544     -0.000000
6
Coordinates from ORCA-job B6_compact_planar_triangle_d1.80_q0_m3_R2SCAN-3C E -148.661215482931
  B      -1.639729     -0.950581      0.000000
  B      -0.000000     -0.992207     -0.000000
  B       1.639730     -0.950582      0.000000
  B      -0.839428      0.491710     -0.000000
  B       0.839427      0.491710     -0.000000
  B      -0.000000      1.909950      0.000000
6
Coordinates from ORCA-job B6_compact_planar_triangle_d1.80_q0_m3_R2SCAN-3C E -148.661215565606
  B      -1.639739     -0.950493     -0.000000
  B       0.000000     -0.992392      0.000000
  B       1.639739     -0.950492     -0.000000
  B      -0.839368      0.491705      0.000000
  B       0.839367      0.491704      0.000000
  B       0.000001      1.909968     -0.000000
