6
Coordinates from ORCA-job B6_compact_planar_triangle_d1.80_q0_m3_R2SCAN-3C E -148.661215565606
  B          -1.63973944134032     -0.95049286291353     -0.00000001234716
  B           0.00000017761822     -0.99239164750858      0.00000000927618
  B           1.63973930963153     -0.95049187403724     -0.00000001237711
  B          -0.83936798900691      0.49170455303777      0.00000001539077
  B           0.83936722261164      0.49170387413222      0.00000001544931
  B           0.00000072048583      1.90996796728936     -0.00000001539198
