6
Coordinates from ORCA-job FINAL_rank02_B6_random_3d_seed1000_d3.00_q0_m3_R2SCAN-3C_PBE0_def2-TZVP_OptFreq E -148.631672082307
  B       0.972551     -0.207805      0.997567
  B       1.414824     -1.450260      0.241764
  B       0.204755     -0.750206     -0.535288
  B      -0.204840      0.750131      0.535330
  B      -1.414787      1.450288     -0.241777
  B      -0.972503      0.207853     -0.997596
6
Coordinates from ORCA-job FINAL_rank02_B6_random_3d_seed1000_d3.00_q0_m3_R2SCAN-3C_PBE0_def2-TZVP_OptFreq E -148.631708876979
  B       0.972319     -0.207414      0.997756
  B       1.412856     -1.448253      0.241363
  B       0.204527     -0.750882     -0.536236
  B      -0.204603      0.750812      0.536277
  B      -1.412811      1.448292     -0.241389
  B      -0.972288      0.207446     -0.997772
6
Coordinates from ORCA-job FINAL_rank02_B6_random_3d_seed1000_d3.00_q0_m3_R2SCAN-3C_PBE0_def2-TZVP_OptFreq E -148.631769106277
  B       0.971678     -0.206019      0.998625
  B       1.408067     -1.443510      0.240217
  B       0.204005     -0.753736     -0.539730
  B      -0.204051      0.753686      0.539764
  B      -1.408009      1.443565     -0.240263
  B      -0.971691      0.206015     -0.998613
6
Coordinates from ORCA-job FINAL_rank02_B6_random_3d_seed1000_d3.00_q0_m3_R2SCAN-3C_PBE0_def2-TZVP_OptFreq E -148.631777960250
  B       0.971428     -0.205393      0.999031
  B       1.407197     -1.442736      0.239913
  B       0.203918     -0.755427     -0.541543
  B      -0.203948      0.755390      0.541569
  B      -1.407162      1.442774     -0.239945
  B      -0.971432      0.205392     -0.999025
6
Coordinates from ORCA-job FINAL_rank02_B6_random_3d_seed1000_d3.00_q0_m3_R2SCAN-3C_PBE0_def2-TZVP_OptFreq E -148.631794691388
  B       0.970650     -0.204032      0.999660
  B       1.406557     -1.442274      0.239501
  B       0.203890     -0.759875     -0.546074
  B      -0.203880      0.759875      0.546086
  B      -1.406574      1.442289     -0.239512
  B      -0.970644      0.204019     -0.999661
6
Coordinates from ORCA-job FINAL_rank02_B6_random_3d_seed1000_d3.00_q0_m3_R2SCAN-3C_PBE0_def2-TZVP_OptFreq E -148.631803201662
  B       0.970221     -0.203888      0.999303
  B       1.407121     -1.442793      0.239647
  B       0.204021     -0.761084     -0.547143
  B      -0.204006      0.761092      0.547147
  B      -1.407146      1.442790     -0.239645
  B      -0.970211      0.203884     -0.999308
6
Coordinates from ORCA-job FINAL_rank02_B6_random_3d_seed1000_d3.00_q0_m3_R2SCAN-3C_PBE0_def2-TZVP_OptFreq E -148.631806852056
  B       0.969605     -0.204008      0.998429
  B       1.407858     -1.443382      0.239929
  B       0.204267     -0.761947     -0.547724
  B      -0.204255      0.761959      0.547721
  B      -1.407872      1.443374     -0.239926
  B      -0.969603      0.204005     -0.998429
6
Coordinates from ORCA-job FINAL_rank02_B6_random_3d_seed1000_d3.00_q0_m3_R2SCAN-3C_PBE0_def2-TZVP_OptFreq E -148.631807774606
  B       0.969005     -0.204199      0.997493
  B       1.408254     -1.443629      0.240145
  B       0.204539     -0.762484     -0.547944
  B      -0.204533      0.762493      0.547938
  B      -1.408247      1.443626     -0.240145
  B      -0.969017      0.204194     -0.997486
6
Coordinates from ORCA-job FINAL_rank02_B6_random_3d_seed1000_d3.00_q0_m3_R2SCAN-3C_PBE0_def2-TZVP_OptFreq E -148.631807319413
  B       0.968634     -0.204320      0.996897
  B       1.408270     -1.443580      0.240214
  B       0.204751     -0.762756     -0.547966
  B      -0.204750      0.762761      0.547962
  B      -1.408257      1.443582     -0.240217
  B      -0.968648      0.204315     -0.996889
6
Coordinates from ORCA-job FINAL_rank02_B6_random_3d_seed1000_d3.00_q0_m3_R2SCAN-3C_PBE0_def2-TZVP_OptFreq E -148.631809588544
  B       0.968583     -0.204329      0.996814
  B       1.408162     -1.443493      0.240177
  B       0.204823     -0.762778     -0.547906
  B      -0.204822      0.762781      0.547905
  B      -1.408153      1.443498     -0.240180
  B      -0.968593      0.204322     -0.996809
6
Coordinates from ORCA-job FINAL_rank02_B6_random_3d_seed1000_d3.00_q0_m3_R2SCAN-3C_PBE0_def2-TZVP_OptFreq E -148.631808591174
  B       0.968584     -0.204310      0.996824
  B       1.408113     -1.443473      0.240145
  B       0.204859     -0.762797     -0.547887
  B      -0.204861      0.762798      0.547885
  B      -1.408104      1.443475     -0.240145
  B      -0.968591      0.204308     -0.996822
