6
Coordinates from ORCA-job FINAL_rank02_B6_random_3d_seed1000_d3.00_q0_m3_R2SCAN-3C_PBE0_def2-TZVP_OptFreq E -148.631808591174
  B           0.96858371539895     -0.20430969456408      0.99682390075784
  B           1.40811277199004     -1.44347291832153      0.24014508513083
  B           0.20485925175901     -0.76279726844987     -0.54788710394493
  B          -0.20486096949786      0.76279833811447      0.54788507518616
  B          -1.40810355314654      1.44347493899531     -0.24014494462972
  B          -0.96859121650360      0.20430760422571     -0.99682201250018
