6
Coordinates from ORCA-job B6_random_3d_seed1004_d1.60_q0_m1_R2SCAN-3C E -148.737100311600
  B          -0.41343516224157     -0.19206580799862      0.62376282922278
  B           0.98179848629834      0.69661681077870      0.67404217109379
  B           1.05469981796122     -0.85499005556120      0.24429757101014
  B          -1.07365899618114      0.18380810900510     -0.84634595137966
  B          -0.33364358094257      1.33881450239434     -0.00032309330442
  B          -0.21576056489428     -1.17218356861831     -0.69543352664262
