6
Coordinates from ORCA-job B6_random_3d_seed1004_d1.60_q0_m1_R2SCAN-3C E -148.554512817723
  B      -0.483843     -0.437589      0.975711
  B       0.749165      0.681756      0.742002
  B       0.825772     -0.859279      0.339506
  B      -1.110507      0.087165     -0.369428
  B       0.009715      1.088585     -0.666679
  B       0.009698     -0.560638     -1.021112
6
Coordinates from ORCA-job B6_random_3d_seed1004_d1.60_q0_m1_R2SCAN-3C E -148.588872513568
  B      -0.508029     -0.439537      0.966661
  B       0.769489      0.704723      0.719454
  B       0.840671     -0.879017      0.335433
  B      -1.144789      0.086557     -0.371644
  B       0.013900      1.122866     -0.635848
  B       0.028758     -0.595591     -1.014056
6
Coordinates from ORCA-job B6_random_3d_seed1004_d1.60_q0_m1_R2SCAN-3C E -148.611459887239
  B      -0.526383     -0.439227      0.953307
  B       0.785775      0.726614      0.700585
  B       0.858482     -0.896983      0.330359
  B      -1.179735      0.089249     -0.377383
  B       0.018777      1.156283     -0.602223
  B       0.043085     -0.635937     -1.004646
6
Coordinates from ORCA-job B6_random_3d_seed1004_d1.60_q0_m1_R2SCAN-3C E -148.626701556483
  B      -0.535736     -0.430166      0.935230
  B       0.803813      0.739483      0.691427
  B       0.878533     -0.911737      0.327709
  B      -1.209464      0.094255     -0.391876
  B       0.012913      1.189553     -0.567422
  B       0.049941     -0.681389     -0.995067
6
Coordinates from ORCA-job B6_random_3d_seed1004_d1.60_q0_m1_R2SCAN-3C E -148.645540818891
  B      -0.538200     -0.403541      0.905145
  B       0.830450      0.743468      0.690900
  B       0.910675     -0.927925      0.326548
  B      -1.243594      0.104697     -0.421723
  B      -0.010691      1.234283     -0.517545
  B       0.051359     -0.750982     -0.983325
6
Coordinates from ORCA-job B6_random_3d_seed1004_d1.60_q0_m1_R2SCAN-3C E -148.668530799027
  B      -0.532395     -0.353265      0.856429
  B       0.869765      0.731669      0.693534
  B       0.956157     -0.942131      0.330172
  B      -1.278389      0.121642     -0.471332
  B      -0.060683      1.287685     -0.443473
  B       0.045544     -0.845600     -0.965330
6
Coordinates from ORCA-job B6_random_3d_seed1004_d1.60_q0_m1_R2SCAN-3C E -148.688082482137
  B      -0.519498     -0.294075      0.799942
  B       0.906324      0.707055      0.688753
  B       0.991963     -0.942623      0.336783
  B      -1.291078      0.134961     -0.522590
  B      -0.119348      1.328066     -0.359292
  B       0.031637     -0.933385     -0.943597
6
Coordinates from ORCA-job B6_random_3d_seed1004_d1.60_q0_m1_R2SCAN-3C E -148.700757388324
  B      -0.504425     -0.253934      0.760831
  B       0.922394      0.685396      0.682555
  B       1.003633     -0.927079      0.338944
  B      -1.277690      0.139027     -0.554453
  B      -0.156299      1.340322     -0.300639
  B       0.012387     -0.983732     -0.927237
6
Coordinates from ORCA-job B6_random_3d_seed1004_d1.60_q0_m1_R2SCAN-3C E -148.715083623075
  B      -0.475205     -0.204089      0.707162
  B       0.936306      0.657507      0.675887
  B       1.006796     -0.889543      0.335086
  B      -1.235510      0.139110     -0.599929
  B      -0.202163      1.343099     -0.218834
  B      -0.030225     -1.046083     -0.899372
6
Coordinates from ORCA-job B6_random_3d_seed1004_d1.60_q0_m1_R2SCAN-3C E -148.721848071318
  B      -0.450303     -0.183117      0.670359
  B       0.944728      0.651967      0.680559
  B       1.007357     -0.861735      0.322124
  B      -1.197096      0.138469     -0.640350
  B      -0.230049      1.346699     -0.162533
  B      -0.074636     -1.092282     -0.870160
6
Coordinates from ORCA-job B6_random_3d_seed1004_d1.60_q0_m1_R2SCAN-3C E -148.727274805317
  B      -0.428477     -0.183069      0.643508
  B       0.952319      0.663861      0.695343
  B       1.009953     -0.845625      0.300718
  B      -1.163108      0.138916     -0.681974
  B      -0.249769      1.357105     -0.121540
  B      -0.120918     -1.131187     -0.836055
6
Coordinates from ORCA-job B6_random_3d_seed1004_d1.60_q0_m1_R2SCAN-3C E -148.731614945805
  B      -0.409608     -0.190538      0.622382
  B       0.962550      0.685060      0.713499
  B       1.015990     -0.843125      0.274987
  B      -1.134220      0.140854     -0.728062
  B      -0.270087      1.370626     -0.086359
  B      -0.164626     -1.162877     -0.796447
6
Coordinates from ORCA-job B6_random_3d_seed1004_d1.60_q0_m1_R2SCAN-3C E -148.733602295924
  B      -0.399153     -0.189132      0.608646
  B       0.972208      0.697879      0.720467
  B       1.024708     -0.849698      0.259389
  B      -1.117679      0.145426     -0.764965
  B      -0.290194      1.375261     -0.058142
  B      -0.189890     -1.179735     -0.765396
6
Coordinates from ORCA-job B6_random_3d_seed1004_d1.60_q0_m1_R2SCAN-3C E -148.734892145915
  B      -0.393924     -0.184725      0.600990
  B       0.979112      0.703687      0.719125
  B       1.035841     -0.858280      0.250852
  B      -1.107739      0.153788     -0.795585
  B      -0.308564      1.371194     -0.036021
  B      -0.204726     -1.185665     -0.739361
6
Coordinates from ORCA-job B6_random_3d_seed1004_d1.60_q0_m1_R2SCAN-3C E -148.735953203136
  B      -0.392888     -0.182929      0.599353
  B       0.981969      0.703868      0.711561
  B       1.049475     -0.864690      0.246201
  B      -1.100371      0.166788     -0.822009
  B      -0.323955      1.359329     -0.020341
  B      -0.214230     -1.182366     -0.714765
6
Coordinates from ORCA-job B6_random_3d_seed1004_d1.60_q0_m1_R2SCAN-3C E -148.736583238741
  B      -0.396389     -0.185898      0.604603
  B       0.979906      0.699203      0.701290
  B       1.060363     -0.864519      0.244961
  B      -1.095501      0.179370     -0.836769
  B      -0.330676      1.345293     -0.015248
  B      -0.217703     -1.173447     -0.698838
6
Coordinates from ORCA-job B6_random_3d_seed1004_d1.60_q0_m1_R2SCAN-3C E -148.736816975704
  B      -0.401428     -0.189208      0.611844
  B       0.976902      0.694492      0.693863
  B       1.063775     -0.860020      0.245134
  B      -1.092507      0.184757     -0.839667
  B      -0.329739      1.337409     -0.016109
  B      -0.217003     -1.167431     -0.695065
6
Coordinates from ORCA-job B6_random_3d_seed1004_d1.60_q0_m1_R2SCAN-3C E -148.736927823812
  B      -0.405801     -0.190907      0.617246
  B       0.975556      0.692192      0.689206
  B       1.063088     -0.855540      0.244270
  B      -1.088685      0.185391     -0.839946
  B      -0.327800      1.334920     -0.015693
  B      -0.216358     -1.166055     -0.695084
6
Coordinates from ORCA-job B6_random_3d_seed1004_d1.60_q0_m1_R2SCAN-3C E -148.737022096614
  B      -0.410606     -0.191834      0.622143
  B       0.975679      0.691713      0.684733
  B       1.060566     -0.851511      0.241758
  B      -1.082399      0.184153     -0.841232
  B      -0.326780      1.335233     -0.012353
  B      -0.216459     -1.167754     -0.695049
6
Coordinates from ORCA-job B6_random_3d_seed1004_d1.60_q0_m1_R2SCAN-3C E -148.737072700725
  B      -0.413670     -0.191699      0.624418
  B       0.977270      0.693157      0.681825
  B       1.058185     -0.850558      0.239074
  B      -1.076721      0.182714     -0.843726
  B      -0.327971      1.337475     -0.007474
  B      -0.217092     -1.171089     -0.694117
6
Coordinates from ORCA-job B6_random_3d_seed1004_d1.60_q0_m1_R2SCAN-3C E -148.737086345809
  B      -0.414385     -0.191311      0.624412
  B       0.978746      0.694599      0.680598
  B       1.057372     -0.851769      0.238110
  B      -1.074349      0.182479     -0.845676
  B      -0.329913      1.339024     -0.004403
  B      -0.217471     -1.173021     -0.693041
6
Coordinates from ORCA-job B6_random_3d_seed1004_d1.60_q0_m1_R2SCAN-3C E -148.737089583005
  B      -0.414316     -0.191226      0.624094
  B       0.979449      0.695173      0.679881
  B       1.057268     -0.852801      0.238402
  B      -1.073900      0.182821     -0.846411
  B      -0.331082      1.339402     -0.003326
  B      -0.217419     -1.173370     -0.692639
6
Coordinates from ORCA-job B6_random_3d_seed1004_d1.60_q0_m1_R2SCAN-3C E -148.737092567686
  B      -0.414138     -0.191283      0.623825
  B       0.980131      0.695605      0.678720
  B       1.057034     -0.853850      0.239379
  B      -1.073709      0.183311     -0.846790
  B      -0.332226      1.339509     -0.002462
  B      -0.217092     -1.173292     -0.692672
6
Coordinates from ORCA-job B6_random_3d_seed1004_d1.60_q0_m1_R2SCAN-3C E -148.737096335917
  B      -0.413854     -0.191510      0.623603
  B       0.981023      0.696082      0.676625
  B       1.056344     -0.855016      0.241352
  B      -1.073502      0.183892     -0.846877
  B      -0.333565      1.339439     -0.001367
  B      -0.216446     -1.172887     -0.693337
6
Coordinates from ORCA-job B6_random_3d_seed1004_d1.60_q0_m1_R2SCAN-3C E -148.737099041939
  B      -0.413588     -0.191822      0.623581
  B       0.981661      0.696410      0.674626
  B       1.055407     -0.855558      0.243393
  B      -1.073383      0.184145     -0.846570
  B      -0.334259      1.339216     -0.000558
  B      -0.215838     -1.172391     -0.694472
6
Coordinates from ORCA-job B6_random_3d_seed1004_d1.60_q0_m1_R2SCAN-3C E -148.737100005052
  B      -0.413464     -0.192022      0.623697
  B       0.981804      0.696523      0.673839
  B       1.054820     -0.855378      0.244331
  B      -1.073429      0.184015     -0.846250
  B      -0.334100      1.339010     -0.000334
  B      -0.215631     -1.172148     -0.695283
6
Coordinates from ORCA-job B6_random_3d_seed1004_d1.60_q0_m1_R2SCAN-3C E -148.737100105586
  B      -0.413421     -0.192092      0.623860
  B       0.981945      0.696654      0.673379
  B       1.054359     -0.855239      0.244996
  B      -1.073662      0.183827     -0.846009
  B      -0.333829      1.338867     -0.000211
  B      -0.215393     -1.172018     -0.696016
6
Coordinates from ORCA-job B6_random_3d_seed1004_d1.60_q0_m1_R2SCAN-3C E -148.737100273025
  B      -0.413436     -0.192081      0.623800
  B       0.981822      0.696614      0.673817
  B       1.054593     -0.855077      0.244526
  B      -1.073635      0.183813     -0.846195
  B      -0.333709      1.338863     -0.000310
  B      -0.215635     -1.172130     -0.695638
6
Coordinates from ORCA-job B6_random_3d_seed1004_d1.60_q0_m1_R2SCAN-3C E -148.737100311600
  B      -0.413435     -0.192066      0.623763
  B       0.981798      0.696617      0.674042
  B       1.054700     -0.854990      0.244298
  B      -1.073659      0.183808     -0.846346
  B      -0.333644      1.338815     -0.000323
  B      -0.215761     -1.172184     -0.695434
