6
Coordinates from ORCA-job B6_trigonal_prism_d2.50_q0_m1_R2SCAN-3C E -148.737087566006
  B           0.56880802426465      0.34794172811649     -0.39041402824550
  B          -1.01612862173820      0.34485999400638     -0.86697643107563
  B          -0.18694225478515     -1.03696935976852     -0.89077039557242
  B           0.48932977955224      0.27214839921096      1.26095203230051
  B          -0.59809878745666      1.15401854773439      0.46261916444805
  B           0.74303186016313     -1.08199928929971      0.42458965814500
