6
Coordinates from ORCA-job B6_trigonal_prism_d2.50_q0_m1_R2SCAN-3C E -148.176994101320
  B       1.250000      0.721688     -1.250000
  B      -1.250000      0.721688     -1.250000
  B      -0.000000     -1.443376     -1.250000
  B       1.250000      0.721688      1.250000
  B      -1.250000      0.721688      1.250000
  B      -0.000000     -1.443376      1.250000
6
Coordinates from ORCA-job B6_trigonal_prism_d2.50_q0_m1_R2SCAN-3C E -148.206168817666
  B       1.218126      0.713785     -1.218949
  B      -1.218126      0.713785     -1.218949
  B      -0.000000     -1.427570     -1.219253
  B       1.218126      0.713785      1.218949
  B      -1.218126      0.713785      1.218949
  B       0.000000     -1.427570      1.219252
6
Coordinates from ORCA-job B6_trigonal_prism_d2.50_q0_m1_R2SCAN-3C E -148.236680810361
  B       1.186187      0.705895     -1.187865
  B      -1.186187      0.705895     -1.187865
  B      -0.000000     -1.411789     -1.188663
  B       1.186187      0.705894      1.187865
  B      -1.186187      0.705894      1.187865
  B      -0.000000     -1.411789      1.188663
6
Coordinates from ORCA-job B6_trigonal_prism_d2.50_q0_m1_R2SCAN-3C E -148.284702159921
  B       1.138394      0.693822     -1.141241
  B      -1.138394      0.693822     -1.141241
  B       0.000000     -1.387643     -1.143041
  B       1.138394      0.693821      1.141241
  B      -1.138394      0.693821      1.141241
  B      -0.000000     -1.387643      1.143041
6
Coordinates from ORCA-job B6_trigonal_prism_d2.50_q0_m1_R2SCAN-3C E -148.359449111720
  B       1.066846      0.674957     -1.071721
  B      -1.066846      0.674957     -1.071721
  B       0.000000     -1.349913     -1.075389
  B       1.066849      0.674958      1.071720
  B      -1.066849      0.674958      1.071720
  B       0.000000     -1.349916      1.075389
6
Coordinates from ORCA-job B6_trigonal_prism_d2.50_q0_m1_R2SCAN-3C E -148.437790038656
  B       0.991412      0.654130     -1.001365
  B      -0.991412      0.654130     -1.001365
  B       0.000000     -1.308260     -1.009055
  B       0.991414      0.654131      1.001365
  B      -0.991414      0.654131      1.001365
  B       0.000000     -1.308262      1.009056
6
Coordinates from ORCA-job B6_trigonal_prism_d2.50_q0_m1_R2SCAN-3C E -148.508319922477
  B       0.913357      0.628131     -0.941103
  B      -0.913357      0.628131     -0.941103
  B       0.000000     -1.256263     -0.950118
  B       0.913360      0.628133      0.941103
  B      -0.913360      0.628133      0.941103
  B       0.000000     -1.256265      0.950118
6
Coordinates from ORCA-job B6_trigonal_prism_d2.50_q0_m1_R2SCAN-3C E -148.560714793027
  B       0.839719      0.590614     -0.897378
  B      -0.839719      0.590614     -0.897378
  B       0.000000     -1.181229     -0.908530
  B       0.839719      0.590616      0.897379
  B      -0.839719      0.590616      0.897379
  B       0.000000     -1.181230      0.908529
6
Coordinates from ORCA-job B6_trigonal_prism_d2.50_q0_m1_R2SCAN-3C E -148.589079940543
  B       0.802281      0.537778     -0.881105
  B      -0.802281      0.537778     -0.881105
  B       0.000000     -1.075561     -0.881464
  B       0.802285      0.537783      0.881107
  B      -0.802285      0.537783      0.881107
  B       0.000000     -1.075562      0.881459
6
Coordinates from ORCA-job B6_trigonal_prism_d2.50_q0_m1_R2SCAN-3C E -148.592479186664
  B       0.793469      0.494100     -0.902780
  B      -0.793469      0.494100     -0.902780
  B       0.000000     -0.988212     -0.845487
  B       0.793450      0.494110      0.902786
  B      -0.793450      0.494110      0.902786
  B       0.000000     -0.988207      0.845474
6
Coordinates from ORCA-job B6_trigonal_prism_d2.50_q0_m1_R2SCAN-3C E -148.593743950871
  B       0.786352      0.512794     -0.916255
  B      -0.786352      0.512794     -0.916255
  B       0.000000     -1.025606     -0.844180
  B       0.786367      0.512820      0.916265
  B      -0.786367      0.512820      0.916265
  B       0.000000     -1.025622      0.844159
6
Coordinates from ORCA-job B6_trigonal_prism_d2.50_q0_m1_R2SCAN-3C E -148.591970024241
  B       0.816084      0.514280     -0.893234
  B      -0.816084      0.514280     -0.893234
  B       0.000000     -1.028604     -0.831804
  B       0.816079      0.514342      0.893261
  B      -0.816080      0.514342      0.893260
  B       0.000000     -1.028640      0.831751
6
Coordinates from ORCA-job B6_trigonal_prism_d2.50_q0_m1_R2SCAN-3C E -148.593872828752
  B       0.799982      0.508753     -0.907584
  B      -0.799983      0.508754     -0.907583
  B       0.000001     -1.017589     -0.862285
  B       0.799941      0.508858      0.907632
  B      -0.799941      0.508859      0.907631
  B       0.000001     -1.017635      0.862190
6
Coordinates from ORCA-job B6_trigonal_prism_d2.50_q0_m1_R2SCAN-3C E -148.593607209890
  B       0.785344      0.507441     -0.915842
  B      -0.785348      0.507448     -0.915837
  B       0.000004     -1.015070     -0.831439
  B       0.785330      0.507671      0.915949
  B      -0.785333      0.507678      0.915944
  B       0.000004     -1.015169      0.831226
6
Coordinates from ORCA-job B6_trigonal_prism_d2.50_q0_m1_R2SCAN-3C E -148.594155596539
  B       0.795566      0.508887     -0.909598
  B      -0.795575      0.508904     -0.909585
  B       0.000009     -1.018082     -0.847906
  B       0.795516      0.509251      0.909774
  B      -0.795524      0.509268      0.909760
  B       0.000009     -1.018229      0.847555
6
Coordinates from ORCA-job B6_trigonal_prism_d2.50_q0_m1_R2SCAN-3C E -148.594157022340
  B       0.795321      0.508478     -0.909466
  B      -0.795368      0.508570     -0.909402
  B       0.000047     -1.017769     -0.847331
  B       0.795134      0.509384      0.909903
  B      -0.795181      0.509476      0.909839
  B       0.000048     -1.018139      0.846458
6
Coordinates from ORCA-job B6_trigonal_prism_d2.50_q0_m1_R2SCAN-3C E -148.594159574662
  B       0.795081      0.507604     -0.909299
  B      -0.795264      0.507954     -0.908970
  B       0.000182     -1.017417     -0.847607
  B       0.794984      0.509971      0.910427
  B      -0.795167      0.510322      0.910097
  B       0.000184     -1.018434      0.845353
6
Coordinates from ORCA-job B6_trigonal_prism_d2.50_q0_m1_R2SCAN-3C E -148.594188506456
  B       0.795280      0.504247     -0.908648
  B      -0.796465      0.506539     -0.907116
  B       0.001179     -1.016454     -0.849154
  B       0.793170      0.511180      0.912080
  B      -0.794371      0.513469      0.910540
  B       0.001207     -1.018982      0.842299
6
Coordinates from ORCA-job B6_trigonal_prism_d2.50_q0_m1_R2SCAN-3C E -148.594651476776
  B       0.790813      0.490623     -0.908462
  B      -0.797430      0.503627     -0.899560
  B       0.006511     -1.011520     -0.853069
  B       0.789825      0.513428      0.919069
  B      -0.796725      0.526385      0.909984
  B       0.007007     -1.022543      0.832039
6
Coordinates from ORCA-job B6_trigonal_prism_d2.50_q0_m1_R2SCAN-3C E -148.601177983748
  B       0.783267      0.442891     -0.914278
  B      -0.816673      0.511908     -0.869028
  B       0.031745     -1.005693     -0.865564
  B       0.762504      0.503733      0.946167
  B      -0.800589      0.572155      0.898596
  B       0.039745     -1.024995      0.804107
6
Coordinates from ORCA-job B6_trigonal_prism_d2.50_q0_m1_R2SCAN-3C E -148.607462131711
  B       0.773628      0.418492     -0.917843
  B      -0.826568      0.522244     -0.849919
  B       0.043181     -1.008091     -0.873995
  B       0.757921      0.490065      0.968244
  B      -0.815479      0.599611      0.880795
  B       0.067316     -1.022322      0.792719
6
Coordinates from ORCA-job B6_trigonal_prism_d2.50_q0_m1_R2SCAN-3C E -148.611526838634
  B       0.768454      0.406484     -0.920428
  B      -0.835255      0.528430     -0.840764
  B       0.046946     -1.013297     -0.880266
  B       0.755622      0.480628      0.988300
  B      -0.822922      0.617695      0.867435
  B       0.087154     -1.019940      0.785722
6
Coordinates from ORCA-job B6_trigonal_prism_d2.50_q0_m1_R2SCAN-3C E -148.617111030426
  B       0.756962      0.392716     -0.922478
  B      -0.845235      0.533773     -0.832891
  B       0.047459     -1.021907     -0.888598
  B       0.753457      0.469629      1.023842
  B      -0.829700      0.645031      0.847044
  B       0.117057     -1.019242      0.773082
6
Coordinates from ORCA-job B6_trigonal_prism_d2.50_q0_m1_R2SCAN-3C E -148.624528614846
  B       0.737653      0.376756     -0.917846
  B      -0.859093      0.535974     -0.827933
  B       0.042065     -1.035226     -0.899619
  B       0.749060      0.457265      1.078844
  B      -0.831275      0.685871      0.816652
  B       0.161590     -1.020639      0.749902
6
Coordinates from ORCA-job B6_trigonal_prism_d2.50_q0_m1_R2SCAN-3C E -148.633821214717
  B       0.708838      0.357420     -0.891781
  B      -0.880983      0.530271     -0.832543
  B       0.026549     -1.053341     -0.915033
  B       0.740403      0.442424      1.153540
  B      -0.823009      0.747241      0.775911
  B       0.228203     -1.024016      0.709907
6
Coordinates from ORCA-job B6_trigonal_prism_d2.50_q0_m1_R2SCAN-3C E -148.647377398139
  B       0.677512      0.338413     -0.814187
  B      -0.915476      0.509474     -0.842825
  B      -0.006817     -1.074580     -0.937183
  B       0.717592      0.417538      1.222873
  B      -0.799704      0.836230      0.718514
  B       0.326893     -1.027075      0.652809
6
Coordinates from ORCA-job B6_trigonal_prism_d2.50_q0_m1_R2SCAN-3C E -148.663072200680
  B       0.645236      0.326354     -0.725367
  B      -0.943351      0.484311     -0.850225
  B      -0.041785     -1.090488     -0.950469
  B       0.690158      0.392816      1.272566
  B      -0.767538      0.914007      0.659107
  B       0.417279     -1.026999      0.594388
6
Coordinates from ORCA-job B6_trigonal_prism_d2.50_q0_m1_R2SCAN-3C E -148.680707552045
  B       0.621920      0.312973     -0.641254
  B      -0.974782      0.462361     -0.855172
  B      -0.069984     -1.101314     -0.958137
  B       0.649728      0.356098      1.297168
  B      -0.731493      0.986991      0.609720
  B       0.504610     -1.017110      0.547676
6
Coordinates from ORCA-job B6_trigonal_prism_d2.50_q0_m1_R2SCAN-3C E -148.699081278490
  B       0.597565      0.305950     -0.561524
  B      -0.998862      0.435451     -0.845410
  B      -0.098559     -1.099755     -0.963235
  B       0.607259      0.328825      1.318119
  B      -0.691348      1.049777      0.548604
  B       0.583944     -1.020248      0.503446
6
Coordinates from ORCA-job B6_trigonal_prism_d2.50_q0_m1_R2SCAN-3C E -148.723291549373
  B       0.588031      0.325553     -0.489504
  B      -1.013997      0.388432     -0.838621
  B      -0.134666     -1.057003     -0.946342
  B       0.548809      0.309277      1.288002
  B      -0.630040      1.072363      0.501027
  B       0.641862     -1.038622      0.485438
6
Coordinates from ORCA-job B6_trigonal_prism_d2.50_q0_m1_R2SCAN-3C E -148.735437623291
  B       0.568508      0.354072     -0.400395
  B      -1.023568      0.319038     -0.869457
  B      -0.171700     -1.011434     -0.912769
  B       0.519612      0.294536      1.271434
  B      -0.582268      1.117555      0.469335
  B       0.689416     -1.073766      0.441851
6
Coordinates from ORCA-job B6_trigonal_prism_d2.50_q0_m1_R2SCAN-3C E -148.733612974316
  B       0.550689      0.341507     -0.358098
  B      -1.061360      0.349669     -0.873444
  B      -0.167569     -1.067250     -0.915531
  B       0.492231      0.248188      1.281592
  B      -0.568955      1.189190      0.442401
  B       0.754965     -1.061304      0.423080
6
Coordinates from ORCA-job B6_trigonal_prism_d2.50_q0_m1_R2SCAN-3C E -148.736690178462
  B       0.569080      0.335190     -0.388567
  B      -1.030533      0.338338     -0.855698
  B      -0.174081     -1.033660     -0.899745
  B       0.485971      0.270097      1.272837
  B      -0.593597      1.173666      0.452369
  B       0.743161     -1.083632      0.418804
6
Coordinates from ORCA-job B6_trigonal_prism_d2.50_q0_m1_R2SCAN-3C E -148.735254044077
  B       0.568657      0.380230     -0.396184
  B      -1.018484      0.338098     -0.852034
  B      -0.179548     -1.022113     -0.901163
  B       0.500617      0.276671      1.243552
  B      -0.592896      1.130749      0.451572
  B       0.721653     -1.103635      0.454256
6
Coordinates from ORCA-job B6_trigonal_prism_d2.50_q0_m1_R2SCAN-3C E -148.736631076373
  B       0.579580      0.349839     -0.397005
  B      -1.023711      0.341438     -0.869530
  B      -0.176178     -1.030421     -0.895338
  B       0.496322      0.278342      1.242832
  B      -0.599957      1.144987      0.478867
  B       0.723944     -1.084185      0.440174
6
Coordinates from ORCA-job B6_trigonal_prism_d2.50_q0_m1_R2SCAN-3C E -148.736110076116
  B       0.558406      0.333199     -0.381795
  B      -1.024053      0.335538     -0.852599
  B      -0.178125     -1.035061     -0.899795
  B       0.486862      0.264619      1.285674
  B      -0.593757      1.182783      0.440385
  B       0.750667     -1.081078      0.408129
6
Coordinates from ORCA-job B6_trigonal_prism_d2.50_q0_m1_R2SCAN-3C E -148.737046763849
  B       0.569380      0.347401     -0.388608
  B      -1.023632      0.340273     -0.860628
  B      -0.179085     -1.032501     -0.898142
  B       0.491773      0.273916      1.261154
  B      -0.596295      1.158313      0.458392
  B       0.737860     -1.087402      0.427832
6
Coordinates from ORCA-job B6_trigonal_prism_d2.50_q0_m1_R2SCAN-3C E -148.737058368690
  B       0.568894      0.347235     -0.389883
  B      -1.020237      0.340468     -0.862929
  B      -0.180018     -1.032040     -0.896262
  B       0.493337      0.272977      1.257611
  B      -0.597854      1.155888      0.462065
  B       0.735878     -1.084529      0.429398
6
Coordinates from ORCA-job B6_trigonal_prism_d2.50_q0_m1_R2SCAN-3C E -148.737066817912
  B       0.569740      0.346529     -0.389530
  B      -1.020364      0.342079     -0.863072
  B      -0.180708     -1.033255     -0.896370
  B       0.492509      0.275046      1.258121
  B      -0.597743      1.154224      0.462413
  B       0.736566     -1.084622      0.428438
6
Coordinates from ORCA-job B6_trigonal_prism_d2.50_q0_m1_R2SCAN-3C E -148.737073497014
  B       0.568875      0.347205     -0.389825
  B      -1.019283      0.343226     -0.864461
  B      -0.181748     -1.034632     -0.895788
  B       0.493249      0.275013      1.259161
  B      -0.598876      1.154541      0.462741
  B       0.737783     -1.085352      0.428172
6
Coordinates from ORCA-job B6_trigonal_prism_d2.50_q0_m1_R2SCAN-3C E -148.737079985130
  B       0.568395      0.347229     -0.389268
  B      -1.017170      0.344096     -0.865804
  B      -0.184097     -1.035606     -0.894126
  B       0.492840      0.274664      1.259499
  B      -0.599662      1.154207      0.462928
  B       0.739694     -1.084589      0.426771
6
Coordinates from ORCA-job B6_trigonal_prism_d2.50_q0_m1_R2SCAN-3C E -148.737083981057
  B       0.568049      0.347369     -0.389399
  B      -1.015259      0.345239     -0.867310
  B      -0.185997     -1.036784     -0.892001
  B       0.492154      0.273999      1.259495
  B      -0.600133      1.153508      0.463655
  B       0.741185     -1.083331      0.425561
6
Coordinates from ORCA-job B6_trigonal_prism_d2.50_q0_m1_R2SCAN-3C E -148.737085662837
  B       0.568375      0.347489     -0.389609
  B      -1.015007      0.345352     -0.867586
  B      -0.186935     -1.037012     -0.891233
  B       0.491260      0.273412      1.259913
  B      -0.599805      1.153386      0.463500
  B       0.742112     -1.082627      0.425016
6
Coordinates from ORCA-job B6_trigonal_prism_d2.50_q0_m1_R2SCAN-3C E -148.737087336308
  B       0.568696      0.347911     -0.390222
  B      -1.015537      0.345131     -0.867370
  B      -0.187294     -1.037100     -0.890432
  B       0.489670      0.272340      1.260721
  B      -0.598575      1.153674      0.462878
  B       0.743040     -1.081955      0.424425
6
Coordinates from ORCA-job B6_trigonal_prism_d2.50_q0_m1_R2SCAN-3C E -148.737087548288
  B       0.568880      0.347943     -0.390411
  B      -1.016082      0.344889     -0.867043
  B      -0.187091     -1.036991     -0.890664
  B       0.489267      0.272090      1.260987
  B      -0.598113      1.153972      0.462609
  B       0.743139     -1.081904      0.424522
6
Coordinates from ORCA-job B6_trigonal_prism_d2.50_q0_m1_R2SCAN-3C E -148.737087566006
  B       0.568808      0.347942     -0.390414
  B      -1.016129      0.344860     -0.866976
  B      -0.186942     -1.036969     -0.890770
  B       0.489330      0.272148      1.260952
  B      -0.598099      1.154019      0.462619
  B       0.743032     -1.081999      0.424590
