6
Coordinates from ORCA-job B6_random_3d_seed1001_d2.00_q0_m3_R2SCAN-3C E -148.696209811525
  B           0.10268112526092     -1.10932934615525     -0.39754660161566
  B          -0.10276007759958      1.10908921113993      0.39822238585594
  B           0.34197001118703      0.41019356493551     -1.05570173380363
  B          -0.34218338228835     -0.40966368140563      1.05588072841207
  B           1.12804783204128     -0.02346156083799      0.35575871625166
  B          -1.12775550860129      0.02317181232344     -0.35661350510038
