6
Coordinates from ORCA-job B6_random_3d_seed1001_d2.00_q0_m3_R2SCAN-3C E -148.493657349283
  B       0.133175     -1.426550     -0.406501
  B      -0.061056      1.307615      0.443008
  B       0.356401      0.501936     -1.266060
  B      -0.409652     -0.635690      1.312881
  B       1.359553      0.096169      0.423928
  B      -1.378422      0.156520     -0.507256
6
Coordinates from ORCA-job B6_random_3d_seed1001_d2.00_q0_m3_R2SCAN-3C E -148.524498694275
  B       0.125211     -1.387169     -0.385409
  B      -0.053736      1.274400      0.427150
  B       0.343751      0.497419     -1.244050
  B      -0.395716     -0.635707      1.288382
  B       1.332286      0.095932      0.420380
  B      -1.351795      0.155126     -0.506453
6
Coordinates from ORCA-job B6_random_3d_seed1001_d2.00_q0_m3_R2SCAN-3C E -148.555404781321
  B       0.116833     -1.346073     -0.363558
  B      -0.045087      1.239850      0.411334
  B       0.331628      0.493171     -1.222443
  B      -0.382276     -0.635935      1.263621
  B       1.307116      0.096261      0.417433
  B      -1.328214      0.152726     -0.506387
6
Coordinates from ORCA-job B6_random_3d_seed1001_d2.00_q0_m3_R2SCAN-3C E -148.600072633856
  B       0.107742     -1.290186     -0.334968
  B      -0.037711      1.191862      0.391968
  B       0.313617      0.479050     -1.181461
  B      -0.360734     -0.627148      1.215447
  B       1.271625      0.094920      0.411662
  B      -1.294540      0.151501     -0.502648
6
Coordinates from ORCA-job B6_random_3d_seed1001_d2.00_q0_m3_R2SCAN-3C E -148.651740688361
  B       0.107816     -1.216402     -0.306619
  B      -0.041067      1.128918      0.376499
  B       0.294073      0.442950     -1.112045
  B      -0.335958     -0.593668      1.134975
  B       1.217050      0.085657      0.390676
  B      -1.241914      0.152543     -0.483487
6
Coordinates from ORCA-job B6_random_3d_seed1001_d2.00_q0_m3_R2SCAN-3C E -148.680773499305
  B       0.122261     -1.142061     -0.308353
  B      -0.058291      1.070540      0.381727
  B       0.292632      0.391613     -1.051849
  B      -0.321233     -0.531899      1.068082
  B       1.154344      0.064857      0.358902
  B      -1.189713      0.146950     -0.448509
6
Coordinates from ORCA-job B6_random_3d_seed1001_d2.00_q0_m3_R2SCAN-3C E -148.688710225749
  B       0.131349     -1.106941     -0.338773
  B      -0.078253      1.053162      0.403649
  B       0.309311      0.358396     -1.037824
  B      -0.326040     -0.476409      1.046701
  B       1.122534      0.045420      0.339513
  B      -1.158901      0.126373     -0.413265
6
Coordinates from ORCA-job B6_random_3d_seed1001_d2.00_q0_m3_R2SCAN-3C E -148.693130985928
  B       0.125913     -1.111785     -0.359046
  B      -0.089808      1.070656      0.420041
  B       0.325691      0.359397     -1.052072
  B      -0.339379     -0.453357      1.044434
  B       1.124974      0.034161      0.336680
  B      -1.147391      0.100927     -0.390038
6
Coordinates from ORCA-job B6_random_3d_seed1001_d2.00_q0_m3_R2SCAN-3C E -148.695455528797
  B       0.111942     -1.119847     -0.375527
  B      -0.098164      1.097714      0.429145
  B       0.338970      0.374436     -1.070400
  B      -0.352881     -0.436229      1.042115
  B       1.129030      0.018821      0.340120
  B      -1.128896      0.065105     -0.365452
6
Coordinates from ORCA-job B6_random_3d_seed1001_d2.00_q0_m3_R2SCAN-3C E -148.695743462205
  B       0.106983     -1.118332     -0.379681
  B      -0.100421      1.104799      0.425578
  B       0.339274      0.383037     -1.073063
  B      -0.351486     -0.431427      1.043976
  B       1.128467      0.008826      0.344949
  B      -1.122816      0.053097     -0.361759
6
Coordinates from ORCA-job B6_random_3d_seed1001_d2.00_q0_m3_R2SCAN-3C E -148.695988972957
  B       0.102529     -1.114622     -0.384390
  B      -0.102537      1.110190      0.415620
  B       0.338237      0.395484     -1.070428
  B      -0.346417     -0.425268      1.047970
  B       1.127543     -0.005738      0.351463
  B      -1.119354      0.039954     -0.360234
6
Coordinates from ORCA-job B6_random_3d_seed1001_d2.00_q0_m3_R2SCAN-3C E -148.696121247406
  B       0.100822     -1.111370     -0.389295
  B      -0.103533      1.111345      0.405636
  B       0.338237      0.404888     -1.063667
  B      -0.342958     -0.418509      1.050998
  B       1.127508     -0.016768      0.355052
  B      -1.120076      0.030414     -0.358723
6
Coordinates from ORCA-job B6_random_3d_seed1001_d2.00_q0_m3_R2SCAN-3C E -148.696188060482
  B       0.101253     -1.109812     -0.393904
  B      -0.103459      1.110230      0.398766
  B       0.339253      0.410193     -1.057170
  B      -0.341658     -0.412958      1.053912
  B       1.128715     -0.022770      0.356339
  B      -1.124104      0.025117     -0.357943
6
Coordinates from ORCA-job B6_random_3d_seed1001_d2.00_q0_m3_R2SCAN-3C E -148.696206350474
  B       0.101995     -1.109253     -0.396500
  B      -0.103161      1.108947      0.397889
  B       0.340770      0.410454     -1.055129
  B      -0.342258     -0.410114      1.055046
  B       1.129039     -0.023512      0.355773
  B      -1.126385      0.023477     -0.357078
6
Coordinates from ORCA-job B6_random_3d_seed1001_d2.00_q0_m3_R2SCAN-3C E -148.696209184575
  B       0.102541     -1.109437     -0.397176
  B      -0.102879      1.108769      0.398251
  B       0.341486      0.410130     -1.055361
  B      -0.342381     -0.409797      1.055784
  B       1.128866     -0.023218      0.355603
  B      -1.127633      0.023554     -0.357100
6
Coordinates from ORCA-job B6_random_3d_seed1001_d2.00_q0_m3_R2SCAN-3C E -148.696209664232
  B       0.102631     -1.109326     -0.397468
  B      -0.102810      1.108890      0.398355
  B       0.341863      0.410103     -1.055575
  B      -0.342337     -0.409573      1.055840
  B       1.128338     -0.023339      0.355600
  B      -1.127685      0.023245     -0.356752
6
Coordinates from ORCA-job B6_random_3d_seed1001_d2.00_q0_m3_R2SCAN-3C E -148.696209811525
  B       0.102681     -1.109329     -0.397547
  B      -0.102760      1.109089      0.398222
  B       0.341970      0.410194     -1.055702
  B      -0.342183     -0.409664      1.055881
  B       1.128048     -0.023462      0.355759
  B      -1.127756      0.023172     -0.356614
