6
Coordinates from ORCA-job B6_compact_planar_triangle_d2.00_q0_m5_R2SCAN-3C E -148.487895748221
  B      -2.000000     -1.154701      0.000000
  B       0.000000     -1.154701      0.000000
  B       2.000000     -1.154701      0.000000
  B      -1.000000      0.577350      0.000000
  B       1.000000      0.577350      0.000000
  B       0.000000      2.309401      0.000000
6
Coordinates from ORCA-job B6_compact_planar_triangle_d2.00_q0_m5_R2SCAN-3C E -148.525879119995
  B      -1.941690     -1.121041     -0.000000
  B       0.000000     -1.132069     -0.000000
  B       1.941690     -1.121041     -0.000000
  B      -0.980398      0.566036      0.000000
  B       0.980398      0.566036      0.000000
  B       0.000000      2.242079     -0.000000
6
Coordinates from ORCA-job B6_compact_planar_triangle_d2.00_q0_m5_R2SCAN-3C E -148.561802419995
  B      -1.883839     -1.087603      0.000000
  B      -0.000000     -1.108588     -0.000000
  B       1.883840     -1.087604      0.000000
  B      -0.960069      0.554293     -0.000000
  B       0.960069      0.554293      0.000000
  B      -0.000000      2.175209      0.000000
6
Coordinates from ORCA-job B6_compact_planar_triangle_d2.00_q0_m5_R2SCAN-3C E -148.608032650358
  B      -1.797935     -1.038019     -0.000000
  B       0.000000     -1.071673     -0.000000
  B       1.797935     -1.038019     -0.000000
  B      -0.928097      0.535815      0.000000
  B       0.928097      0.535815      0.000000
  B      -0.000000      2.076081     -0.000000
6
Coordinates from ORCA-job B6_compact_planar_triangle_d2.00_q0_m5_R2SCAN-3C E -148.647332807193
  B      -1.674871     -0.967004      0.000000
  B       0.000000     -1.007746     -0.000000
  B       1.674871     -0.967004      0.000000
  B      -0.872713      0.503908      0.000000
  B       0.872713      0.503908     -0.000000
  B       0.000000      1.933938     -0.000000
6
Coordinates from ORCA-job B6_compact_planar_triangle_d2.00_q0_m5_R2SCAN-3C E -148.650329476783
  B      -1.646103     -0.950404      0.000000
  B      -0.000000     -0.969086      0.000000
  B       1.646103     -0.950404     -0.000000
  B      -0.839234      0.484525     -0.000000
  B       0.839234      0.484525     -0.000000
  B       0.000000      1.900845      0.000000
6
Coordinates from ORCA-job B6_compact_planar_triangle_d2.00_q0_m5_R2SCAN-3C E -148.650721862287
  B      -1.658193     -0.957353      0.000000
  B       0.000000     -0.966409      0.000000
  B       1.658193     -0.957352      0.000000
  B      -0.836908      0.483209     -0.000000
  B       0.836908      0.483209     -0.000000
  B       0.000000      1.914696      0.000000
6
Coordinates from ORCA-job B6_compact_planar_triangle_d2.00_q0_m5_R2SCAN-3C E -148.650726860317
  B      -1.659509     -0.958131     -0.000000
  B      -0.000000     -0.965704     -0.000000
  B       1.659509     -0.958131     -0.000000
  B      -0.836299      0.482835      0.000000
  B       0.836299      0.482835      0.000000
  B       0.000000      1.916298     -0.000000
6
Coordinates from ORCA-job B6_compact_planar_triangle_d2.00_q0_m5_R2SCAN-3C E -148.650726876904
  B      -1.659595     -0.958167      0.000000
  B       0.000000     -0.965788     -0.000000
  B       1.659595     -0.958167      0.000000
  B      -0.836370      0.482893     -0.000000
  B       0.836370      0.482893     -0.000000
  B       0.000000      1.916336      0.000000
