6
Coordinates from ORCA-job B6_compact_planar_triangle_d2.00_q0_m5_R2SCAN-3C E -148.650726876904
  B          -1.65959482782377     -0.95816669671471      0.00000000673932
  B           0.00000000133477     -0.96578815346014     -0.00000000240983
  B           1.65959482866648     -0.95816668798166      0.00000000631735
  B          -0.83637033631788      0.48289301469138     -0.00000001110625
  B           0.83637032593099      0.48289300763577     -0.00000001027658
  B           0.00000000820941      1.91633551582935      0.00000001073599
