6
Coordinates from ORCA-job B6_rectangular_planar_d3.00_q0_m1_R2SCAN-3C E -148.717729427352
  B          -1.25738973578609     -0.48745932454170     -0.27225586454502
  B           0.23108923829602     -0.92503596902072      0.06908943956697
  B           1.80302348372559     -0.87709933152521      0.19985108101591
  B          -1.80267070848238      0.87664988231558      0.20494540570890
  B          -0.23098988526308      0.92485032064194      0.07161661727256
  B           1.25693760750993      0.48809442213011     -0.27324667901931
