6
Coordinates from ORCA-job B6_rectangular_planar_d3.00_q0_m1_R2SCAN-3C E -147.938078984466
  B      -3.000000     -1.500000      0.000000
  B       0.000000     -1.500000      0.000000
  B       3.000000     -1.500000      0.000000
  B      -3.000000      1.500000      0.000000
  B       0.000000      1.500000      0.000000
  B       3.000000      1.500000      0.000000
6
Coordinates from ORCA-job B6_rectangular_planar_d3.00_q0_m1_R2SCAN-3C E -147.957271496296
  B      -2.938769     -1.471313      0.000000
  B       0.000000     -1.469908     -0.000000
  B       2.938770     -1.471313     -0.000000
  B      -2.938770      1.471313     -0.000000
  B      -0.000000      1.469908     -0.000000
  B       2.938769      1.471313      0.000000
6
Coordinates from ORCA-job B6_rectangular_planar_d3.00_q0_m1_R2SCAN-3C E -147.977763415069
  B      -2.877328     -1.442834      0.000000
  B       0.000000     -1.439851      0.000000
  B       2.877328     -1.442834     -0.000000
  B      -2.877328      1.442835      0.000000
  B      -0.000000      1.439850     -0.000000
  B       2.877328      1.442834      0.000000
6
Coordinates from ORCA-job B6_rectangular_planar_d3.00_q0_m1_R2SCAN-3C E -148.011147023795
  B      -2.784808     -1.400435      0.000000
  B       0.000001     -1.394890      0.000000
  B       2.784809     -1.400436     -0.000000
  B      -2.784808      1.400436     -0.000000
  B      -0.000001      1.394890      0.000000
  B       2.784807      1.400435      0.000000
6
Coordinates from ORCA-job B6_rectangular_planar_d3.00_q0_m1_R2SCAN-3C E -148.067751400221
  B      -2.645124     -1.337620     -0.000000
  B      -0.000000     -1.327841      0.000000
  B       2.645124     -1.337620     -0.000000
  B      -2.645124      1.337620     -0.000000
  B       0.000000      1.327841      0.000000
  B       2.645124      1.337620     -0.000000
6
Coordinates from ORCA-job B6_rectangular_planar_d3.00_q0_m1_R2SCAN-3C E -148.135493716865
  B      -2.498598     -1.273916     -0.000000
  B      -0.000001     -1.259125      0.000000
  B       2.498598     -1.273915     -0.000000
  B      -2.498598      1.273914     -0.000000
  B       0.000001      1.259126      0.000000
  B       2.498599      1.273915     -0.000000
6
Coordinates from ORCA-job B6_rectangular_planar_d3.00_q0_m1_R2SCAN-3C E -148.212926258788
  B      -2.349887     -1.211960     -0.000000
  B      -0.000002     -1.191903      0.000000
  B       2.349888     -1.211948     -0.000000
  B      -2.349889      1.211957     -0.000000
  B       0.000000      1.191907      0.000000
  B       2.349890      1.211947     -0.000000
6
Coordinates from ORCA-job B6_rectangular_planar_d3.00_q0_m1_R2SCAN-3C E -148.298975146291
  B      -2.198648     -1.151826     -0.000000
  B      -0.000002     -1.127025      0.000000
  B       2.198648     -1.151812     -0.000000
  B      -2.198648      1.151824     -0.000000
  B       0.000000      1.127027      0.000000
  B       2.198649      1.151812     -0.000000
6
Coordinates from ORCA-job B6_rectangular_planar_d3.00_q0_m1_R2SCAN-3C E -148.390327366247
  B      -2.044982     -1.092942     -0.000000
  B      -0.000002     -1.065662      0.000000
  B       2.044982     -1.092927     -0.000000
  B      -2.044982      1.092942     -0.000000
  B       0.000001      1.065663      0.000000
  B       2.044982      1.092927     -0.000000
6
Coordinates from ORCA-job B6_rectangular_planar_d3.00_q0_m1_R2SCAN-3C E -148.479541152618
  B      -1.889529     -1.034249     -0.000000
  B      -0.000001     -1.008698      0.000000
  B       1.889529     -1.034232     -0.000000
  B      -1.889531      1.034248     -0.000000
  B       0.000001      1.008700      0.000000
  B       1.889530      1.034231     -0.000000
6
Coordinates from ORCA-job B6_rectangular_planar_d3.00_q0_m1_R2SCAN-3C E -148.549521377028
  B      -1.737101     -0.969150     -0.000000
  B       0.000002     -0.958547      0.000000
  B       1.737099     -0.969132     -0.000000
  B      -1.737097      0.969152     -0.000000
  B       0.000002      0.958544      0.000000
  B       1.737095      0.969133     -0.000000
6
Coordinates from ORCA-job B6_rectangular_planar_d3.00_q0_m1_R2SCAN-3C E -148.578031505080
  B      -1.638580     -0.889395     -0.000000
  B       0.000004     -0.907009      0.000000
  B       1.638577     -0.889377     -0.000000
  B      -1.638566      0.889402     -0.000000
  B       0.000003      0.906996      0.000000
  B       1.638562      0.889383     -0.000000
6
Coordinates from ORCA-job B6_rectangular_planar_d3.00_q0_m1_R2SCAN-3C E -148.564258738989
  B      -1.705260     -0.810295     -0.000000
  B      -0.000004     -0.865056      0.000000
  B       1.705270     -0.810280      0.000000
  B      -1.705330      0.810273      0.000000
  B      -0.000002      0.865106      0.000000
  B       1.705327      0.810252     -0.000000
6
Coordinates from ORCA-job B6_rectangular_planar_d3.00_q0_m1_R2SCAN-3C E -148.579058742183
  B      -1.643457     -0.860994     -0.000000
  B       0.000012     -0.900238      0.000000
  B       1.643461     -0.860985      0.000000
  B      -1.643522      0.860988      0.000000
  B       0.000010      0.900266      0.000000
  B       1.643496      0.860963     -0.000000
6
Coordinates from ORCA-job B6_rectangular_planar_d3.00_q0_m1_R2SCAN-3C E -148.579142269257
  B      -1.632791     -0.861685     -0.000006
  B      -0.000112     -0.912107      0.000000
  B       1.633022     -0.861696      0.000006
  B      -1.632617      0.861859      0.000006
  B      -0.000138      0.911884      0.000000
  B       1.632636      0.861746     -0.000006
6
Coordinates from ORCA-job B6_rectangular_planar_d3.00_q0_m1_R2SCAN-3C E -148.630998987468
  B      -1.635965     -0.865218     -0.000145
  B       0.001583     -0.904607     -0.000000
  B       1.634990     -0.866555      0.000145
  B      -1.637744      0.865098      0.000145
  B       0.001466      0.905489      0.000000
  B       1.635670      0.865793     -0.000145
6
Coordinates from ORCA-job B6_rectangular_planar_d3.00_q0_m1_R2SCAN-3C E -148.633578180321
  B      -1.635157     -0.860915     -0.003474
  B       0.001680     -0.906563      0.006538
  B       1.634283     -0.862521     -0.003060
  B      -1.637428      0.860772     -0.003045
  B       0.001478      0.907706      0.006518
  B       1.635145      0.861522     -0.003477
6
Coordinates from ORCA-job B6_rectangular_planar_d3.00_q0_m1_R2SCAN-3C E -148.664755013370
  B      -1.611130     -0.809171     -0.014952
  B       0.001354     -0.908754      0.029733
  B       1.610739     -0.811087     -0.014760
  B      -1.614894      0.808344     -0.014779
  B       0.001078      0.911468      0.029817
  B       1.612852      0.809201     -0.015061
6
Coordinates from ORCA-job B6_rectangular_planar_d3.00_q0_m1_R2SCAN-3C E -148.679177389344
  B      -1.595054     -0.773994     -0.011142
  B       0.000766     -0.901088      0.022245
  B       1.594533     -0.774883     -0.011071
  B      -1.596724      0.773380     -0.011100
  B       0.000737      0.902665      0.022337
  B       1.595743      0.773920     -0.011269
6
Coordinates from ORCA-job B6_rectangular_planar_d3.00_q0_m1_R2SCAN-3C E -148.682926614668
  B      -1.561117     -0.738288      0.018992
  B      -0.002793     -0.913564     -0.037219
  B       1.562570     -0.733183      0.018212
  B      -1.560561      0.737304      0.018078
  B      -0.001377      0.914229     -0.036789
  B       1.563276      0.733500      0.018727
6
Coordinates from ORCA-job B6_rectangular_planar_d3.00_q0_m1_R2SCAN-3C E -148.675596813501
  B      -1.603589     -0.700748     -0.027341
  B       0.019981     -0.914521      0.051782
  B       1.586321     -0.759428     -0.024905
  B      -1.594751      0.706756     -0.023520
  B       0.016657      0.905513      0.051174
  B       1.575381      0.762428     -0.027190
6
Coordinates from ORCA-job B6_rectangular_planar_d3.00_q0_m1_R2SCAN-3C E -148.680104628067
  B      -1.598794     -0.764160     -0.042375
  B       0.009601     -0.891297      0.082246
  B       1.590265     -0.737882     -0.041025
  B      -1.593412      0.766988     -0.038202
  B       0.005253      0.887597      0.082276
  B       1.587087      0.738754     -0.042920
6
Coordinates from ORCA-job B6_rectangular_planar_d3.00_q0_m1_R2SCAN-3C E -148.681315924210
  B      -1.546557     -0.755171     -0.000569
  B      -0.015342     -0.884015     -0.000276
  B       1.562448     -0.762607     -0.000840
  B      -1.555901      0.751749      0.003271
  B      -0.014209      0.891942      0.000481
  B       1.569561      0.758102     -0.002068
6
Coordinates from ORCA-job B6_rectangular_planar_d3.00_q0_m1_R2SCAN-3C E -148.683337602940
  B      -1.567448     -0.738353      0.008237
  B       0.007688     -0.912310     -0.018215
  B       1.561765     -0.740016      0.008159
  B      -1.567326      0.740022      0.012648
  B       0.006973      0.911634     -0.017438
  B       1.558349      0.739023      0.006609
6
Coordinates from ORCA-job B6_rectangular_planar_d3.00_q0_m1_R2SCAN-3C E -148.683114407023
  B      -1.580954     -0.738593     -0.004051
  B      -0.006311     -0.916412      0.006282
  B       1.589633     -0.740478     -0.004060
  B      -1.580869      0.740264      0.000396
  B      -0.009868      0.916418      0.007046
  B       1.588369      0.738801     -0.005613
6
Coordinates from ORCA-job B6_rectangular_planar_d3.00_q0_m1_R2SCAN-3C E -148.683259874178
  B      -1.580611     -0.755110     -0.002982
  B       0.002834     -0.895391      0.004448
  B       1.579207     -0.754456     -0.003323
  B      -1.583465      0.754804      0.001058
  B       0.000865      0.898303      0.005312
  B       1.581170      0.751851     -0.004512
6
Coordinates from ORCA-job B6_rectangular_planar_d3.00_q0_m1_R2SCAN-3C E -148.683617068373
  B      -1.568032     -0.738475     -0.001647
  B       0.001367     -0.906336     -0.000016
  B       1.571087     -0.742162     -0.000188
  B      -1.563905      0.744421      0.004419
  B       0.002192      0.899295      0.000289
  B       1.557292      0.743258     -0.002856
6
Coordinates from ORCA-job B6_rectangular_planar_d3.00_q0_m1_R2SCAN-3C E -148.683308077555
  B      -1.558842     -0.745068     -0.000252
  B       0.005349     -0.897392     -0.003043
  B       1.557197     -0.747854      0.001442
  B      -1.584055      0.735807      0.006183
  B      -0.004411      0.921224     -0.002896
  B       1.584763      0.733283     -0.001434
6
Coordinates from ORCA-job B6_rectangular_planar_d3.00_q0_m1_R2SCAN-3C E -148.683518202400
  B      -1.583345     -0.745932     -0.000279
  B      -0.000186     -0.913412     -0.003140
  B       1.588131     -0.746823      0.001468
  B      -1.579443      0.750667      0.006234
  B      -0.007191      0.909884     -0.002915
  B       1.582035      0.745615     -0.001368
6
Coordinates from ORCA-job B6_rectangular_planar_d3.00_q0_m1_R2SCAN-3C E -148.683598618134
  B      -1.567056     -0.740702     -0.006627
  B      -0.002738     -0.901723      0.007597
  B       1.579456     -0.745977     -0.003014
  B      -1.578265      0.746699      0.002161
  B       0.005770      0.898862      0.007132
  B       1.562833      0.742841     -0.007249
6
Coordinates from ORCA-job B6_rectangular_planar_d3.00_q0_m1_R2SCAN-3C E -148.683471891045
  B      -1.571252     -0.737473     -0.004409
  B       0.011816     -0.904342      0.002346
  B       1.565887     -0.744178      0.000037
  B      -1.561760      0.744854      0.005298
  B      -0.007603      0.898444      0.001582
  B       1.562912      0.742694     -0.004854
6
Coordinates from ORCA-job B6_rectangular_planar_d3.00_q0_m1_R2SCAN-3C E -148.683693226854
  B      -1.569116     -0.744547      0.001097
  B       0.002545     -0.911955     -0.009359
  B       1.576420     -0.748352      0.006208
  B      -1.581189      0.746710      0.011780
  B      -0.006960      0.918607     -0.010599
  B       1.578299      0.739538      0.000873
6
Coordinates from ORCA-job B6_rectangular_planar_d3.00_q0_m1_R2SCAN-3C E -148.683772348943
  B      -1.571989     -0.740081     -0.011098
  B       0.003671     -0.899590      0.012458
  B       1.582372     -0.747611     -0.003488
  B      -1.581657      0.747858      0.002733
  B      -0.003474      0.898835      0.009986
  B       1.571078      0.740589     -0.010590
6
Coordinates from ORCA-job B6_rectangular_planar_d3.00_q0_m1_R2SCAN-3C E -148.683802929323
  B      -1.564318     -0.737897     -0.006076
  B       0.006649     -0.910178     -0.002068
  B       1.576510     -0.748625      0.005853
  B      -1.574211      0.749346      0.013245
  B      -0.004329      0.906857     -0.006628
  B       1.559700      0.740497     -0.004327
6
Coordinates from ORCA-job B6_rectangular_planar_d3.00_q0_m1_R2SCAN-3C E -148.683871318127
  B      -1.565622     -0.738192     -0.009716
  B       0.008681     -0.907117      0.002199
  B       1.579448     -0.750034      0.005000
  B      -1.580095      0.749687      0.013619
  B      -0.009250      0.907975     -0.004317
  B       1.566838      0.737681     -0.006785
6
Coordinates from ORCA-job B6_rectangular_planar_d3.00_q0_m1_R2SCAN-3C E -148.683918764702
  B      -1.562627     -0.735238     -0.016532
  B       0.012096     -0.905758      0.007220
  B       1.584091     -0.752818      0.006197
  B      -1.584485      0.752464      0.018079
  B      -0.012600      0.906338     -0.004616
  B       1.563525      0.735012     -0.010348
6
Coordinates from ORCA-job B6_rectangular_planar_d3.00_q0_m1_R2SCAN-3C E -148.684020157197
  B      -1.557033     -0.730716     -0.025374
  B       0.018271     -0.905864      0.011572
  B       1.588884     -0.756906      0.009701
  B      -1.589568      0.756231      0.027059
  B      -0.019177      0.906839     -0.009234
  B       1.558623      0.730416     -0.013723
6
Coordinates from ORCA-job B6_rectangular_planar_d3.00_q0_m1_R2SCAN-3C E -148.684250860277
  B      -1.548716     -0.723717     -0.039140
  B       0.027121     -0.905409      0.019374
  B       1.596548     -0.762993      0.014092
  B      -1.597531      0.761737      0.040174
  B      -0.028692      0.906770     -0.015712
  B       1.551270      0.723612     -0.018787
6
Coordinates from ORCA-job B6_rectangular_planar_d3.00_q0_m1_R2SCAN-3C E -148.684742017918
  B      -1.536236     -0.713116     -0.056136
  B       0.039911     -0.904783      0.028811
  B       1.607359     -0.771549      0.019855
  B      -1.608929      0.769556      0.055952
  B      -0.042453      0.906199     -0.022671
  B       1.540349      0.713693     -0.025811
6
Coordinates from ORCA-job B6_rectangular_planar_d3.00_q0_m1_R2SCAN-3C E -148.685635106054
  B      -1.519626     -0.699048     -0.069486
  B       0.056644     -0.904329      0.035362
  B       1.621473     -0.782287      0.025497
  B      -1.624118      0.780294      0.068049
  B      -0.059916      0.904593     -0.026610
  B       1.525543      0.700778     -0.032813
6
Coordinates from ORCA-job B6_rectangular_planar_d3.00_q0_m1_R2SCAN-3C E -148.687016109015
  B      -1.500133     -0.682476     -0.079000
  B       0.075647     -0.904225      0.039368
  B       1.637602     -0.794087      0.030470
  B      -1.641721      0.792849      0.076136
  B      -0.079371      0.901932     -0.027574
  B       1.507976      0.686008     -0.039400
6
Coordinates from ORCA-job B6_rectangular_planar_d3.00_q0_m1_R2SCAN-3C E -148.688872562198
  B      -1.479363     -0.664792     -0.086851
  B       0.094995     -0.904255      0.042338
  B       1.654201     -0.805859      0.035142
  B      -1.659969      0.805801      0.082224
  B      -0.099018      0.898452     -0.026772
  B       1.489153      0.670652     -0.046080
6
Coordinates from ORCA-job B6_rectangular_planar_d3.00_q0_m1_R2SCAN-3C E -148.691196150430
  B      -1.457922     -0.646579     -0.094358
  B       0.113991     -0.904175      0.045137
  B       1.670765     -0.817329      0.039819
  B      -1.678340      0.818569      0.087429
  B      -0.118260      0.894420     -0.024669
  B       1.469765      0.655095     -0.053358
6
Coordinates from ORCA-job B6_rectangular_planar_d3.00_q0_m1_R2SCAN-3C E -148.693956663623
  B      -1.436063     -0.628193     -0.101957
  B       0.132409     -0.903775      0.048096
  B       1.687281     -0.828574      0.044545
  B      -1.696753      0.830970      0.092089
  B      -0.136859      0.890189     -0.021404
  B       1.449986      0.639383     -0.061369
6
Coordinates from ORCA-job B6_rectangular_planar_d3.00_q0_m1_R2SCAN-3C E -148.697062850171
  B      -1.414035     -0.609941     -0.109798
  B       0.150170     -0.902887      0.051338
  B       1.703870     -0.839747      0.049314
  B      -1.715219      0.842856      0.096310
  B      -0.154664      0.886272     -0.017028
  B       1.429878      0.623446     -0.070137
6
Coordinates from ORCA-job B6_rectangular_planar_d3.00_q0_m1_R2SCAN-3C E -148.700364588824
  B      -1.392074     -0.592050     -0.117959
  B       0.167211     -0.901428      0.054924
  B       1.720612     -0.850911      0.054124
  B      -1.733689      0.854075      0.100136
  B      -0.171565      0.883113     -0.011551
  B       1.409505      0.607200     -0.079674
6
Coordinates from ORCA-job B6_rectangular_planar_d3.00_q0_m1_R2SCAN-3C E -148.705150956811
  B      -1.361405     -0.566093     -0.132467
  B       0.190897     -0.897884      0.061075
  B       1.744707     -0.866438      0.062968
  B      -1.760364      0.867839      0.106695
  B      -0.195272      0.880303     -0.001234
  B       1.381437      0.582273     -0.097038
6
Coordinates from ORCA-job B6_rectangular_planar_d3.00_q0_m1_R2SCAN-3C E -148.711106198580
  B      -1.312170     -0.530409     -0.150717
  B       0.223006     -0.892413      0.071473
  B       1.784408     -0.891513      0.071526
  B      -1.800127      0.889257      0.110274
  B      -0.224003      0.880755      0.018244
  B       1.328885      0.544323     -0.120801
6
Coordinates from ORCA-job B6_rectangular_planar_d3.00_q0_m1_R2SCAN-3C E -148.715128814313
  B      -1.268633     -0.493960     -0.195191
  B       0.246789     -0.892113      0.087107
  B       1.820683     -0.906512      0.102726
  B      -1.833327      0.897560      0.126518
  B      -0.244075      0.894821      0.059310
  B       1.278563      0.500205     -0.180470
6
Coordinates from ORCA-job B6_rectangular_planar_d3.00_q0_m1_R2SCAN-3C E -148.717344072264
  B      -1.261979     -0.478376     -0.262499
  B       0.233971     -0.911647      0.084647
  B       1.806361     -0.879522      0.176374
  B      -1.815632      0.878633      0.184946
  B      -0.235200      0.902753      0.080400
  B       1.272479      0.488160     -0.263867
6
Coordinates from ORCA-job B6_rectangular_planar_d3.00_q0_m1_R2SCAN-3C E -148.717686953196
  B      -1.256316     -0.484690     -0.274133
  B       0.233802     -0.916105      0.074332
  B       1.805535     -0.878872      0.196679
  B      -1.807861      0.877192      0.200147
  B      -0.230552      0.919052      0.080016
  B       1.255393      0.483423     -0.277041
6
Coordinates from ORCA-job B6_rectangular_planar_d3.00_q0_m1_R2SCAN-3C E -148.717711652817
  B      -1.255610     -0.486040     -0.277388
  B       0.229171     -0.924650      0.075616
  B       1.803169     -0.877786      0.197674
  B      -1.802122      0.875980      0.208091
  B      -0.231596      0.922824      0.068883
  B       1.256989      0.489672     -0.272877
6
Coordinates from ORCA-job B6_rectangular_planar_d3.00_q0_m1_R2SCAN-3C E -148.717725484661
  B      -1.258524     -0.488996     -0.270440
  B       0.231010     -0.925717      0.066634
  B       1.801909     -0.876220      0.200941
  B      -1.801245      0.877271      0.203578
  B      -0.230652      0.924650      0.073288
  B       1.257502      0.489012     -0.274001
6
Coordinates from ORCA-job B6_rectangular_planar_d3.00_q0_m1_R2SCAN-3C E -148.717729251978
  B      -1.257403     -0.487467     -0.272386
  B       0.231246     -0.924449      0.069783
  B       1.803223     -0.877384      0.199267
  B      -1.802916      0.876675      0.204364
  B      -0.230973      0.924685      0.072314
  B       1.256824      0.487940     -0.273343
6
Coordinates from ORCA-job B6_rectangular_planar_d3.00_q0_m1_R2SCAN-3C E -148.717729400283
  B      -1.257309     -0.487450     -0.272322
  B       0.231075     -0.924929      0.069342
  B       1.803086     -0.877136      0.199661
  B      -1.802702      0.876710      0.204751
  B      -0.231014      0.924738      0.071884
  B       1.256863      0.488067     -0.273315
6
Coordinates from ORCA-job B6_rectangular_planar_d3.00_q0_m1_R2SCAN-3C E -148.717729427352
  B      -1.257390     -0.487459     -0.272256
  B       0.231089     -0.925036      0.069089
  B       1.803023     -0.877099      0.199851
  B      -1.802671      0.876650      0.204945
  B      -0.230990      0.924850      0.071617
  B       1.256938      0.488094     -0.273247
