6
Coordinates from ORCA-job B6_octahedral_3d_d3.50_q0_m5_R2SCAN-3C E -147.920924018964
  B       2.474874      0.000000      0.000000
  B      -2.474874      0.000000      0.000000
  B       0.000000      2.474874      0.000000
  B       0.000000     -2.474874      0.000000
  B       0.000000      0.000000      2.474874
  B       0.000000      0.000000     -2.474874
6
Coordinates from ORCA-job B6_octahedral_3d_d3.50_q0_m5_R2SCAN-3C E -147.929407211164
  B       2.443036     -0.002240      0.006937
  B      -2.443081     -0.002270      0.007245
  B      -0.000048      2.444525      0.001075
  B      -0.000078     -2.438110     -0.000851
  B      -0.000069      0.000010      2.437378
  B       0.000239     -0.001915     -2.451784
6
Coordinates from ORCA-job B6_octahedral_3d_d3.50_q0_m5_R2SCAN-3C E -147.938237543360
  B       2.410718     -0.005228      0.013762
  B      -2.410795     -0.005278      0.014392
  B      -0.000107      2.415326      0.002651
  B      -0.000157     -2.401436     -0.002080
  B      -0.000144      0.000676      2.399839
  B       0.000485     -0.004060     -2.428565
6
Coordinates from ORCA-job B6_octahedral_3d_d3.50_q0_m5_R2SCAN-3C E -147.952170320034
  B       2.361423     -0.010440      0.023400
  B      -2.361523     -0.010508      0.024498
  B      -0.000204      2.373010      0.005727
  B      -0.000271     -2.346870     -0.004284
  B      -0.000262      0.002419      2.343741
  B       0.000837     -0.007611     -2.393082
6
Coordinates from ORCA-job B6_octahedral_3d_d3.50_q0_m5_R2SCAN-3C E -147.974754606817
  B       2.285893     -0.018985      0.036673
  B      -2.285983     -0.019048      0.038464
  B      -0.000360      2.311772      0.011714
  B      -0.000423     -2.265911     -0.007995
  B      -0.000461      0.005970      2.260185
  B       0.001334     -0.013797     -2.339041
6
Coordinates from ORCA-job B6_octahedral_3d_d3.50_q0_m5_R2SCAN-3C E -148.000527648800
  B       2.204913     -0.028382      0.049514
  B      -2.204918     -0.028403      0.052099
  B      -0.000532      2.251080      0.019913
  B      -0.000551     -2.183060     -0.012296
  B      -0.000753      0.010542      2.174546
  B       0.001842     -0.021777     -2.283776
6
Coordinates from ORCA-job B6_octahedral_3d_d3.50_q0_m5_R2SCAN-3C E -148.028993298671
  B       2.121244     -0.037662      0.061361
  B      -2.121075     -0.037589      0.064827
  B      -0.000707      2.192578      0.030132
  B      -0.000629     -2.101370     -0.016891
  B      -0.001163      0.015610      2.090242
  B       0.002330     -0.031567     -2.229671
6
Coordinates from ORCA-job B6_octahedral_3d_d3.50_q0_m5_R2SCAN-3C E -148.060577655621
  B       2.035007     -0.046371      0.072250
  B      -2.034557     -0.046130      0.076727
  B      -0.000883      2.135492      0.042052
  B      -0.000637     -2.021033     -0.021606
  B      -0.001732      0.020937      2.007442
  B       0.002801     -0.042895     -2.176864
6
Coordinates from ORCA-job B6_octahedral_3d_d3.50_q0_m5_R2SCAN-3C E -148.095670318814
  B       1.946519     -0.054329      0.082241
  B      -1.945649     -0.053828      0.087865
  B      -0.001067      2.079367      0.055486
  B      -0.000560     -1.942028     -0.026506
  B      -0.002485      0.026482      1.926155
  B       0.003242     -0.055664     -2.125240
6
Coordinates from ORCA-job B6_octahedral_3d_d3.50_q0_m5_R2SCAN-3C E -148.134615721448
  B       1.856585     -0.061669      0.091440
  B      -1.855136     -0.060742      0.098472
  B      -0.001309      2.023536      0.070173
  B      -0.000388     -1.863767     -0.031581
  B      -0.003472      0.032257      1.846141
  B       0.003721     -0.069615     -2.074644
6
Coordinates from ORCA-job B6_octahedral_3d_d3.50_q0_m5_R2SCAN-3C E -148.177547599427
  B       1.766122     -0.068582      0.100076
  B      -1.763900     -0.066943      0.108960
  B      -0.001694      1.967431      0.085876
  B      -0.000099     -1.785699     -0.036974
  B      -0.004764      0.038359      1.766880
  B       0.004335     -0.084565     -2.024819
6
Coordinates from ORCA-job B6_octahedral_3d_d3.50_q0_m5_R2SCAN-3C E -148.224313678528
  B       1.675882     -0.074887      0.107751
  B      -1.673110     -0.072859      0.120207
  B      -0.001849      1.910504      0.102465
  B       0.000078     -1.707271     -0.042754
  B      -0.006800      0.044883      1.687763
  B       0.005798     -0.100370     -1.975432
6
Coordinates from ORCA-job B6_octahedral_3d_d3.50_q0_m5_R2SCAN-3C E -148.273950989562
  B       1.587101     -0.081010      0.113466
  B      -1.583688     -0.077883      0.133152
  B      -0.002287      1.851859      0.120175
  B       0.000494     -1.628122     -0.049479
  B      -0.010521      0.052412      1.608501
  B       0.008901     -0.117256     -1.925815
6
Coordinates from ORCA-job B6_octahedral_3d_d3.50_q0_m5_R2SCAN-3C E -148.329039164983
  B       1.501057     -0.088462      0.113966
  B      -1.496383     -0.078142      0.150030
  B      -0.005342      1.790499      0.140155
  B       0.003442     -1.549881     -0.058538
  B      -0.018518      0.062224      1.528940
  B       0.015744     -0.136239     -1.874553
6
Coordinates from ORCA-job B6_octahedral_3d_d3.50_q0_m5_R2SCAN-3C E -148.394193466902
  B       1.409296     -0.107476      0.108462
  B      -1.401304     -0.069907      0.169508
  B      -0.015422      1.735334      0.170343
  B       0.017510     -1.475702     -0.077096
  B      -0.033513      0.082704      1.462774
  B       0.023433     -0.164954     -1.833992
6
Coordinates from ORCA-job B6_octahedral_3d_d3.50_q0_m5_R2SCAN-3C E -148.457576480983
  B       1.319790     -0.123368      0.102120
  B      -1.309769     -0.060791      0.183892
  B      -0.025177      1.675497      0.203077
  B       0.030178     -1.402575     -0.099514
  B      -0.045356      0.107258      1.399350
  B       0.030334     -0.196020     -1.788925
6
Coordinates from ORCA-job B6_octahedral_3d_d3.50_q0_m5_R2SCAN-3C E -148.514751774906
  B       1.237540     -0.131756      0.088991
  B      -1.232668     -0.047144      0.191304
  B      -0.035557      1.603510      0.246338
  B       0.039811     -1.341926     -0.130450
  B      -0.050587      0.147785      1.336692
  B       0.041462     -0.230469     -1.732875
6
Coordinates from ORCA-job B6_octahedral_3d_d3.50_q0_m5_R2SCAN-3C E -148.557567737388
  B       1.166882     -0.115941      0.070728
  B      -1.174920     -0.034983      0.184175
  B      -0.037355      1.519755      0.281940
  B       0.036031     -1.295083     -0.154797
  B      -0.044764      0.181217      1.270286
  B       0.054125     -0.254964     -1.652332
6
Coordinates from ORCA-job B6_octahedral_3d_d3.50_q0_m5_R2SCAN-3C E -148.581211157160
  B       1.125292     -0.090662      0.047555
  B      -1.148453     -0.034207      0.166925
  B      -0.029645      1.471925      0.289180
  B       0.023573     -1.270961     -0.171481
  B      -0.036448      0.189354      1.245494
  B       0.065680     -0.265448     -1.577672
6
Coordinates from ORCA-job B6_octahedral_3d_d3.50_q0_m5_R2SCAN-3C E -148.595808379751
  B       1.100554     -0.070262      0.030466
  B      -1.135599     -0.037221      0.155965
  B      -0.020812      1.440683      0.290126
  B       0.012538     -1.254297     -0.181426
  B      -0.031574      0.191755      1.231564
  B       0.074894     -0.270659     -1.526696
6
Coordinates from ORCA-job B6_octahedral_3d_d3.50_q0_m5_R2SCAN-3C E -148.615227532576
  B       1.078134     -0.025563      0.000562
  B      -1.141912     -0.049957      0.134839
  B       0.002882      1.405862      0.275959
  B      -0.012972     -1.248326     -0.183303
  B      -0.019565      0.182318      1.232070
  B       0.093433     -0.264334     -1.460126
6
Coordinates from ORCA-job B6_octahedral_3d_d3.50_q0_m5_R2SCAN-3C E -148.634703291739
  B       1.040261      0.030017     -0.051257
  B      -1.144620     -0.061567      0.119364
  B       0.034535      1.351562      0.230946
  B      -0.045487     -1.244658     -0.149330
  B      -0.013944      0.145592      1.228729
  B       0.129255     -0.220946     -1.378452
6
Coordinates from ORCA-job B6_octahedral_3d_d3.50_q0_m5_R2SCAN-3C E -148.640719729297
  B       1.046255      0.072296     -0.062681
  B      -1.152541     -0.058874      0.077228
  B       0.044792      1.309567      0.188454
  B      -0.065535     -1.242055     -0.116367
  B       0.005627      0.107474      1.246533
  B       0.121401     -0.188409     -1.333167
6
Coordinates from ORCA-job B6_octahedral_3d_d3.50_q0_m5_R2SCAN-3C E -148.643310176365
  B       1.096821      0.075972     -0.089148
  B      -1.141248     -0.029338      0.058992
  B       0.016737      1.295866      0.160716
  B      -0.068013     -1.239657     -0.095269
  B      -0.009666      0.070055      1.263126
  B       0.105370     -0.172899     -1.298417
6
Coordinates from ORCA-job B6_octahedral_3d_d3.50_q0_m5_R2SCAN-3C E -148.643202514391
  B       1.148795      0.113973     -0.067852
  B      -1.119678     -0.014030      0.036044
  B       0.016497      1.248054      0.138249
  B      -0.079921     -1.239537     -0.066222
  B      -0.021479      0.046559      1.258619
  B       0.055785     -0.155019     -1.298837
6
Coordinates from ORCA-job B6_octahedral_3d_d3.50_q0_m5_R2SCAN-3C E -148.644313475060
  B       1.130144      0.097798     -0.079852
  B      -1.136366     -0.015212      0.042501
  B       0.022970      1.259198      0.145397
  B      -0.062429     -1.241436     -0.085536
  B      -0.023542      0.062130      1.275238
  B       0.069224     -0.162477     -1.297748
6
Coordinates from ORCA-job B6_octahedral_3d_d3.50_q0_m5_R2SCAN-3C E -148.644419314709
  B       1.121846      0.082012     -0.090338
  B      -1.127989     -0.025336      0.044304
  B       0.022644      1.258283      0.148348
  B      -0.059149     -1.231706     -0.082745
  B      -0.030666      0.070215      1.274176
  B       0.073314     -0.153467     -1.293745
6
Coordinates from ORCA-job B6_octahedral_3d_d3.50_q0_m5_R2SCAN-3C E -148.644572437697
  B       1.128036      0.083594     -0.089663
  B      -1.131637     -0.023046      0.043854
  B       0.026292      1.251345      0.147044
  B      -0.053783     -1.232732     -0.082532
  B      -0.035929      0.072288      1.278713
  B       0.067020     -0.151450     -1.297416
6
Coordinates from ORCA-job B6_octahedral_3d_d3.50_q0_m5_R2SCAN-3C E -148.644707684431
  B       1.135517      0.078008     -0.091198
  B      -1.133188     -0.024422      0.040584
  B       0.032001      1.238132      0.143333
  B      -0.042376     -1.225582     -0.081714
  B      -0.046744      0.077960      1.289846
  B       0.054790     -0.144096     -1.300851
6
Coordinates from ORCA-job B6_octahedral_3d_d3.50_q0_m5_R2SCAN-3C E -148.644905003023
  B       1.149642      0.065324     -0.102043
  B      -1.137927     -0.028613      0.048428
  B       0.046423      1.204607      0.134872
  B      -0.018128     -1.210147     -0.078050
  B      -0.079356      0.092695      1.311173
  B       0.039345     -0.123866     -1.314381
6
Coordinates from ORCA-job B6_octahedral_3d_d3.50_q0_m5_R2SCAN-3C E -148.645078006929
  B       1.163115      0.058464     -0.108951
  B      -1.139629     -0.034631      0.051848
  B       0.051181      1.188209      0.125157
  B      -0.011627     -1.196543     -0.075260
  B      -0.095475      0.096197      1.323407
  B       0.032436     -0.111696     -1.316201
6
Coordinates from ORCA-job B6_octahedral_3d_d3.50_q0_m5_R2SCAN-3C E -148.645307592211
  B       1.179986      0.052647     -0.118552
  B      -1.147045     -0.043207      0.063838
  B       0.053155      1.175769      0.108235
  B      -0.012757     -1.182227     -0.068258
  B      -0.109749      0.092176      1.327117
  B       0.036409     -0.095159     -1.312380
6
Coordinates from ORCA-job B6_octahedral_3d_d3.50_q0_m5_R2SCAN-3C E -148.645343323134
  B       1.182205      0.044521     -0.122542
  B      -1.157164     -0.044965      0.071667
  B       0.053548      1.164242      0.098849
  B      -0.006100     -1.169696     -0.063402
  B      -0.114435      0.090761      1.331110
  B       0.041946     -0.084863     -1.315683
6
Coordinates from ORCA-job B6_octahedral_3d_d3.50_q0_m5_R2SCAN-3C E -148.645406719608
  B       1.175606      0.047805     -0.117943
  B      -1.163951     -0.046342      0.073819
  B       0.048801      1.176084      0.102036
  B      -0.016042     -1.171242     -0.063332
  B      -0.099137      0.085568      1.322527
  B       0.054722     -0.091874     -1.317108
6
Coordinates from ORCA-job B6_octahedral_3d_d3.50_q0_m5_R2SCAN-3C E -148.645431859849
  B       1.175054      0.051265     -0.114928
  B      -1.164079     -0.043155      0.074956
  B       0.045772      1.175183      0.099619
  B      -0.019440     -1.170835     -0.064338
  B      -0.094770      0.082016      1.322212
  B       0.057463     -0.094475     -1.317521
6
Coordinates from ORCA-job B6_octahedral_3d_d3.50_q0_m5_R2SCAN-3C E -148.645453930945
  B       1.173490      0.054559     -0.108478
  B      -1.167376     -0.038840      0.080323
  B       0.038488      1.174202      0.095749
  B      -0.025831     -1.167132     -0.066917
  B      -0.084943      0.076554      1.320634
  B       0.066172     -0.099342     -1.321311
6
Coordinates from ORCA-job B6_octahedral_3d_d3.50_q0_m5_R2SCAN-3C E -148.645456864219
  B       1.171715      0.054674     -0.106430
  B      -1.168825     -0.038102      0.082341
  B       0.036639      1.174843      0.093970
  B      -0.027213     -1.166909     -0.068415
  B      -0.081660      0.075499      1.319521
  B       0.069345     -0.100004     -1.320986
6
Coordinates from ORCA-job B6_octahedral_3d_d3.50_q0_m5_R2SCAN-3C E -148.645460356398
  B       1.171146      0.053752     -0.104696
  B      -1.170134     -0.039313      0.085481
  B       0.035710      1.174366      0.091879
  B      -0.028503     -1.166479     -0.070729
  B      -0.080246      0.076735      1.319769
  B       0.072026     -0.099061     -1.321704
6
Coordinates from ORCA-job B6_octahedral_3d_d3.50_q0_m5_R2SCAN-3C E -148.645465505897
  B       1.170410      0.051437     -0.101181
  B      -1.170848     -0.041355      0.089275
  B       0.033927      1.173870      0.088490
  B      -0.030064     -1.167316     -0.074446
  B      -0.077958      0.079700      1.319644
  B       0.074535     -0.096336     -1.321783
6
Coordinates from ORCA-job B6_octahedral_3d_d3.50_q0_m5_R2SCAN-3C E -148.645471260423
  B       1.169709      0.047396     -0.095272
  B      -1.171216     -0.045388      0.094423
  B       0.031858      1.172070      0.082397
  B      -0.032148     -1.169557     -0.080268
  B      -0.075010      0.085621      1.319800
  B       0.076807     -0.090140     -1.321080
6
Coordinates from ORCA-job B6_octahedral_3d_d3.50_q0_m5_R2SCAN-3C E -148.645472215847
  B       1.169836      0.046478     -0.094078
  B      -1.170606     -0.046314      0.094756
  B       0.031745      1.171487      0.081293
  B      -0.032248     -1.170799     -0.081487
  B      -0.074901      0.087495      1.320108
  B       0.076174     -0.088348     -1.320593
6
Coordinates from ORCA-job B6_octahedral_3d_d3.50_q0_m5_R2SCAN-3C E -148.645472334175
  B       1.170018      0.046095     -0.093731
  B      -1.169977     -0.046712      0.094513
  B       0.031874      1.171212      0.081008
  B      -0.032119     -1.171560     -0.081934
  B      -0.075185      0.088468      1.320374
  B       0.075389     -0.087503     -1.320231
6
Coordinates from ORCA-job B6_octahedral_3d_d3.50_q0_m5_R2SCAN-3C E -148.645472357653
  B       1.170037      0.046356     -0.094089
  B      -1.169962     -0.046458      0.094157
  B       0.032007      1.171342      0.081407
  B      -0.031994     -1.171417     -0.081531
  B      -0.075332      0.088073      1.320327
  B       0.075244     -0.087895     -1.320271
