6
Coordinates from ORCA-job B6_octahedral_3d_d3.50_q0_m5_R2SCAN-3C E -148.645472357653
  B           1.17003660833864      0.04635564468225     -0.09408934857221
  B          -1.16996221951188     -0.04645806658728      0.09415662763055
  B           0.03200678981710      1.17134171619140      0.08140693943861
  B          -0.03199366439516     -1.17141709660662     -0.08153081805165
  B          -0.07533188811622      0.08807289131497      1.32032731925550
  B           0.07524437386753     -0.08789508899473     -1.32027071970079
