6
Coordinates from ORCA-job B6_octahedral_3d_d1.60_q0_m1_R2SCAN-3C E -148.659848864892
  B           1.23878296392405      0.00025305868714     -0.00000154931413
  B          -1.23878369338699      0.00025305877552     -0.00000155079989
  B          -0.00000026984863      1.08387567130504      0.00000094759008
  B          -0.00000026970712     -1.08385064206069      0.00000094354765
  B           0.00000063524989     -0.00026557363837      1.23976064742598
  B           0.00000063376880     -0.00026557306865     -1.23975943844969
