6
Coordinates from ORCA-job B6_octahedral_3d_d1.60_q0_m1_R2SCAN-3C E -148.630121818519
  B       1.131371      0.000000      0.000000
  B      -1.131371      0.000000      0.000000
  B       0.000000      1.131371      0.000000
  B       0.000000     -1.131371      0.000000
  B       0.000000      0.000000      1.131371
  B       0.000000      0.000000     -1.131371
6
Coordinates from ORCA-job B6_octahedral_3d_d1.60_q0_m1_R2SCAN-3C E -148.645407735124
  B       1.160883      0.000115     -0.000000
  B      -1.160883      0.000115      0.000000
  B       0.000000      1.131606      0.000000
  B       0.000000     -1.131510     -0.000000
  B      -0.000000     -0.000163      1.161095
  B      -0.000000     -0.000163     -1.161095
6
Coordinates from ORCA-job B6_octahedral_3d_d1.60_q0_m1_R2SCAN-3C E -148.655829620397
  B       1.197900      0.000419      0.000000
  B      -1.197900      0.000419     -0.000000
  B      -0.000000      1.127169      0.000000
  B      -0.000000     -1.126794      0.000000
  B       0.000000     -0.000606      1.198787
  B       0.000000     -0.000606     -1.198787
6
Coordinates from ORCA-job B6_octahedral_3d_d1.60_q0_m1_R2SCAN-3C E -148.658612162273
  B       1.220999      0.000621      0.000000
  B      -1.220999      0.000621      0.000000
  B      -0.000000      1.117309     -0.000000
  B      -0.000000     -1.116824     -0.000000
  B       0.000000     -0.000863      1.222429
  B       0.000000     -0.000863     -1.222429
6
Coordinates from ORCA-job B6_octahedral_3d_d1.60_q0_m1_R2SCAN-3C E -148.659405663973
  B       1.234171      0.000675      0.000000
  B      -1.234171      0.000675      0.000000
  B      -0.000000      1.105020     -0.000000
  B      -0.000000     -1.104575     -0.000000
  B       0.000000     -0.000897      1.235875
  B       0.000000     -0.000897     -1.235875
6
Coordinates from ORCA-job B6_octahedral_3d_d1.60_q0_m1_R2SCAN-3C E -148.659704827565
  B       1.239789      0.000614     -0.000001
  B      -1.239789      0.000614     -0.000001
  B       0.000000      1.093810      0.000000
  B       0.000000     -1.093492      0.000000
  B      -0.000000     -0.000772      1.241499
  B      -0.000000     -0.000772     -1.241497
6
Coordinates from ORCA-job B6_octahedral_3d_d1.60_q0_m1_R2SCAN-3C E -148.659828676663
  B       1.240815      0.000476     -0.000002
  B      -1.240815      0.000476     -0.000002
  B       0.000000      1.085235      0.000001
  B       0.000000     -1.085086      0.000001
  B      -0.000000     -0.000550      1.242313
  B      -0.000000     -0.000550     -1.242311
6
Coordinates from ORCA-job B6_octahedral_3d_d1.60_q0_m1_R2SCAN-3C E -148.659847306734
  B       1.239490      0.000367     -0.000002
  B      -1.239490      0.000367     -0.000002
  B       0.000000      1.083472      0.000001
  B       0.000000     -1.083406      0.000001
  B      -0.000000     -0.000400      1.240751
  B      -0.000000     -0.000400     -1.240749
6
Coordinates from ORCA-job B6_octahedral_3d_d1.60_q0_m1_R2SCAN-3C E -148.659848780698
  B       1.238823      0.000300     -0.000002
  B      -1.238824      0.000300     -0.000002
  B      -0.000000      1.083742      0.000001
  B      -0.000000     -1.083706      0.000001
  B       0.000001     -0.000318      1.239921
  B       0.000001     -0.000318     -1.239920
6
Coordinates from ORCA-job B6_octahedral_3d_d1.60_q0_m1_R2SCAN-3C E -148.659848864892
  B       1.238783      0.000253     -0.000002
  B      -1.238784      0.000253     -0.000002
  B      -0.000000      1.083876      0.000001
  B      -0.000000     -1.083851      0.000001
  B       0.000001     -0.000266      1.239761
  B       0.000001     -0.000266     -1.239759
