6
Coordinates from ORCA-job B6_octahedral_3d_d2.20_q0_m5_R2SCAN-3C E -148.363708022480
  B       1.555635      0.000000      0.000000
  B      -1.555635      0.000000      0.000000
  B       0.000000      1.555635      0.000000
  B       0.000000     -1.555635      0.000000
  B       0.000000      0.000000      1.555635
  B       0.000000      0.000000     -1.555635
6
Coordinates from ORCA-job B6_octahedral_3d_d2.20_q0_m5_R2SCAN-3C E -148.389935811733
  B       1.527156      0.000049     -0.000013
  B      -1.527319      0.000044     -0.000029
  B      -0.000059      1.521407     -0.000011
  B      -0.000065     -1.521412      0.000009
  B       0.000152     -0.000054      1.521359
  B       0.000136     -0.000034     -1.521315
6
Coordinates from ORCA-job B6_octahedral_3d_d2.20_q0_m5_R2SCAN-3C E -148.415276511871
  B       1.498828      0.000111     -0.000027
  B      -1.499178      0.000102     -0.000071
  B      -0.000127      1.487117     -0.000024
  B      -0.000137     -1.487130      0.000019
  B       0.000330     -0.000121      1.487018
  B       0.000286     -0.000079     -1.486915
6
Coordinates from ORCA-job B6_octahedral_3d_d2.20_q0_m5_R2SCAN-3C E -148.463470948744
  B       1.457176      0.000228     -0.000039
  B      -1.457906      0.000214     -0.000170
  B      -0.000226      1.435320     -0.000047
  B      -0.000240     -1.435355      0.000036
  B       0.000664     -0.000245      1.435154
  B       0.000532     -0.000162     -1.434933
6
Coordinates from ORCA-job B6_octahedral_3d_d2.20_q0_m5_R2SCAN-3C E -148.533622450320
  B       1.401510      0.000797      0.009144
  B      -1.402917      0.001459     -0.010965
  B      -0.000941      1.372170      0.000325
  B      -0.000268     -1.373913      0.000398
  B       0.011518     -0.000292      1.341394
  B      -0.008902     -0.000221     -1.340296
6
Coordinates from ORCA-job B6_octahedral_3d_d2.20_q0_m5_R2SCAN-3C E -148.590801712250
  B       1.354386      0.003070      0.013323
  B      -1.356864      0.004926     -0.016758
  B      -0.002077      1.302501      0.000563
  B      -0.000202     -1.315078      0.000726
  B       0.017409      0.002214      1.244438
  B      -0.012653      0.002367     -1.242293
6
Coordinates from ORCA-job B6_octahedral_3d_d2.20_q0_m5_R2SCAN-3C E -148.625834459381
  B       1.309876      0.006925      0.018923
  B      -1.313138      0.013260     -0.023993
  B      -0.004864      1.212529      0.001718
  B       0.001553     -1.252539      0.000538
  B       0.024716      0.010571      1.151125
  B      -0.018142      0.009254     -1.148311
6
Coordinates from ORCA-job B6_octahedral_3d_d2.20_q0_m5_R2SCAN-3C E -148.634593893775
  B       1.294734     -0.018582      0.045697
  B      -1.294725      0.035638     -0.052663
  B      -0.030799      1.144182      0.014905
  B       0.025928     -1.162630     -0.010350
  B       0.055157      0.014618      1.117555
  B      -0.050296     -0.013226     -1.115145
6
Coordinates from ORCA-job B6_octahedral_3d_d2.20_q0_m5_R2SCAN-3C E -148.641653513660
  B       1.304214     -0.044362      0.055969
  B      -1.305060      0.060461     -0.063609
  B      -0.057802      1.152754      0.034632
  B       0.053882     -1.164357     -0.029933
  B       0.067487      0.032956      1.132633
  B      -0.062721     -0.037453     -1.129692
6
Coordinates from ORCA-job B6_octahedral_3d_d2.20_q0_m5_R2SCAN-3C E -148.645169740682
  B       1.319000     -0.073297      0.066809
  B      -1.322606      0.086312     -0.075270
  B      -0.087889      1.179839      0.031622
  B       0.087458     -1.186833     -0.027883
  B       0.082156      0.030829      1.166241
  B      -0.078118     -0.036850     -1.161521
6
Coordinates from ORCA-job B6_octahedral_3d_d2.20_q0_m5_R2SCAN-3C E -148.645361584542
  B       1.315723     -0.084434      0.072851
  B      -1.320163      0.095473     -0.082229
  B      -0.097627      1.174172      0.040243
  B       0.098978     -1.178797     -0.035602
  B       0.088776      0.039231      1.164621
  B      -0.085687     -0.045646     -1.159885
6
Coordinates from ORCA-job B6_octahedral_3d_d2.20_q0_m5_R2SCAN-3C E -148.645449091812
  B       1.317905     -0.079104      0.071637
  B      -1.321759      0.089525     -0.080823
  B      -0.091300      1.176546      0.040108
  B       0.092761     -1.181416     -0.035254
  B       0.086693      0.039091      1.165208
  B      -0.084300     -0.044642     -1.160876
6
Coordinates from ORCA-job B6_octahedral_3d_d2.20_q0_m5_R2SCAN-3C E -148.645453301762
  B       1.318143     -0.079513      0.071791
  B      -1.321659      0.089161     -0.080708
  B      -0.091176      1.175935      0.039726
  B       0.092851     -1.180373     -0.034893
  B       0.086514      0.038935      1.165777
  B      -0.084674     -0.044144     -1.161693
6
Coordinates from ORCA-job B6_octahedral_3d_d2.20_q0_m5_R2SCAN-3C E -148.645464129693
  B       1.319245     -0.080443      0.073603
  B      -1.321453      0.086647     -0.080859
  B      -0.089665      1.173424      0.038993
  B       0.092152     -1.176017     -0.034480
  B       0.086755      0.039237      1.167902
  B      -0.087034     -0.042847     -1.165159
6
Coordinates from ORCA-job B6_octahedral_3d_d2.20_q0_m5_R2SCAN-3C E -148.645469776318
  B       1.320062     -0.080539      0.075873
  B      -1.321321      0.084190     -0.081064
  B      -0.088094      1.171533      0.038550
  B       0.090723     -1.172709     -0.034949
  B       0.087711      0.039811      1.169612
  B      -0.089082     -0.042286     -1.168022
6
Coordinates from ORCA-job B6_octahedral_3d_d2.20_q0_m5_R2SCAN-3C E -148.645472490936
  B       1.320344     -0.080126      0.077769
  B      -1.321101      0.082713     -0.080995
  B      -0.087239      1.170490      0.038220
  B       0.089285     -1.171164     -0.035849
  B       0.088829      0.040340      1.170632
  B      -0.090118     -0.042253     -1.169777
6
Coordinates from ORCA-job B6_octahedral_3d_d2.20_q0_m5_R2SCAN-3C E -148.645473155344
  B       1.320279     -0.079794      0.078947
  B      -1.320882      0.082074     -0.080658
  B      -0.087014      1.169982      0.037833
  B       0.088369     -1.170641     -0.036575
  B       0.089604      0.040635      1.171138
  B      -0.090356     -0.042256     -1.170684
6
Coordinates from ORCA-job B6_octahedral_3d_d2.20_q0_m5_R2SCAN-3C E -148.645473273644
  B       1.320148     -0.079772      0.078886
  B      -1.320819      0.082313     -0.080472
  B      -0.087284      1.170172      0.037714
  B       0.088390     -1.171053     -0.036715
  B       0.089617      0.040626      1.170980
  B      -0.090052     -0.042285     -1.170394
