6
Coordinates from ORCA-job B6_octahedral_3d_d2.20_q0_m5_R2SCAN-3C E -148.645473273644
  B           1.32014767035763     -0.07977193719649      0.07888620101896
  B          -1.32081883770800      0.08231311049748     -0.08047218033738
  B          -0.08728442113427      1.17017150916413      0.03771441765538
  B           0.08839024241443     -1.17105341773473     -0.03671506777119
  B           0.08961685888948      0.04062550153142      1.17098014603156
  B          -0.09005151281928     -0.04228476626181     -1.17039351659733
