6
Coordinates from ORCA-job B6_random_3d_seed1000_d1.80_q0_m1_R2SCAN-3C E -148.563290427592
  B       0.550456     -0.570631      1.130656
  B       1.436247     -0.160948     -0.406415
  B      -0.030358     -1.312426     -0.494453
  B      -0.612974      0.643261      0.959974
  B      -0.087418      1.365199     -0.607956
  B      -1.255952      0.035546     -0.581807
6
Coordinates from ORCA-job B6_random_3d_seed1000_d1.80_q0_m1_R2SCAN-3C E -148.588988665872
  B       0.565882     -0.545204      1.115431
  B       1.390585     -0.185424     -0.378164
  B      -0.029184     -1.274983     -0.510966
  B      -0.589603      0.652299      0.951003
  B      -0.109653      1.323211     -0.580076
  B      -1.228027      0.030101     -0.597228
6
Coordinates from ORCA-job B6_random_3d_seed1000_d1.80_q0_m1_R2SCAN-3C E -148.610366087063
  B       0.583506     -0.521095      1.102025
  B       1.369926     -0.239994     -0.348229
  B      -0.022766     -1.240685     -0.528721
  B      -0.568375      0.666781      0.942950
  B      -0.160194      1.308077     -0.552984
  B      -1.202097      0.026915     -0.615041
6
Coordinates from ORCA-job B6_random_3d_seed1000_d1.80_q0_m1_R2SCAN-3C E -148.627909316391
  B       0.598187     -0.496434      1.091326
  B       1.365416     -0.314700     -0.322538
  B      -0.013117     -1.209342     -0.545481
  B      -0.548579      0.683057      0.936913
  B      -0.227401      1.316068     -0.525989
  B      -1.174506      0.021352     -0.634231
6
Coordinates from ORCA-job B6_random_3d_seed1000_d1.80_q0_m1_R2SCAN-3C E -148.647963387333
  B       0.615365     -0.459230      1.077832
  B       1.372726     -0.439016     -0.287411
  B       0.000936     -1.165763     -0.569423
  B      -0.517865      0.706293      0.930350
  B      -0.340682      1.347382     -0.488214
  B      -1.130479      0.010335     -0.663134
6
Coordinates from ORCA-job B6_random_3d_seed1000_d1.80_q0_m1_R2SCAN-3C E -148.665352515208
  B       0.638135     -0.411973      1.060812
  B       1.400544     -0.607255     -0.233554
  B       0.014276     -1.112041     -0.604045
  B      -0.472747      0.733489      0.924206
  B      -0.502471      1.394724     -0.446720
  B      -1.077738      0.003057     -0.700700
6
Coordinates from ORCA-job B6_random_3d_seed1000_d1.80_q0_m1_R2SCAN-3C E -148.680096580708
  B       0.659699     -0.382320      1.051130
  B       1.451506     -0.744958     -0.188652
  B       0.031009     -1.089503     -0.630229
  B      -0.443182      0.753355      0.920902
  B      -0.637002      1.445857     -0.423760
  B      -1.062030      0.017569     -0.729391
6
Coordinates from ORCA-job B6_random_3d_seed1000_d1.80_q0_m1_R2SCAN-3C E -148.697737175719
  B       0.688703     -0.352563      1.035100
  B       1.529276     -0.935248     -0.134405
  B       0.069985     -1.074828     -0.652937
  B      -0.414240      0.781945      0.907225
  B      -0.820994      1.534764     -0.391711
  B      -1.052730      0.045930     -0.763272
6
Coordinates from ORCA-job B6_random_3d_seed1000_d1.80_q0_m1_R2SCAN-3C E -148.705821271861
  B       0.717683     -0.327759      1.002086
  B       1.560797     -1.092875     -0.074543
  B       0.104386     -1.039054     -0.665493
  B      -0.379726      0.805224      0.876981
  B      -0.983539      1.582825     -0.351451
  B      -1.019601      0.071638     -0.787580
6
Coordinates from ORCA-job B6_random_3d_seed1000_d1.80_q0_m1_R2SCAN-3C E -148.709518494333
  B       0.741380     -0.310468      0.967097
  B       1.563819     -1.211288     -0.025375
  B       0.142661     -1.005183     -0.667466
  B      -0.352211      0.824842      0.838213
  B      -1.108616      1.598538     -0.311955
  B      -0.987033      0.103559     -0.800514
6
Coordinates from ORCA-job B6_random_3d_seed1000_d1.80_q0_m1_R2SCAN-3C E -148.710825231205
  B       0.758169     -0.299222      0.942443
  B       1.551631     -1.281188      0.010237
  B       0.166123     -0.974414     -0.669147
  B      -0.330631      0.836886      0.804686
  B      -1.185031      1.591547     -0.281823
  B      -0.960262      0.126391     -0.806396
6
Coordinates from ORCA-job B6_random_3d_seed1000_d1.80_q0_m1_R2SCAN-3C E -148.711150553699
  B       0.767912     -0.294634      0.935679
  B       1.539460     -1.310910      0.028045
  B       0.179102     -0.958424     -0.673357
  B      -0.316758      0.843374      0.785660
  B      -1.219973      1.582486     -0.266319
  B      -0.949743      0.138109     -0.809708
6
Coordinates from ORCA-job B6_random_3d_seed1000_d1.80_q0_m1_R2SCAN-3C E -148.711355165615
  B       0.776169     -0.292851      0.937716
  B       1.527831     -1.329543      0.041570
  B       0.188709     -0.944573     -0.680875
  B      -0.302486      0.848739      0.769995
  B      -1.244001      1.573641     -0.254944
  B      -0.946221      0.144587     -0.813462
6
Coordinates from ORCA-job B6_random_3d_seed1000_d1.80_q0_m1_R2SCAN-3C E -148.711625573620
  B       0.786714     -0.294042      0.948812
  B       1.512218     -1.350675      0.058657
  B       0.202773     -0.922609     -0.693296
  B      -0.279210      0.855236      0.746054
  B      -1.272931      1.562382     -0.240859
  B      -0.949565      0.149708     -0.819368
6
Coordinates from ORCA-job B6_random_3d_seed1000_d1.80_q0_m1_R2SCAN-3C E -148.712042145479
  B       0.798076     -0.301233      0.972826
  B       1.492400     -1.373275      0.079098
  B       0.223000     -0.884395     -0.707988
  B      -0.243115      0.859400      0.706709
  B      -1.305021      1.548679     -0.223741
  B      -0.965339      0.150823     -0.826904
6
Coordinates from ORCA-job B6_random_3d_seed1000_d1.80_q0_m1_R2SCAN-3C E -148.712678661963
  B       0.802317     -0.316380      1.004888
  B       1.479250     -1.381207      0.091505
  B       0.239891     -0.840587     -0.716015
  B      -0.207000      0.854376      0.664654
  B      -1.320124      1.540155     -0.214580
  B      -0.994334      0.143643     -0.830451
6
Coordinates from ORCA-job B6_random_3d_seed1000_d1.80_q0_m1_R2SCAN-3C E -148.713653570002
  B       0.792903     -0.344893      1.044870
  B       1.483576     -1.362506      0.089467
  B       0.245769     -0.798379     -0.715994
  B      -0.174873      0.837838      0.630934
  B      -1.307038      1.543363     -0.224417
  B      -1.040337      0.124578     -0.824859
6
Coordinates from ORCA-job B6_random_3d_seed1000_d1.80_q0_m1_R2SCAN-3C E -148.714703310114
  B       0.770255     -0.387444      1.082782
  B       1.505642     -1.322818      0.075875
  B       0.241449     -0.754134     -0.699617
  B      -0.147434      0.808473      0.601213
  B      -1.272501      1.555647     -0.252558
  B      -1.097412      0.100276     -0.807695
6
Coordinates from ORCA-job B6_random_3d_seed1000_d1.80_q0_m1_R2SCAN-3C E -148.715722434387
  B       0.766977     -0.406052      1.098645
  B       1.509065     -1.318434      0.074929
  B       0.245564     -0.708742     -0.673585
  B      -0.129930      0.782036      0.560896
  B      -1.268009      1.556627     -0.256625
  B      -1.123668      0.094566     -0.804259
6
Coordinates from ORCA-job B6_random_3d_seed1000_d1.80_q0_m1_R2SCAN-3C E -148.716566971931
  B       0.745482     -0.431537      1.058830
  B       1.553107     -1.311285      0.053842
  B       0.236907     -0.688820     -0.580707
  B      -0.151278      0.751313      0.537841
  B      -1.251799      1.576579     -0.277069
  B      -1.132419      0.103750     -0.792737
6
Coordinates from ORCA-job B6_random_3d_seed1000_d1.80_q0_m1_R2SCAN-3C E -148.717621165847
  B       0.766044     -0.411493      1.067769
  B       1.522007     -1.327287      0.069578
  B       0.243299     -0.695964     -0.617528
  B      -0.148251      0.769295      0.540234
  B      -1.268639      1.555084     -0.255878
  B      -1.114460      0.110365     -0.804174
6
Coordinates from ORCA-job B6_random_3d_seed1000_d1.80_q0_m1_R2SCAN-3C E -148.717698558510
  B       0.761685     -0.417754      1.066713
  B       1.524942     -1.316306      0.066247
  B       0.239421     -0.698708     -0.616421
  B      -0.150096      0.770325      0.545395
  B      -1.258439      1.553427     -0.262805
  B      -1.117513      0.109016     -0.799129
6
Coordinates from ORCA-job B6_random_3d_seed1000_d1.80_q0_m1_R2SCAN-3C E -148.717680775588
  B       0.764366     -0.420652      1.069648
  B       1.520014     -1.316709      0.067396
  B       0.241444     -0.687125     -0.610231
  B      -0.146960      0.765234      0.533274
  B      -1.259193      1.548582     -0.260648
  B      -1.119671      0.110671     -0.799438
6
Coordinates from ORCA-job B6_random_3d_seed1000_d1.80_q0_m1_R2SCAN-3C E -148.717712335870
  B       0.761845     -0.419629      1.065694
  B       1.524186     -1.315433      0.065097
  B       0.239632     -0.696856     -0.612510
  B      -0.151382      0.770116      0.543317
  B      -1.257498      1.551653     -0.263732
  B      -1.116782      0.110148     -0.797867
6
Coordinates from ORCA-job B6_random_3d_seed1000_d1.80_q0_m1_R2SCAN-3C E -148.717713462159
  B       0.761600     -0.420211      1.067060
  B       1.524335     -1.314857      0.065134
  B       0.239621     -0.695869     -0.613189
  B      -0.150327      0.769357      0.542713
  B      -1.257261      1.552150     -0.264099
  B      -1.117967      0.109429     -0.797619
6
Coordinates from ORCA-job B6_random_3d_seed1000_d1.80_q0_m1_R2SCAN-3C E -148.717713879887
  B       0.761740     -0.420143      1.066846
  B       1.524143     -1.315154      0.065139
  B       0.239771     -0.695767     -0.612964
  B      -0.150524      0.769464      0.542537
  B      -1.257498      1.551988     -0.264006
  B      -1.117631      0.109612     -0.797553
6
Coordinates from ORCA-job B6_random_3d_seed1000_d1.80_q0_m1_R2SCAN-3C E -148.717714344691
  B       0.761938     -0.419986      1.066645
  B       1.523844     -1.315750      0.065240
  B       0.240122     -0.695555     -0.612931
  B      -0.150711      0.769623      0.542269
  B      -1.258009      1.551884     -0.263855
  B      -1.117184      0.109784     -0.797369
6
Coordinates from ORCA-job B6_random_3d_seed1000_d1.80_q0_m1_R2SCAN-3C E -148.717715149924
  B       0.761790     -0.420120      1.066495
  B       1.523656     -1.315946      0.065187
  B       0.240530     -0.695285     -0.613079
  B      -0.150899      0.769775      0.542181
  B      -1.258118      1.551917     -0.264108
  B      -1.116958      0.109660     -0.796676
6
Coordinates from ORCA-job B6_random_3d_seed1000_d1.80_q0_m1_R2SCAN-3C E -148.717717018204
  B       0.761446     -0.420116      1.066145
  B       1.523204     -1.316591      0.065382
  B       0.241571     -0.694686     -0.613899
  B      -0.151123      0.770091      0.542089
  B      -1.258423      1.552073     -0.264413
  B      -1.116675      0.109230     -0.795304
6
Coordinates from ORCA-job B6_random_3d_seed1000_d1.80_q0_m1_R2SCAN-3C E -148.717719483122
  B       0.760767     -0.419943      1.065597
  B       1.522084     -1.318134      0.066001
  B       0.243897     -0.692997     -0.615782
  B      -0.151132      0.770608      0.541760
  B      -1.259167      1.552342     -0.264807
  B      -1.116448      0.108125     -0.792769
6
Coordinates from ORCA-job B6_random_3d_seed1000_d1.80_q0_m1_R2SCAN-3C E -148.717720771345
  B       0.760518     -0.419767      1.065345
  B       1.521770     -1.318659      0.066327
  B       0.244597     -0.692394     -0.616499
  B      -0.150961      0.770862      0.541926
  B      -1.259250      1.552326     -0.264834
  B      -1.116674      0.107632     -0.792266
6
Coordinates from ORCA-job B6_random_3d_seed1000_d1.80_q0_m1_R2SCAN-3C E -148.717723191812
  B       0.760146     -0.419102      1.064575
  B       1.520785     -1.320505      0.067341
  B       0.246433     -0.690357     -0.618133
  B      -0.150319      0.771750      0.542441
  B      -1.259584      1.551874     -0.264595
  B      -1.117461      0.106340     -0.791629
6
Coordinates from ORCA-job B6_random_3d_seed1000_d1.80_q0_m1_R2SCAN-3C E -148.717724281034
  B       0.760360     -0.419108      1.064560
  B       1.520870     -1.320494      0.067135
  B       0.246060     -0.690292     -0.617573
  B      -0.150255      0.771924      0.542829
  B      -1.259441      1.551615     -0.264600
  B      -1.117595      0.106355     -0.792350
6
Coordinates from ORCA-job B6_random_3d_seed1000_d1.80_q0_m1_R2SCAN-3C E -148.717725655439
  B       0.761134     -0.419014      1.064457
  B       1.520638     -1.321237      0.066678
  B       0.245718     -0.689677     -0.616417
  B      -0.150328      0.772656      0.543643
  B      -1.259638      1.550887     -0.264663
  B      -1.117524      0.106385     -0.793698
6
Coordinates from ORCA-job B6_random_3d_seed1000_d1.80_q0_m1_R2SCAN-3C E -148.717725863418
  B       0.761246     -0.419072      1.064433
  B       1.520460     -1.321555      0.066671
  B       0.245977     -0.689200     -0.616366
  B      -0.150431      0.772675      0.543508
  B      -1.259769      1.550825     -0.264798
  B      -1.117482      0.106326     -0.793448
6
Coordinates from ORCA-job B6_random_3d_seed1000_d1.80_q0_m1_R2SCAN-3C E -148.717726026849
  B       0.761458     -0.419075      1.064388
  B       1.520195     -1.321961      0.066640
  B       0.246323     -0.688654     -0.616352
  B      -0.150670      0.772642      0.543456
  B      -1.259905      1.550814     -0.265027
  B      -1.117401      0.106235     -0.793105
6
Coordinates from ORCA-job B6_random_3d_seed1000_d1.80_q0_m1_R2SCAN-3C E -148.717726139274
  B       0.761599     -0.419048      1.064408
  B       1.520241     -1.321901      0.066569
  B       0.246238     -0.688745     -0.616328
  B      -0.150893      0.772535      0.543619
  B      -1.259771      1.550880     -0.265168
  B      -1.117415      0.106279     -0.793099
6
Coordinates from ORCA-job B6_random_3d_seed1000_d1.80_q0_m1_R2SCAN-3C E -148.717726257414
  B       0.761708     -0.419054      1.064453
  B       1.520328     -1.321735      0.066453
  B       0.246076     -0.688873     -0.616239
  B      -0.151085      0.772394      0.543798
  B      -1.259572      1.550951     -0.265328
  B      -1.117455      0.106316     -0.793137
6
Coordinates from ORCA-job B6_random_3d_seed1000_d1.80_q0_m1_R2SCAN-3C E -148.717726682989
  B       0.762344     -0.418897      1.064692
  B       1.520445     -1.321299      0.066228
  B       0.245612     -0.689045     -0.615950
  B      -0.151663      0.771595      0.544270
  B      -1.258940      1.551239     -0.265716
  B      -1.117797      0.106407     -0.793524
6
Coordinates from ORCA-job B6_random_3d_seed1000_d1.80_q0_m1_R2SCAN-3C E -148.717726876121
  B       0.763069     -0.418735      1.064966
  B       1.520646     -1.320731      0.065880
  B       0.245002     -0.689330     -0.615580
  B      -0.152435      0.770693      0.544929
  B      -1.258113      1.551553     -0.266270
  B      -1.118169      0.106549     -0.793924
6
Coordinates from ORCA-job B6_random_3d_seed1000_d1.80_q0_m1_R2SCAN-3C E -148.717726881025
  B       0.763142     -0.418751      1.064999
  B       1.520727     -1.320575      0.065787
  B       0.244855     -0.689448     -0.615496
  B      -0.152573      0.770583      0.545065
  B      -1.257949      1.551605     -0.266391
  B      -1.118202      0.106586     -0.793965
