6
Coordinates from ORCA-job B6_random_3d_seed1000_d1.80_q0_m1_R2SCAN-3C E -148.717726881025
  B           0.76314237437101     -0.41875095603850      1.06499943995748
  B           1.52072739277179     -1.32057506938830      0.06578709229919
  B           0.24485454345318     -0.68944756404124     -0.61549586166739
  B          -0.15257316858494      0.77058310208519      0.54506503662118
  B          -1.25794870770463      1.55160493572110     -0.26639077294444
  B          -1.11820244430641      0.10658554166175     -0.79396493426602
