6
Coordinates from ORCA-job B6_random_3d_seed1004_d2.50_q0_m3_R2SCAN-3C E -148.700570322165
  B          -0.65910927887067     -0.50784414221879      0.80662513711816
  B           1.08887697921096      0.68395172266762      0.38694936422008
  B           0.90578043589678     -0.86923017434816      0.53189471098588
  B          -1.22913058426830      0.14877285117443     -0.57151670262986
  B          -0.19972142862496      1.29779111263659     -0.27822544571919
  B           0.09330387665619     -0.75344136991168     -0.87572705397507
