6
Coordinates from ORCA-job B6_random_3d_seed1004_d2.50_q0_m3_R2SCAN-3C E -148.213964251051
  B      -0.760292     -0.678931      1.533447
  B       1.160800      1.056603      1.167404
  B       1.287683     -1.345482      0.518287
  B      -1.744097      0.127543     -0.575604
  B       0.018389      1.697245     -1.031003
  B       0.037519     -0.856978     -1.612531
6
Coordinates from ORCA-job B6_random_3d_seed1004_d2.50_q0_m3_R2SCAN-3C E -148.242428861130
  B      -0.749534     -0.671298      1.496803
  B       1.142057      1.040126      1.140668
  B       1.256997     -1.314986      0.507503
  B      -1.698323      0.123742     -0.562903
  B       0.016341      1.667075     -1.006880
  B       0.032462     -0.844658     -1.575191
6
Coordinates from ORCA-job B6_random_3d_seed1004_d2.50_q0_m3_R2SCAN-3C E -148.272157390716
  B      -0.739087     -0.663643      1.459563
  B       1.123517      1.023905      1.113454
  B       1.226609     -1.284672      0.496781
  B      -1.652945      0.119945     -0.550122
  B       0.014387      1.636896     -0.982224
  B       0.027520     -0.832429     -1.537452
6
Coordinates from ORCA-job B6_random_3d_seed1004_d2.50_q0_m3_R2SCAN-3C E -148.318875926091
  B      -0.723816     -0.651522      1.402704
  B       1.095472      0.999361      1.071352
  B       1.181849     -1.239356      0.480509
  B      -1.586987      0.114632     -0.530326
  B       0.011997      1.590960     -0.944061
  B       0.021485     -0.814074     -1.480178
6
Coordinates from ORCA-job B6_random_3d_seed1004_d2.50_q0_m3_R2SCAN-3C E -148.393617392337
  B      -0.702244     -0.631850      1.315128
  B       1.053250      0.962353      1.005149
  B       1.117404     -1.172381      0.456207
  B      -1.491819      0.107603     -0.500137
  B       0.008899      1.521000     -0.883629
  B       0.014510     -0.786726     -1.392718
6
Coordinates from ORCA-job B6_random_3d_seed1004_d2.50_q0_m3_R2SCAN-3C E -148.476770053085
  B      -0.678867     -0.612611      1.216751
  B       1.013644      0.925499      0.931465
  B       1.051391     -1.104472      0.434657
  B      -1.399902      0.100450     -0.471412
  B       0.005421      1.452772     -0.815042
  B       0.008312     -0.761638     -1.296418
6
Coordinates from ORCA-job B6_random_3d_seed1004_d2.50_q0_m3_R2SCAN-3C E -148.559053445208
  B      -0.657412     -0.592107      1.112866
  B       0.976526      0.889823      0.849801
  B       0.987340     -1.038389      0.412970
  B      -1.316877      0.093865     -0.443835
  B       0.002856      1.390220     -0.736941
  B       0.007568     -0.743413     -1.194861
6
Coordinates from ORCA-job B6_random_3d_seed1004_d2.50_q0_m3_R2SCAN-3C E -148.628208401342
  B      -0.643317     -0.572595      1.004294
  B       0.948310      0.849111      0.759710
  B       0.932231     -0.970228      0.392579
  B      -1.253732      0.098412     -0.417847
  B      -0.004910      1.333070     -0.650509
  B       0.021418     -0.737769     -1.088228
6
Coordinates from ORCA-job B6_random_3d_seed1004_d2.50_q0_m3_R2SCAN-3C E -148.672195794063
  B      -0.637564     -0.554283      0.918127
  B       0.921293      0.783921      0.664822
  B       0.906322     -0.894574      0.377235
  B      -1.217179      0.134487     -0.406981
  B      -0.025504      1.268100     -0.564658
  B       0.052632     -0.737652     -0.988545
6
Coordinates from ORCA-job B6_random_3d_seed1004_d2.50_q0_m3_R2SCAN-3C E -148.684031197213
  B      -0.611154     -0.551624      0.857444
  B       0.942062      0.691706      0.617637
  B       0.930647     -0.833626      0.425924
  B      -1.209858      0.191670     -0.449161
  B      -0.094391      1.225072     -0.525664
  B       0.042693     -0.723198     -0.926180
6
Coordinates from ORCA-job B6_random_3d_seed1004_d2.50_q0_m3_R2SCAN-3C E -148.689666078640
  B      -0.640484     -0.552647      0.802785
  B       0.944765      0.718582      0.546908
  B       0.941891     -0.844701      0.425058
  B      -1.244410      0.179956     -0.450309
  B      -0.063287      1.247991     -0.454477
  B       0.061525     -0.749181     -0.869965
6
Coordinates from ORCA-job B6_random_3d_seed1004_d2.50_q0_m3_R2SCAN-3C E -148.694178381125
  B      -0.633798     -0.549460      0.796473
  B       0.995872      0.718565      0.554085
  B       0.943863     -0.877388      0.448653
  B      -1.254012      0.175257     -0.473178
  B      -0.111558      1.282412     -0.459727
  B       0.059634     -0.749387     -0.866306
6
Coordinates from ORCA-job B6_random_3d_seed1004_d2.50_q0_m3_R2SCAN-3C E -148.695877130610
  B      -0.635196     -0.545902      0.816416
  B       0.998937      0.705099      0.531420
  B       0.951188     -0.872660      0.470208
  B      -1.255342      0.181265     -0.493627
  B      -0.121289      1.276174     -0.438178
  B       0.061701     -0.743976     -0.886239
6
Coordinates from ORCA-job B6_random_3d_seed1004_d2.50_q0_m3_R2SCAN-3C E -148.697836961294
  B      -0.646477     -0.531783      0.809903
  B       1.019553      0.686654      0.491364
  B       0.940836     -0.867593      0.479443
  B      -1.250351      0.175980     -0.507839
  B      -0.146079      1.280705     -0.399373
  B       0.082517     -0.743963     -0.873497
6
Coordinates from ORCA-job B6_random_3d_seed1004_d2.50_q0_m3_R2SCAN-3C E -148.699717878439
  B      -0.642708     -0.521551      0.805705
  B       1.044725      0.691630      0.432886
  B       0.916665     -0.883822      0.511018
  B      -1.233511      0.164008     -0.536634
  B      -0.175172      1.293144     -0.340834
  B       0.090000     -0.743410     -0.872142
6
Coordinates from ORCA-job B6_random_3d_seed1004_d2.50_q0_m3_R2SCAN-3C E -148.699485014415
  B      -0.653786     -0.504703      0.810447
  B       1.083227      0.664366      0.383696
  B       0.899520     -0.865216      0.538678
  B      -1.235735      0.122434     -0.569316
  B      -0.188974      1.319380     -0.281178
  B       0.095748     -0.736261     -0.882327
6
Coordinates from ORCA-job B6_random_3d_seed1004_d2.50_q0_m3_R2SCAN-3C E -148.700386007841
  B      -0.667260     -0.500034      0.810709
  B       1.080581      0.672708      0.375741
  B       0.909998     -0.880590      0.535964
  B      -1.225560      0.145261     -0.563442
  B      -0.205804      1.305416     -0.280665
  B       0.108045     -0.742761     -0.878307
6
Coordinates from ORCA-job B6_random_3d_seed1004_d2.50_q0_m3_R2SCAN-3C E -148.700287013512
  B      -0.645063     -0.521101      0.812591
  B       1.071296      0.680412      0.387819
  B       0.901968     -0.878281      0.530766
  B      -1.228718      0.160327     -0.568635
  B      -0.198910      1.308337     -0.295226
  B       0.099428     -0.749694     -0.867315
6
Coordinates from ORCA-job B6_random_3d_seed1004_d2.50_q0_m3_R2SCAN-3C E -148.700544449850
  B      -0.654853     -0.512580      0.804844
  B       1.076585      0.677919      0.385756
  B       0.909234     -0.874232      0.535904
  B      -1.225928      0.151052     -0.565362
  B      -0.198971      1.308322     -0.287222
  B       0.093933     -0.750482     -0.873920
6
Coordinates from ORCA-job B6_random_3d_seed1004_d2.50_q0_m3_R2SCAN-3C E -148.700553216084
  B      -0.658903     -0.509201      0.810365
  B       1.079681      0.676168      0.379252
  B       0.906563     -0.875423      0.534870
  B      -1.225346      0.149495     -0.568763
  B      -0.202744      1.309303     -0.281006
  B       0.100749     -0.750342     -0.874718
6
Coordinates from ORCA-job B6_random_3d_seed1004_d2.50_q0_m3_R2SCAN-3C E -148.700563137855
  B      -0.656936     -0.510911      0.808012
  B       1.078859      0.677716      0.382005
  B       0.907167     -0.874425      0.534857
  B      -1.224969      0.150790     -0.567997
  B      -0.201573      1.309060     -0.282625
  B       0.097452     -0.752229     -0.874253
6
Coordinates from ORCA-job B6_random_3d_seed1004_d2.50_q0_m3_R2SCAN-3C E -148.700564440827
  B      -0.656959     -0.511082      0.807715
  B       1.079283      0.678476      0.382724
  B       0.907308     -0.873855      0.534354
  B      -1.224718      0.150842     -0.568369
  B      -0.201342      1.308989     -0.282255
  B       0.096428     -0.753369     -0.874169
6
Coordinates from ORCA-job B6_random_3d_seed1004_d2.50_q0_m3_R2SCAN-3C E -148.700566049412
  B      -0.657255     -0.510465      0.807617
  B       1.080559      0.679661      0.383498
  B       0.907188     -0.872910      0.533450
  B      -1.224418      0.150630     -0.569393
  B      -0.201392      1.308344     -0.280730
  B       0.095317     -0.755260     -0.874442
6
Coordinates from ORCA-job B6_random_3d_seed1004_d2.50_q0_m3_R2SCAN-3C E -148.700566986614
  B      -0.657501     -0.509647      0.807633
  B       1.081792      0.680552      0.384350
  B       0.907123     -0.872259      0.532678
  B      -1.224706      0.150310     -0.570214
  B      -0.201330      1.307097     -0.279760
  B       0.094622     -0.756053     -0.874687
6
Coordinates from ORCA-job B6_random_3d_seed1004_d2.50_q0_m3_R2SCAN-3C E -148.700568175732
  B      -0.657713     -0.508458      0.807543
  B       1.083441      0.681447      0.385367
  B       0.906947     -0.871568      0.532000
  B      -1.225593      0.149800     -0.571003
  B      -0.201159      1.304860     -0.278882
  B       0.094077     -0.756081     -0.875025
6
Coordinates from ORCA-job B6_random_3d_seed1004_d2.50_q0_m3_R2SCAN-3C E -148.700569458540
  B      -0.658387     -0.506135      0.807129
  B       1.087934      0.683778      0.387735
  B       0.906321     -0.869736      0.530733
  B      -1.228339      0.148628     -0.572612
  B      -0.200398      1.298596     -0.277261
  B       0.092869     -0.755130     -0.875725
6
Coordinates from ORCA-job B6_random_3d_seed1004_d2.50_q0_m3_R2SCAN-3C E -148.700569914738
  B      -0.658472     -0.506766      0.806998
  B       1.087724      0.683523      0.387305
  B       0.906248     -0.869828      0.531232
  B      -1.228398      0.148757     -0.572095
  B      -0.200271      1.298875     -0.277779
  B       0.093169     -0.754561     -0.875661
6
Coordinates from ORCA-job B6_random_3d_seed1004_d2.50_q0_m3_R2SCAN-3C E -148.700570277857
  B      -0.659098     -0.507766      0.806576
  B       1.088924      0.683905      0.386981
  B       0.905801     -0.869282      0.531961
  B      -1.229293      0.148720     -0.571459
  B      -0.199681      1.297510     -0.278352
  B       0.093347     -0.753088     -0.875706
6
Coordinates from ORCA-job B6_random_3d_seed1004_d2.50_q0_m3_R2SCAN-3C E -148.700570322165
  B      -0.659109     -0.507844      0.806625
  B       1.088877      0.683952      0.386949
  B       0.905780     -0.869230      0.531895
  B      -1.229131      0.148773     -0.571517
  B      -0.199721      1.297791     -0.278225
  B       0.093304     -0.753441     -0.875727
