6
Coordinates from ORCA-job B6_random_3d_seed1000_d2.00_q0_m5_R2SCAN-3C E -148.441631987089
  B       0.611618     -0.634035      1.256285
  B       1.595830     -0.178831     -0.451572
  B      -0.033732     -1.458251     -0.549392
  B      -0.681083      0.714734      1.066638
  B      -0.097131      1.516888     -0.675506
  B      -1.395502      0.039495     -0.646452
6
Coordinates from ORCA-job B6_random_3d_seed1000_d2.00_q0_m5_R2SCAN-3C E -148.474197185542
  B       0.604138     -0.626323      1.220581
  B       1.534552     -0.144270     -0.428657
  B      -0.039728     -1.418519     -0.532455
  B      -0.659939      0.689990      1.039955
  B      -0.077865      1.451302     -0.669331
  B      -1.361158      0.047819     -0.630093
6
Coordinates from ORCA-job B6_random_3d_seed1000_d2.00_q0_m5_R2SCAN-3C E -148.506215449592
  B       0.600662     -0.619751      1.185878
  B       1.472452     -0.103685     -0.400239
  B      -0.051145     -1.376949     -0.516133
  B      -0.636220      0.660856      1.016092
  B      -0.057623      1.380948     -0.669457
  B      -1.328127      0.058580     -0.616141
6
Coordinates from ORCA-job B6_random_3d_seed1000_d2.00_q0_m5_R2SCAN-3C E -148.550302450299
  B       0.602566     -0.608935      1.135851
  B       1.372776     -0.038598     -0.352888
  B      -0.073776     -1.313594     -0.493057
  B      -0.598533      0.614265      0.984230
  B      -0.024817      1.272045     -0.672707
  B      -1.278216      0.074817     -0.601429
6
Coordinates from ORCA-job B6_random_3d_seed1000_d2.00_q0_m5_R2SCAN-3C E -148.597035626132
  B       0.624961     -0.602543      1.074792
  B       1.247655      0.022422     -0.273456
  B      -0.113564     -1.211020     -0.448958
  B      -0.541500      0.537534      0.931602
  B      -0.015092      1.153450     -0.688536
  B      -1.202459      0.100157     -0.595444
6
Coordinates from ORCA-job B6_random_3d_seed1000_d2.00_q0_m5_R2SCAN-3C E -148.622794086078
  B       0.661562     -0.660002      1.066851
  B       1.114980      0.105464     -0.165894
  B      -0.145810     -1.066605     -0.408990
  B      -0.459785      0.444573      0.849985
  B      -0.012152      1.045178     -0.773099
  B      -1.158794      0.131392     -0.568854
6
Coordinates from ORCA-job B6_random_3d_seed1000_d2.00_q0_m5_R2SCAN-3C E -148.638983921800
  B       0.697194     -0.730441      1.087242
  B       1.115448      0.117627     -0.091991
  B      -0.128891     -1.030201     -0.398482
  B      -0.440560      0.436428      0.803745
  B      -0.032773      1.052230     -0.852298
  B      -1.210418      0.154358     -0.548216
6
Coordinates from ORCA-job B6_random_3d_seed1000_d2.00_q0_m5_R2SCAN-3C E -148.637230715546
  B       0.756093     -0.812214      1.132151
  B       1.017162      0.254026     -0.085146
  B      -0.144916     -0.970328     -0.406490
  B      -0.429389      0.406653      0.774672
  B       0.089120      0.950319     -0.889170
  B      -1.288071      0.171544     -0.526017
6
Coordinates from ORCA-job B6_random_3d_seed1000_d2.00_q0_m5_R2SCAN-3C E -148.655894774304
  B       0.749602     -0.822109      1.151537
  B       1.135455      0.213703     -0.031559
  B      -0.138005     -0.949875     -0.448175
  B      -0.434338      0.434228      0.786816
  B       0.001534      0.953949     -0.931538
  B      -1.314248      0.170105     -0.527081
6
Coordinates from ORCA-job B6_random_3d_seed1000_d2.00_q0_m5_R2SCAN-3C E -148.657846325155
  B       0.749220     -0.822650      1.129203
  B       1.115240      0.225498      0.012129
  B      -0.133136     -0.916020     -0.485325
  B      -0.420965      0.452584      0.792726
  B       0.015526      0.896792     -0.947344
  B      -1.325885      0.163796     -0.501391
6
Coordinates from ORCA-job B6_random_3d_seed1000_d2.00_q0_m5_R2SCAN-3C E -148.658229753878
  B       0.746240     -0.807051      1.115507
  B       1.131295      0.215646     -0.015131
  B      -0.127908     -0.925430     -0.492905
  B      -0.454701      0.469711      0.814607
  B       0.034905      0.889450     -0.920970
  B      -1.329830      0.157674     -0.501107
6
Coordinates from ORCA-job B6_random_3d_seed1000_d2.00_q0_m5_R2SCAN-3C E -148.658604529046
  B       0.744629     -0.822098      1.118919
  B       1.126553      0.229067     -0.004535
  B      -0.126927     -0.919017     -0.487168
  B      -0.444469      0.464165      0.807528
  B       0.027286      0.884460     -0.937166
  B      -1.327073      0.163424     -0.497579
6
Coordinates from ORCA-job B6_random_3d_seed1000_d2.00_q0_m5_R2SCAN-3C E -148.658655696649
  B       0.742779     -0.825835      1.113596
  B       1.120210      0.231584     -0.001586
  B      -0.124161     -0.921326     -0.481024
  B      -0.441723      0.465121      0.807597
  B       0.027941      0.886825     -0.941917
  B      -1.325046      0.163631     -0.496665
6
Coordinates from ORCA-job B6_random_3d_seed1000_d2.00_q0_m5_R2SCAN-3C E -148.658689731986
  B       0.741051     -0.830628      1.107962
  B       1.120390      0.236812      0.001217
  B      -0.123187     -0.918890     -0.478237
  B      -0.442785      0.467849      0.809296
  B       0.029340      0.881760     -0.945418
  B      -1.324808      0.163096     -0.494820
6
Coordinates from ORCA-job B6_random_3d_seed1000_d2.00_q0_m5_R2SCAN-3C E -148.658711259247
  B       0.740305     -0.834952      1.102435
  B       1.121816      0.240768      0.003203
  B      -0.123542     -0.918373     -0.474284
  B      -0.443983      0.471419      0.811278
  B       0.030021      0.879431     -0.947117
  B      -1.324617      0.161707     -0.495515
6
Coordinates from ORCA-job B6_random_3d_seed1000_d2.00_q0_m5_R2SCAN-3C E -148.658722604495
  B       0.741490     -0.837693      1.099506
  B       1.122240      0.242816      0.005283
  B      -0.125149     -0.918219     -0.471851
  B      -0.444168      0.473910      0.811832
  B       0.030071      0.878573     -0.947591
  B      -1.324484      0.160613     -0.497178
6
Coordinates from ORCA-job B6_random_3d_seed1000_d2.00_q0_m5_R2SCAN-3C E -148.658732743680
  B       0.744506     -0.840374      1.097452
  B       1.121581      0.244476      0.007620
  B      -0.127976     -0.918905     -0.469332
  B      -0.444074      0.476275      0.811765
  B       0.030096      0.878757     -0.947527
  B      -1.324134      0.159771     -0.499978
6
Coordinates from ORCA-job B6_random_3d_seed1000_d2.00_q0_m5_R2SCAN-3C E -148.658736429472
  B       0.746698     -0.841106      1.097300
  B       1.120439      0.244950      0.008549
  B      -0.129611     -0.919680     -0.468505
  B      -0.444087      0.476608      0.811482
  B       0.030347      0.879230     -0.947494
  B      -1.323787      0.159998     -0.501332
6
Coordinates from ORCA-job B6_random_3d_seed1000_d2.00_q0_m5_R2SCAN-3C E -148.658738412090
  B       0.748250     -0.841039      1.097642
  B       1.119414      0.245088      0.008843
  B      -0.130603     -0.920326     -0.468277
  B      -0.444391      0.476027      0.811487
  B       0.030754      0.879551     -0.947757
  B      -1.323424      0.160700     -0.501937
6
Coordinates from ORCA-job B6_random_3d_seed1000_d2.00_q0_m5_R2SCAN-3C E -148.658739762006
  B       0.749191     -0.840566      1.098057
  B       1.118776      0.245074      0.008783
  B      -0.131098     -0.920751     -0.468332
  B      -0.444926      0.475021      0.811900
  B       0.031170      0.879635     -0.948303
  B      -1.323113      0.161587     -0.502106
6
Coordinates from ORCA-job B6_random_3d_seed1000_d2.00_q0_m5_R2SCAN-3C E -148.658740568904
  B       0.749450     -0.840107      1.098267
  B       1.118652      0.245106      0.008589
  B      -0.131193     -0.920840     -0.468407
  B      -0.445438      0.474081      0.812526
  B       0.031438      0.879464     -0.948944
  B      -1.322910      0.162297     -0.502032
6
Coordinates from ORCA-job B6_random_3d_seed1000_d2.00_q0_m5_R2SCAN-3C E -148.658740772081
  B       0.749420     -0.839857      1.098251
  B       1.118779      0.245058      0.008456
  B      -0.131143     -0.920821     -0.468370
  B      -0.445731      0.473658      0.812954
  B       0.031513      0.879386     -0.949284
  B      -1.322838      0.162576     -0.502007
6
Coordinates from ORCA-job B6_random_3d_seed1000_d2.00_q0_m5_R2SCAN-3C E -148.658740789874
  B       0.749392     -0.839932      1.098179
  B       1.118832      0.245086      0.008500
  B      -0.131121     -0.920791     -0.468343
  B      -0.445707      0.473771      0.812993
  B       0.031476      0.879344     -0.949279
  B      -1.322873      0.162523     -0.502051
