6
Coordinates from ORCA-job B6_random_3d_seed1000_d2.00_q0_m5_R2SCAN-3C E -148.658740789874
  B           0.74939205503153     -0.83993166035512      1.09817852053778
  B           1.11883236293406      0.24508562455737      0.00850025684547
  B          -0.13112100731180     -0.92079113562641     -0.46834253860065
  B          -0.44570693105664      0.47377071398521      0.81299322236958
  B           0.03147626174505      0.87934390117209     -0.94927867906630
  B          -1.32287274134221      0.16252256626686     -0.50205077208589
