6
Coordinates from ORCA-job B6_rectangular_planar_d3.50_q0_m1_R2SCAN-3C E -148.717729552028
  B          -1.25690520703035     -0.48922789541442     -0.27235444918793
  B           0.23252557954583     -0.92441397218293      0.06794038940921
  B           1.80435352462433     -0.87437637474833      0.19861979232889
  B          -1.80387286247595      0.87344545646396      0.20677324004466
  B          -0.23233002496216      0.92424593367452      0.07230714308485
  B           1.25622899029829      0.49032685220721     -0.27328611567968
