6
Coordinates from ORCA-job B6_rectangular_planar_d3.50_q0_m1_R2SCAN-3C E -147.831353472399
  B      -3.500000     -1.750000      0.000000
  B       0.000000     -1.750000      0.000000
  B       3.500000     -1.750000      0.000000
  B      -3.500000      1.750000      0.000000
  B       0.000000      1.750000      0.000000
  B       3.500000      1.750000      0.000000
6
Coordinates from ORCA-job B6_rectangular_planar_d3.50_q0_m1_R2SCAN-3C E -147.842869194620
  B      -3.424376     -1.734652      0.000000
  B       0.000000     -1.739512     -0.000000
  B       3.424375     -1.734653      0.000000
  B      -3.424376      1.734653      0.000000
  B       0.000000      1.739510     -0.000000
  B       3.424376      1.734655      0.000000
6
Coordinates from ORCA-job B6_rectangular_planar_d3.50_q0_m1_R2SCAN-3C E -147.855121961372
  B      -3.348428     -1.720027      0.000000
  B       0.000000     -1.729255     -0.000000
  B       3.348427     -1.720028     -0.000000
  B      -3.348429      1.720029     -0.000000
  B       0.000001      1.729250      0.000000
  B       3.348429      1.720031      0.000000
6
Coordinates from ORCA-job B6_rectangular_planar_d3.50_q0_m1_R2SCAN-3C E -147.874992643152
  B      -3.234057     -1.699199      0.000000
  B       0.000000     -1.714046     -0.000000
  B       3.234056     -1.699200     -0.000000
  B      -3.234059      1.699206     -0.000000
  B       0.000001      1.714032      0.000000
  B       3.234060      1.699208     -0.000000
6
Coordinates from ORCA-job B6_rectangular_planar_d3.50_q0_m1_R2SCAN-3C E -147.905862484246
  B      -3.075266     -1.670395      0.000000
  B       0.000000     -1.691538     -0.000000
  B       3.075265     -1.670396      0.000000
  B      -3.075268      1.670414     -0.000000
  B       0.000000      1.691499      0.000000
  B       3.075268      1.670416      0.000000
6
Coordinates from ORCA-job B6_rectangular_planar_d3.50_q0_m1_R2SCAN-3C E -147.940752690722
  B      -2.916480     -1.643737      0.000000
  B       0.000001     -1.668461     -0.000000
  B       2.916480     -1.643740      0.000000
  B      -2.916485      1.643779      0.000000
  B       0.000000      1.668379     -0.000000
  B       2.916484      1.643780      0.000000
6
Coordinates from ORCA-job B6_rectangular_planar_d3.50_q0_m1_R2SCAN-3C E -147.979919561535
  B      -2.757718     -1.620024      0.000000
  B       0.000001     -1.645158     -0.000000
  B       2.757718     -1.620027      0.000000
  B      -2.757724      1.620092      0.000000
  B       0.000000      1.645023     -0.000000
  B       2.757723      1.620094      0.000000
6
Coordinates from ORCA-job B6_rectangular_planar_d3.50_q0_m1_R2SCAN-3C E -148.023428048389
  B      -2.598984     -1.598925     -0.000000
  B       0.000001     -1.621227     -0.000000
  B       2.598984     -1.598926      0.000000
  B      -2.598991      1.599021      0.000000
  B      -0.000000      1.621038     -0.000000
  B       2.598990      1.599021      0.000000
6
Coordinates from ORCA-job B6_rectangular_planar_d3.50_q0_m1_R2SCAN-3C E -148.070881478834
  B      -2.440272     -1.579882     -0.000000
  B       0.000001     -1.596059      0.000000
  B       2.440272     -1.579884     -0.000000
  B      -2.440280      1.580003      0.000000
  B      -0.000000      1.595819     -0.000000
  B       2.440279      1.580003      0.000000
6
Coordinates from ORCA-job B6_rectangular_planar_d3.50_q0_m1_R2SCAN-3C E -148.120925899260
  B      -2.281561     -1.562131      0.000000
  B       0.000001     -1.568930     -0.000000
  B       2.281561     -1.562133     -0.000000
  B      -2.281568      1.562273      0.000000
  B      -0.000000      1.568645     -0.000000
  B       2.281567      1.562274      0.000000
6
Coordinates from ORCA-job B6_rectangular_planar_d3.50_q0_m1_R2SCAN-3C E -148.170379133189
  B      -2.122807     -1.544445      0.000000
  B       0.000001     -1.538510     -0.000000
  B       2.122808     -1.544448      0.000000
  B      -2.122813      1.544608      0.000000
  B      -0.000000      1.538184     -0.000000
  B       2.122812      1.544610      0.000000
6
Coordinates from ORCA-job B6_rectangular_planar_d3.50_q0_m1_R2SCAN-3C E -148.214947888407
  B      -1.963857     -1.522418     -0.000000
  B       0.000001     -1.493989      0.000000
  B       1.963858     -1.522422     -0.000000
  B      -1.963859      1.522619     -0.000000
  B      -0.000000      1.493590      0.000000
  B       1.963857      1.522620     -0.000000
6
Coordinates from ORCA-job B6_rectangular_planar_d3.50_q0_m1_R2SCAN-3C E -148.246642011888
  B      -1.804174     -1.484768     -0.000000
  B       0.000001     -1.420219     -0.000000
  B       1.804175     -1.484771      0.000000
  B      -1.804162      1.485029      0.000000
  B      -0.000000      1.419699     -0.000000
  B       1.804160      1.485030      0.000000
6
Coordinates from ORCA-job B6_rectangular_planar_d3.50_q0_m1_R2SCAN-3C E -148.260273823421
  B      -1.743692     -1.408487     -0.000000
  B      -0.000000     -1.336461      0.000000
  B       1.743694     -1.408491     -0.000000
  B      -1.743915      1.408788      0.000000
  B      -0.000001      1.335862     -0.000000
  B       1.743914      1.408789      0.000000
6
Coordinates from ORCA-job B6_rectangular_planar_d3.50_q0_m1_R2SCAN-3C E -148.272719170204
  B      -1.730652     -1.330186     -0.000000
  B       0.000003     -1.254933      0.000000
  B       1.730652     -1.330190     -0.000000
  B      -1.730686      1.330698      0.000000
  B       0.000000      1.253912     -0.000000
  B       1.730683      1.330699      0.000000
6
Coordinates from ORCA-job B6_rectangular_planar_d3.50_q0_m1_R2SCAN-3C E -148.430885496370
  B      -1.740955     -1.266184     -0.000001
  B      -0.000001     -1.176473      0.000001
  B       1.740961     -1.266190      0.000001
  B      -1.741234      1.266869      0.000001
  B      -0.000003      1.175111     -0.000001
  B       1.741233      1.266868     -0.000001
6
Coordinates from ORCA-job B6_rectangular_planar_d3.50_q0_m1_R2SCAN-3C E -148.455976439904
  B      -1.704240     -1.221297     -0.000002
  B      -0.000001     -1.139606      0.000001
  B       1.704247     -1.221303      0.000001
  B      -1.704602      1.221894      0.000002
  B      -0.000003      1.138421      0.000000
  B       1.704600      1.221892     -0.000002
6
Coordinates from ORCA-job B6_rectangular_planar_d3.50_q0_m1_R2SCAN-3C E -148.471647569904
  B      -1.681509     -1.190790     -0.000002
  B      -0.000000     -1.114796      0.000001
  B       1.681516     -1.190798      0.000001
  B      -1.681779      1.191348      0.000002
  B      -0.000003      1.113691     -0.000000
  B       1.681776      1.191346     -0.000001
6
Coordinates from ORCA-job B6_rectangular_planar_d3.50_q0_m1_R2SCAN-3C E -148.493956861093
  B      -1.659608     -1.141804     -0.000002
  B       0.000002     -1.076686      0.000001
  B       1.659616     -1.141815      0.000001
  B      -1.659808      1.142319      0.000002
  B      -0.000004      1.075670     -0.000000
  B       1.659803      1.142316     -0.000002
6
Coordinates from ORCA-job B6_rectangular_planar_d3.50_q0_m1_R2SCAN-3C E -148.526025077843
  B      -1.641890     -1.065291     -0.000002
  B       0.000005     -1.021067      0.000001
  B       1.641899     -1.065301      0.000001
  B      -1.642041      1.065797      0.000002
  B      -0.000001      1.020076     -0.000000
  B       1.642028      1.065786     -0.000002
6
Coordinates from ORCA-job B6_rectangular_planar_d3.50_q0_m1_R2SCAN-3C E -148.556948518565
  B      -1.630977     -0.984536     -0.000003
  B      -0.000001     -0.948786      0.000001
  B       1.631012     -0.984560      0.000002
  B      -1.631217      0.985142      0.000002
  B      -0.000023      0.947622      0.000000
  B       1.631206      0.985118     -0.000002
6
Coordinates from ORCA-job B6_rectangular_planar_d3.50_q0_m1_R2SCAN-3C E -148.576070406768
  B      -1.626340     -0.904339     -0.000006
  B       0.000088     -0.882515      0.000001
  B       1.626406     -0.904438      0.000005
  B      -1.626495      0.905518      0.000005
  B       0.000040      0.880352      0.000000
  B       1.626302      0.905422     -0.000006
6
Coordinates from ORCA-job B6_rectangular_planar_d3.50_q0_m1_R2SCAN-3C E -148.650183054695
  B      -1.605089     -0.836452     -0.000082
  B      -0.000731     -0.920448     -0.000001
  B       1.606956     -0.836573      0.000083
  B      -1.608527      0.838253      0.000081
  B      -0.001061      0.918134      0.000002
  B       1.608453      0.837085     -0.000084
6
Coordinates from ORCA-job B6_rectangular_planar_d3.50_q0_m1_R2SCAN-3C E -148.682790395557
  B      -1.567545     -0.756061     -0.002407
  B       0.000971     -0.919501      0.004517
  B       1.568019     -0.756447     -0.002132
  B      -1.568515      0.759192     -0.001984
  B      -0.000149      0.914960      0.004257
  B       1.567219      0.757857     -0.002251
6
Coordinates from ORCA-job B6_rectangular_planar_d3.50_q0_m1_R2SCAN-3C E -148.681965916809
  B      -1.570196     -0.732839      0.014992
  B      -0.009241     -0.871197     -0.030190
  B       1.581946     -0.742126      0.015252
  B      -1.588946      0.729639      0.015442
  B      -0.009610      0.880309     -0.030628
  B       1.596048      0.736215      0.015131
6
Coordinates from ORCA-job B6_rectangular_planar_d3.50_q0_m1_R2SCAN-3C E -148.675128051749
  B      -1.618680     -0.744582     -0.005057
  B       0.039029     -0.912515      0.009670
  B       1.581876     -0.697902     -0.005678
  B      -1.573878      0.767016     -0.003939
  B       0.030732      0.870585      0.010191
  B       1.540921      0.717398     -0.005186
6
Coordinates from ORCA-job B6_rectangular_planar_d3.50_q0_m1_R2SCAN-3C E -148.681121442022
  B      -1.584917     -0.734976     -0.014818
  B       0.020047     -0.937616      0.028861
  B       1.569942     -0.760551     -0.016087
  B      -1.556725      0.749320     -0.012749
  B       0.004034      0.913409      0.029853
  B       1.547619      0.770414     -0.015060
6
Coordinates from ORCA-job B6_rectangular_planar_d3.50_q0_m1_R2SCAN-3C E -148.682790815680
  B      -1.553760     -0.756925     -0.007439
  B      -0.007263     -0.909885      0.014098
  B       1.570251     -0.751335     -0.009405
  B      -1.576734      0.752417     -0.005491
  B      -0.014867      0.926364      0.016338
  B       1.582373      0.739363     -0.008101
6
Coordinates from ORCA-job B6_rectangular_planar_d3.50_q0_m1_R2SCAN-3C E -148.682088202796
  B      -1.577184     -0.725912      0.008480
  B       0.005278     -0.890282     -0.018029
  B       1.587678     -0.737779      0.006492
  B      -1.596503      0.728877      0.010847
  B       0.003417      0.897710     -0.015775
  B       1.577313      0.727387      0.007985
6
Coordinates from ORCA-job B6_rectangular_planar_d3.50_q0_m1_R2SCAN-3C E -148.683358307037
  B      -1.582350     -0.738063      0.011761
  B       0.007108     -0.914208     -0.024996
  B       1.590152     -0.744514      0.009695
  B      -1.566416      0.754228      0.014032
  B      -0.010805      0.895720     -0.022031
  B       1.562309      0.746837      0.011538
6
Coordinates from ORCA-job B6_rectangular_planar_d3.50_q0_m1_R2SCAN-3C E -148.683604676474
  B      -1.561447     -0.747115      0.003881
  B       0.010311     -0.901194     -0.008910
  B       1.571282     -0.756666      0.001838
  B      -1.585771      0.750063      0.006271
  B      -0.003622      0.913651     -0.006651
  B       1.569247      0.741261      0.003570
6
Coordinates from ORCA-job B6_rectangular_planar_d3.50_q0_m1_R2SCAN-3C E -148.683691241409
  B      -1.560543     -0.735278     -0.009599
  B       0.005107     -0.904480      0.018532
  B       1.584482     -0.748415     -0.011851
  B      -1.580509      0.747141     -0.007567
  B      -0.010604      0.907948      0.020641
  B       1.562067      0.733083     -0.010155
6
Coordinates from ORCA-job B6_rectangular_planar_d3.50_q0_m1_R2SCAN-3C E -148.683672419249
  B      -1.566124     -0.733045      0.004052
  B       0.019679     -0.902772     -0.009102
  B       1.581955     -0.749647      0.002038
  B      -1.582364      0.749184      0.006410
  B      -0.019934      0.906358     -0.006919
  B       1.566788      0.729922      0.003521
6
Coordinates from ORCA-job B6_rectangular_planar_d3.50_q0_m1_R2SCAN-3C E -148.683643111756
  B      -1.560351     -0.733587      0.011428
  B       0.016895     -0.907740     -0.024337
  B       1.595569     -0.760510      0.009756
  B      -1.591359      0.761187      0.014223
  B      -0.012216      0.902750     -0.022005
  B       1.551462      0.737899      0.010934
6
Coordinates from ORCA-job B6_rectangular_planar_d3.50_q0_m1_R2SCAN-3C E -148.684024462773
  B      -1.552147     -0.730750     -0.004736
  B       0.024235     -0.904173      0.008619
  B       1.593237     -0.763222     -0.007037
  B      -1.594889      0.761668     -0.002473
  B      -0.022420      0.906901      0.010858
  B       1.551984      0.729577     -0.005231
6
Coordinates from ORCA-job B6_rectangular_planar_d3.50_q0_m1_R2SCAN-3C E -148.684259358072
  B      -1.531355     -0.712396      0.000825
  B       0.035752     -0.903189     -0.002924
  B       1.603752     -0.765820     -0.001156
  B      -1.604806      0.762242      0.003530
  B      -0.042468      0.912211     -0.000624
  B       1.539124      0.706953      0.000349
6
Coordinates from ORCA-job B6_rectangular_planar_d3.50_q0_m1_R2SCAN-3C E -148.685662841155
  B      -1.505462     -0.686195      0.000061
  B       0.069570     -0.898473     -0.001553
  B       1.632226     -0.784314     -0.001817
  B      -1.632540      0.781945      0.003006
  B      -0.076328      0.906481      0.000696
  B       1.512534      0.680556     -0.000393
6
Coordinates from ORCA-job B6_rectangular_planar_d3.50_q0_m1_R2SCAN-3C E -148.687911740309
  B      -1.471764     -0.659284     -0.000074
  B       0.101004     -0.896117     -0.001309
  B       1.658220     -0.804067     -0.001987
  B      -1.659834      0.800513      0.002945
  B      -0.108483      0.905489      0.000955
  B       1.480857      0.653466     -0.000531
6
Coordinates from ORCA-job B6_rectangular_planar_d3.50_q0_m1_R2SCAN-3C E -148.689853340972
  B      -1.451205     -0.641508     -0.000090
  B       0.122320     -0.893696     -0.001311
  B       1.677238     -0.817555     -0.002009
  B      -1.678865      0.814290      0.002993
  B      -0.128781      0.901818      0.000971
  B       1.459293      0.636651     -0.000554
6
Coordinates from ORCA-job B6_rectangular_planar_d3.50_q0_m1_R2SCAN-3C E -148.691815219846
  B      -1.430563     -0.622460     -0.000130
  B       0.143431     -0.889946     -0.001293
  B       1.695765     -0.829595     -0.002022
  B      -1.697382      0.826608      0.003045
  B      -0.149314      0.897181      0.001007
  B       1.438064      0.618213     -0.000608
6
Coordinates from ORCA-job B6_rectangular_planar_d3.50_q0_m1_R2SCAN-3C E -148.693696471247
  B      -1.410057     -0.602654     -0.000195
  B       0.164248     -0.884987     -0.001265
  B       1.714025     -0.840751     -0.002014
  B      -1.715684      0.837954      0.003112
  B      -0.169831      0.891587      0.001052
  B       1.417300      0.598850     -0.000690
6
Coordinates from ORCA-job B6_rectangular_planar_d3.50_q0_m1_R2SCAN-3C E -148.696161113148
  B      -1.382657     -0.576323     -0.000484
  B       0.195128     -0.877602     -0.001087
  B       1.744048     -0.860479     -0.001954
  B      -1.744859      0.859580      0.003266
  B      -0.195860      0.878515      0.001260
  B       1.384200      0.576308     -0.001001
6
Coordinates from ORCA-job B6_rectangular_planar_d3.50_q0_m1_R2SCAN-3C E -148.697747946482
  B      -1.346892     -0.529142     -0.009491
  B       0.237704     -0.853080      0.003933
  B       1.783035     -0.877431      0.002009
  B      -1.782838      0.876816      0.007333
  B      -0.241224      0.855652      0.006284
  B       1.350215      0.527184     -0.010068
6
Coordinates from ORCA-job B6_rectangular_planar_d3.50_q0_m1_R2SCAN-3C E -148.701324821549
  B      -1.319965     -0.494945     -0.067072
  B       0.268348     -0.837110      0.033437
  B       1.819201     -0.892890      0.030209
  B      -1.816708      0.895663      0.035205
  B      -0.267863      0.834534      0.036135
  B       1.316987      0.494747     -0.067914
6
Coordinates from ORCA-job B6_rectangular_planar_d3.50_q0_m1_R2SCAN-3C E -148.706313815431
  B      -1.299940     -0.480121     -0.133738
  B       0.281330     -0.836849      0.088227
  B       1.849930     -0.906755      0.042144
  B      -1.844240      0.915683      0.047148
  B      -0.270687      0.823608      0.090204
  B       1.283607      0.484434     -0.133986
6
Coordinates from ORCA-job B6_rectangular_planar_d3.50_q0_m1_R2SCAN-3C E -148.710434986892
  B      -1.313871     -0.537673     -0.177883
  B       0.242199     -0.879425      0.146342
  B       1.831811     -0.913134      0.028407
  B      -1.828849      0.922109      0.033672
  B      -0.222117      0.858473      0.147073
  B       1.290828      0.549650     -0.177610
6
Coordinates from ORCA-job B6_rectangular_planar_d3.50_q0_m1_R2SCAN-3C E -148.716203957124
  B      -1.218908     -0.493612     -0.233932
  B       0.253421     -0.927069      0.153160
  B       1.824165     -0.908637      0.076300
  B      -1.829043      0.909785      0.084392
  B      -0.250017      0.919858      0.156052
  B       1.220383      0.499676     -0.235972
6
Coordinates from ORCA-job B6_rectangular_planar_d3.50_q0_m1_R2SCAN-3C E -148.717057327955
  B      -1.219013     -0.485710     -0.256501
  B       0.247292     -0.926609      0.137342
  B       1.822270     -0.897445      0.112504
  B      -1.822917      0.894308      0.120203
  B      -0.248748      0.933235      0.144845
  B       1.221116      0.482221     -0.258393
6
Coordinates from ORCA-job B6_rectangular_planar_d3.50_q0_m1_R2SCAN-3C E -148.717471601642
  B      -1.227580     -0.476436     -0.282643
  B       0.237879     -0.937899      0.119822
  B       1.814467     -0.881893      0.156077
  B      -1.813199      0.880349      0.171022
  B      -0.241625      0.933690      0.112484
  B       1.230057      0.482188     -0.276762
6
Coordinates from ORCA-job B6_rectangular_planar_d3.50_q0_m1_R2SCAN-3C E -148.717606304796
  B      -1.248596     -0.486399     -0.277506
  B       0.234440     -0.929799      0.074823
  B       1.804855     -0.871281      0.198412
  B      -1.803928      0.872193      0.195903
  B      -0.229806      0.933896      0.097325
  B       1.243034      0.481390     -0.288958
6
Coordinates from ORCA-job B6_rectangular_planar_d3.50_q0_m1_R2SCAN-3C E -148.717715968498
  B      -1.257016     -0.489235     -0.274609
  B       0.229851     -0.922430      0.068341
  B       1.802289     -0.873514      0.200580
  B      -1.802195      0.869733      0.209218
  B      -0.231601      0.925692      0.072093
  B       1.258671      0.489755     -0.275622
6
Coordinates from ORCA-job B6_rectangular_planar_d3.50_q0_m1_R2SCAN-3C E -148.717727947323
  B      -1.256721     -0.489028     -0.272877
  B       0.233320     -0.924884      0.070283
  B       1.804867     -0.874907      0.196593
  B      -1.804238      0.874146      0.205536
  B      -0.232685      0.924140      0.073230
  B       1.255458      0.490533     -0.272765
6
Coordinates from ORCA-job B6_rectangular_planar_d3.50_q0_m1_R2SCAN-3C E -148.717729474393
  B      -1.256904     -0.489161     -0.272321
  B       0.232484     -0.924473      0.067871
  B       1.804398     -0.874235      0.198740
  B      -1.803940      0.873694      0.206645
  B      -0.232337      0.923736      0.072625
  B       1.256299      0.490439     -0.273561
6
Coordinates from ORCA-job B6_rectangular_planar_d3.50_q0_m1_R2SCAN-3C E -148.717729552028
  B      -1.256905     -0.489228     -0.272354
  B       0.232526     -0.924414      0.067940
  B       1.804354     -0.874376      0.198620
  B      -1.803873      0.873445      0.206773
  B      -0.232330      0.924246      0.072307
  B       1.256229      0.490327     -0.273286
