6
Coordinates from ORCA-job B6_random_3d_seed1001_d1.60_q0_m1_R2SCAN-3C E -148.659857306123
  B           0.10817048870093     -1.16302879092195     -0.41571833407762
  B          -0.10831740181262      1.16210665526830      0.41718193777744
  B           0.35467367902825      0.43074689292138     -1.10689040271284
  B          -0.35492120157383     -0.42907297710671      1.10693584485015
  B           1.03406011597557     -0.01990056107679      0.32293399412453
  B          -1.03366567031830      0.01914879091577     -0.32444304996166
