6
Coordinates from ORCA-job B6_random_3d_seed1001_d1.60_q0_m1_R2SCAN-3C E -148.624228086839
  B       0.106540     -1.141240     -0.325201
  B      -0.048844      1.046092      0.354406
  B       0.285121      0.401549     -1.012848
  B      -0.327721     -0.508552      1.050305
  B       1.087642      0.076935      0.339142
  B      -1.102738      0.125216     -0.405805
6
Coordinates from ORCA-job B6_random_3d_seed1001_d1.60_q0_m1_R2SCAN-3C E -148.639222227373
  B       0.111895     -1.151945     -0.338354
  B      -0.062908      1.071130      0.372248
  B       0.300429      0.402125     -1.038863
  B      -0.342762     -0.503231      1.064554
  B       1.090253      0.065767      0.331224
  B      -1.096907      0.116154     -0.390809
6
Coordinates from ORCA-job B6_random_3d_seed1001_d1.60_q0_m1_R2SCAN-3C E -148.650626921654
  B       0.115265     -1.161900     -0.353828
  B      -0.079970      1.102707      0.395024
  B       0.319815      0.403148     -1.071467
  B      -0.358293     -0.495264      1.079105
  B       1.087673      0.050529      0.322020
  B      -1.084490      0.100780     -0.370854
6
Coordinates from ORCA-job B6_random_3d_seed1001_d1.60_q0_m1_R2SCAN-3C E -148.655030376903
  B       0.115217     -1.165070     -0.363528
  B      -0.090237      1.122438      0.410230
  B       0.331716      0.403435     -1.091853
  B      -0.365413     -0.488129      1.085668
  B       1.080400      0.039656      0.316799
  B      -1.071683      0.087670     -0.357317
6
Coordinates from ORCA-job B6_random_3d_seed1001_d1.60_q0_m1_R2SCAN-3C E -148.658564721098
  B       0.112067     -1.165624     -0.377910
  B      -0.104278      1.149080      0.431733
  B       0.347932      0.403630     -1.118887
  B      -0.370702     -0.474670      1.092321
  B       1.062589      0.022542      0.310712
  B      -1.047608      0.065044     -0.337969
6
Coordinates from ORCA-job B6_random_3d_seed1001_d1.60_q0_m1_R2SCAN-3C E -148.659363059113
  B       0.107937     -1.163536     -0.386692
  B      -0.111828      1.161720      0.442888
  B       0.356011      0.403399     -1.131262
  B      -0.367865     -0.464682      1.094961
  B       1.047595      0.012094      0.309537
  B      -1.031851      0.051005     -0.329432
6
Coordinates from ORCA-job B6_random_3d_seed1001_d1.60_q0_m1_R2SCAN-3C E -148.659549405201
  B       0.105372     -1.162017     -0.390098
  B      -0.113920      1.163456      0.445159
  B       0.357671      0.403206     -1.132409
  B      -0.362310     -0.459938      1.095549
  B       1.040296      0.008529      0.311192
  B      -1.027109      0.046764     -0.329393
6
Coordinates from ORCA-job B6_random_3d_seed1001_d1.60_q0_m1_R2SCAN-3C E -148.659657665213
  B       0.103111     -1.160993     -0.392697
  B      -0.114609      1.161844      0.444543
  B       0.357715      0.403311     -1.129488
  B      -0.355002     -0.455659      1.095514
  B       1.034682      0.006504      0.314031
  B      -1.025896      0.044993     -0.331904
6
Coordinates from ORCA-job B6_random_3d_seed1001_d1.60_q0_m1_R2SCAN-3C E -148.659682547998
  B       0.102797     -1.161369     -0.393466
  B      -0.114319      1.160249      0.442950
  B       0.357389      0.403869     -1.126714
  B      -0.352760     -0.454253      1.095249
  B       1.034276      0.006330      0.315051
  B      -1.027383      0.045175     -0.333070
6
Coordinates from ORCA-job B6_random_3d_seed1001_d1.60_q0_m1_R2SCAN-3C E -148.659705734344
  B       0.102718     -1.162425     -0.394918
  B      -0.114159      1.159040      0.440852
  B       0.357503      0.405168     -1.123380
  B      -0.351164     -0.452126      1.095040
  B       1.034541      0.005637      0.315813
  B      -1.029438      0.044706     -0.333407
6
Coordinates from ORCA-job B6_random_3d_seed1001_d1.60_q0_m1_R2SCAN-3C E -148.659734779862
  B       0.102668     -1.164286     -0.397936
  B      -0.114339      1.158581      0.437943
  B       0.358281      0.407783     -1.119047
  B      -0.349737     -0.448208      1.095059
  B       1.034960      0.003533      0.316596
  B      -1.031833      0.042597     -0.332615
6
Coordinates from ORCA-job B6_random_3d_seed1001_d1.60_q0_m1_R2SCAN-3C E -148.659764505409
  B       0.102685     -1.166419     -0.402196
  B      -0.114800      1.159462      0.434646
  B       0.359436      0.411592     -1.114784
  B      -0.349037     -0.443090      1.095593
  B       1.035356     -0.000167      0.317351
  B      -1.033640      0.038621     -0.330609
6
Coordinates from ORCA-job B6_random_3d_seed1001_d1.60_q0_m1_R2SCAN-3C E -148.659788412571
  B       0.102857     -1.167770     -0.406204
  B      -0.115097      1.161300      0.431629
  B       0.360098      0.415596     -1.111883
  B      -0.349305     -0.438601      1.096726
  B       1.035585     -0.004506      0.318085
  B      -1.034139      0.033981     -0.328352
6
Coordinates from ORCA-job B6_random_3d_seed1001_d1.60_q0_m1_R2SCAN-3C E -148.659809222474
  B       0.103306     -1.168101     -0.409644
  B      -0.114836      1.163303      0.428358
  B       0.359788      0.419799     -1.109735
  B      -0.350156     -0.434954      1.098493
  B       1.035710     -0.009236      0.319045
  B      -1.033813      0.029188     -0.326516
6
Coordinates from ORCA-job B6_random_3d_seed1001_d1.60_q0_m1_R2SCAN-3C E -148.659829543431
  B       0.104220     -1.167415     -0.412737
  B      -0.113715      1.164954      0.424090
  B       0.358290      0.424634     -1.107500
  B      -0.351366     -0.431751      1.101014
  B       1.035770     -0.014586      0.320425
  B      -1.033199      0.024164     -0.325293
6
Coordinates from ORCA-job B6_random_3d_seed1001_d1.60_q0_m1_R2SCAN-3C E -148.659843703848
  B       0.105456     -1.165971     -0.414538
  B      -0.111953      1.165354      0.420074
  B       0.356140      0.428556     -1.105668
  B      -0.352495     -0.429860      1.103465
  B       1.035674     -0.018725      0.321751
  B      -1.032822      0.020645     -0.325084
6
Coordinates from ORCA-job B6_random_3d_seed1001_d1.60_q0_m1_R2SCAN-3C E -148.659849978085
  B       0.106410     -1.164710     -0.414556
  B      -0.110559      1.164576      0.418416
  B       0.354753      0.429781     -1.105278
  B      -0.353165     -0.429812      1.104671
  B       1.035417     -0.019809      0.322282
  B      -1.032857      0.019975     -0.325535
6
Coordinates from ORCA-job B6_random_3d_seed1001_d1.60_q0_m1_R2SCAN-3C E -148.659853112379
  B       0.107086     -1.163855     -0.414047
  B      -0.109615      1.163510      0.418146
  B       0.354185      0.429706     -1.105719
  B      -0.353649     -0.430331      1.105170
  B       1.035061     -0.019449      0.322332
  B      -1.033067      0.020420     -0.325882
6
Coordinates from ORCA-job B6_random_3d_seed1001_d1.60_q0_m1_R2SCAN-3C E -148.659855065694
  B       0.107601     -1.163379     -0.413938
  B      -0.108956      1.162659      0.418112
  B       0.354131      0.429626     -1.106238
  B      -0.354106     -0.430455      1.105540
  B       1.034665     -0.019071      0.322309
  B      -1.033333      0.020621     -0.325785
6
Coordinates from ORCA-job B6_random_3d_seed1001_d1.60_q0_m1_R2SCAN-3C E -148.659856526231
  B       0.108075     -1.163082     -0.414442
  B      -0.108392      1.162058      0.417843
  B       0.354325      0.429983     -1.106669
  B      -0.354643     -0.429998      1.106112
  B       1.034228     -0.019153      0.322409
  B      -1.033592      0.020192     -0.325254
6
Coordinates from ORCA-job B6_random_3d_seed1001_d1.60_q0_m1_R2SCAN-3C E -148.659857083661
  B       0.108244     -1.163034     -0.415131
  B      -0.108211      1.161979      0.417490
  B       0.354537      0.430480     -1.106815
  B      -0.354925     -0.429404      1.106582
  B       1.034035     -0.019561      0.322613
  B      -1.033680      0.019541     -0.324739
6
Coordinates from ORCA-job B6_random_3d_seed1001_d1.60_q0_m1_R2SCAN-3C E -148.659857240812
  B       0.108209     -1.163074     -0.415551
  B      -0.108266      1.162090      0.417274
  B       0.354642      0.430729     -1.106814
  B      -0.354944     -0.429102      1.106804
  B       1.034036     -0.019840      0.322798
  B      -1.033677      0.019198     -0.324510
6
Coordinates from ORCA-job B6_random_3d_seed1001_d1.60_q0_m1_R2SCAN-3C E -148.659857306123
  B       0.108170     -1.163029     -0.415718
  B      -0.108317      1.162107      0.417182
  B       0.354674      0.430747     -1.106890
  B      -0.354921     -0.429073      1.106936
  B       1.034060     -0.019901      0.322934
  B      -1.033666      0.019149     -0.324443
