6
Coordinates from ORCA-job B6_random_3d_seed1003_d3.00_q0_m3_R2SCAN-3C E -148.015586876091
  B       0.284996      1.350563     -1.794001
  B      -0.227518     -1.304058      1.628315
  B      -2.173510      0.305819     -0.069425
  B       2.305999     -0.229239      0.177339
  B       0.150463      1.553728      1.376879
  B      -0.340431     -1.676812     -1.319108
6
Coordinates from ORCA-job B6_random_3d_seed1003_d3.00_q0_m3_R2SCAN-3C E -148.028413974298
  B       0.282958      1.334092     -1.774689
  B      -0.222337     -1.278404      1.597140
  B      -2.144427      0.299919     -0.070716
  B       2.282146     -0.221574      0.178738
  B       0.146811      1.519913      1.361421
  B      -0.345151     -1.653945     -1.291893
6
Coordinates from ORCA-job B6_random_3d_seed1003_d3.00_q0_m3_R2SCAN-3C E -148.041872609218
  B       0.280924      1.317643     -1.755519
  B      -0.217294     -1.252472      1.566046
  B      -2.115552      0.293585     -0.071974
  B       2.258621     -0.213888      0.180385
  B       0.143393      1.485859      1.345844
  B      -0.350092     -1.630726     -1.264784
6
Coordinates from ORCA-job B6_random_3d_seed1003_d3.00_q0_m3_R2SCAN-3C E -148.063339939275
  B       0.277804      1.292873     -1.726796
  B      -0.210035     -1.213520      1.519969
  B      -2.071894      0.283412     -0.073718
  B       2.222855     -0.202413      0.183006
  B       0.138730      1.435021      1.322274
  B      -0.357459     -1.595372     -1.224735
6
Coordinates from ORCA-job B6_random_3d_seed1003_d3.00_q0_m3_R2SCAN-3C E -148.098802429701
  B       0.272921      1.255536     -1.683860
  B      -0.199825     -1.154855      1.452049
  B      -2.005703      0.266635     -0.076112
  B       2.168263     -0.185234      0.187372
  B       0.132886      1.359203      1.286592
  B      -0.368542     -1.541285     -1.166041
6
Coordinates from ORCA-job B6_random_3d_seed1003_d3.00_q0_m3_R2SCAN-3C E -148.140419241381
  B       0.267676      1.217009     -1.640527
  B      -0.189896     -1.092559      1.382577
  B      -1.937234      0.246647     -0.078941
  B       2.112215     -0.166769      0.193464
  B       0.128925      1.279628      1.249904
  B      -0.381685     -1.483956     -1.106477
6
Coordinates from ORCA-job B6_random_3d_seed1003_d3.00_q0_m3_R2SCAN-3C E -148.187710507971
  B       0.261970      1.179219     -1.598971
  B      -0.180328     -1.028771      1.314315
  B      -1.868595      0.223780     -0.082680
  B       2.056115     -0.147433      0.201738
  B       0.127890      1.199093      1.214035
  B      -0.397052     -1.425887     -1.048436
6
Coordinates from ORCA-job B6_random_3d_seed1003_d3.00_q0_m3_R2SCAN-3C E -148.240778276650
  B       0.255213      1.142954     -1.559585
  B      -0.170599     -0.964378      1.247582
  B      -1.799023      0.197975     -0.087956
  B       1.998894     -0.127490      0.212868
  B       0.130444      1.118375      1.178936
  B      -0.414928     -1.367436     -0.991845
6
Coordinates from ORCA-job B6_random_3d_seed1003_d3.00_q0_m3_R2SCAN-3C E -148.298932439710
  B       0.246816      1.109004     -1.521883
  B      -0.160393     -0.902365      1.182650
  B      -1.726938      0.169124     -0.095606
  B       1.938869     -0.107406      0.227075
  B       0.137145      1.040068      1.143602
  B      -0.435498     -1.308425     -0.935838
6
Coordinates from ORCA-job B6_random_3d_seed1003_d3.00_q0_m3_R2SCAN-3C E -148.361090333888
  B       0.237302      1.078503     -1.485290
  B      -0.150666     -0.844874      1.119608
  B      -1.652697      0.137597     -0.105417
  B       1.875786     -0.086954      0.243772
  B       0.148347      0.964820      1.106159
  B      -0.458072     -1.249092     -0.878832
6
Coordinates from ORCA-job B6_random_3d_seed1003_d3.00_q0_m3_R2SCAN-3C E -148.425050211259
  B       0.229340      1.051170     -1.448467
  B      -0.146326     -0.797407      1.057404
  B      -1.575844      0.103542     -0.113526
  B       1.811841     -0.066225      0.259065
  B       0.160906      0.896617      1.063652
  B      -0.479918     -1.187697     -0.818128
6
Coordinates from ORCA-job B6_random_3d_seed1003_d3.00_q0_m3_R2SCAN-3C E -148.484370769268
  B       0.227029      1.022995     -1.410190
  B      -0.150398     -0.762388      0.993780
  B      -1.495303      0.071104     -0.113435
  B       1.742500     -0.043393      0.267732
  B       0.171323      0.836707      1.016508
  B      -0.495151     -1.125025     -0.754396
6
Coordinates from ORCA-job B6_random_3d_seed1003_d3.00_q0_m3_R2SCAN-3C E -148.516882172686
  B       0.227467      0.999112     -1.377366
  B      -0.156681     -0.755185      0.947585
  B      -1.444611      0.062820     -0.106102
  B       1.681044     -0.022492      0.271474
  B       0.186583      0.810403      0.981413
  B      -0.493801     -1.094658     -0.717004
6
Coordinates from ORCA-job B6_random_3d_seed1003_d3.00_q0_m3_R2SCAN-3C E -148.554836224800
  B       0.226911      0.949721     -1.313622
  B      -0.161182     -0.752382      0.889975
  B      -1.383910      0.080706     -0.088093
  B       1.576148      0.012141      0.269589
  B       0.211706      0.780018      0.927928
  B      -0.469673     -1.070204     -0.685776
6
Coordinates from ORCA-job B6_random_3d_seed1003_d3.00_q0_m3_R2SCAN-3C E -148.583636032431
  B       0.219751      0.884210     -1.229271
  B      -0.161304     -0.758609      0.857833
  B      -1.325179      0.115074     -0.076018
  B       1.483474      0.039226      0.250870
  B       0.220082      0.768056      0.876381
  B      -0.436824     -1.047958     -0.679795
6
Coordinates from ORCA-job B6_random_3d_seed1003_d3.00_q0_m3_R2SCAN-3C E -148.602260148688
  B       0.214878      0.836357     -1.160603
  B      -0.163366     -0.769551      0.847550
  B      -1.288934      0.143174     -0.073147
  B       1.444016      0.047246      0.219663
  B       0.204279      0.774969      0.846395
  B      -0.410874     -1.032196     -0.679858
6
Coordinates from ORCA-job B6_random_3d_seed1003_d3.00_q0_m3_R2SCAN-3C E -148.615188265724
  B       0.211310      0.807315     -1.115151
  B      -0.161871     -0.780007      0.848083
  B      -1.268207      0.166998     -0.072888
  B       1.419566      0.049257      0.196406
  B       0.190750      0.783414      0.828065
  B      -0.391548     -1.026978     -0.684514
6
Coordinates from ORCA-job B6_random_3d_seed1003_d3.00_q0_m3_R2SCAN-3C E -148.644365317979
  B       0.207281      0.767615     -1.047702
  B      -0.156878     -0.791400      0.844914
  B      -1.232849      0.201238     -0.072043
  B       1.378116      0.049264      0.161213
  B       0.167049      0.792168      0.799204
  B      -0.362719     -1.018885     -0.685586
6
Coordinates from ORCA-job B6_random_3d_seed1003_d3.00_q0_m3_R2SCAN-3C E -148.672702237108
  B       0.195674      0.710210     -0.973288
  B      -0.155870     -0.787812      0.837167
  B      -1.150896      0.244921     -0.052047
  B       1.324034      0.036074      0.109437
  B       0.105110      0.796880      0.770843
  B      -0.318051     -1.000272     -0.692112
6
Coordinates from ORCA-job B6_random_3d_seed1003_d3.00_q0_m3_R2SCAN-3C E -148.682944478525
  B       0.185573      0.670376     -0.958127
  B      -0.144058     -0.781105      0.853027
  B      -1.122875      0.258461     -0.043930
  B       1.284926      0.000190      0.078354
  B       0.073605      0.826541      0.791740
  B      -0.277170     -0.974463     -0.721064
6
Coordinates from ORCA-job B6_random_3d_seed1003_d3.00_q0_m3_R2SCAN-3C E -148.688779364506
  B       0.176819      0.644463     -0.916243
  B      -0.109656     -0.799966      0.853054
  B      -1.137254      0.272859     -0.057107
  B       1.208497     -0.056464      0.052009
  B       0.075296      0.878593      0.787678
  B      -0.213703     -0.939485     -0.719391
6
Coordinates from ORCA-job B6_random_3d_seed1003_d3.00_q0_m3_R2SCAN-3C E -148.690817073323
  B       0.172453      0.666796     -0.972689
  B      -0.100651     -0.780418      0.866824
  B      -1.146192      0.266989     -0.013442
  B       1.178481     -0.150065      0.042653
  B       0.041288      0.920506      0.818606
  B      -0.145380     -0.923808     -0.741951
6
Coordinates from ORCA-job B6_random_3d_seed1003_d3.00_q0_m3_R2SCAN-3C E -148.694385631728
  B       0.176063      0.688728     -0.949884
  B      -0.117023     -0.776757      0.898105
  B      -1.156917      0.234777     -0.031282
  B       1.177398     -0.132539      0.044360
  B       0.078942      0.902585      0.787326
  B      -0.158462     -0.916794     -0.748624
6
Coordinates from ORCA-job B6_random_3d_seed1003_d3.00_q0_m3_R2SCAN-3C E -148.695387851722
  B       0.162627      0.714988     -0.918875
  B      -0.120863     -0.769491      0.895855
  B      -1.161743      0.218670     -0.039668
  B       1.168702     -0.150037      0.048933
  B       0.098387      0.898790      0.749962
  B      -0.147110     -0.912920     -0.736207
6
Coordinates from ORCA-job B6_random_3d_seed1003_d3.00_q0_m3_R2SCAN-3C E -148.695998846057
  B       0.163036      0.724031     -0.916625
  B      -0.136358     -0.749860      0.904148
  B      -1.169175      0.197108     -0.033997
  B       1.165229     -0.168541      0.035760
  B       0.106484      0.903711      0.753788
  B      -0.129217     -0.906448     -0.743075
6
Coordinates from ORCA-job B6_random_3d_seed1003_d3.00_q0_m3_R2SCAN-3C E -148.696121559189
  B       0.142169      0.736065     -0.918579
  B      -0.144051     -0.736604      0.912918
  B      -1.165297      0.183796     -0.040241
  B       1.171503     -0.186992      0.042780
  B       0.117907      0.907847      0.756911
  B      -0.122231     -0.904112     -0.753788
6
Coordinates from ORCA-job B6_random_3d_seed1003_d3.00_q0_m3_R2SCAN-3C E -148.696199282030
  B       0.146545      0.741042     -0.912220
  B      -0.147765     -0.736937      0.913828
  B      -1.167681      0.181561     -0.036662
  B       1.168014     -0.187284      0.038224
  B       0.118887      0.907685      0.748823
  B      -0.118002     -0.906067     -0.751993
6
Coordinates from ORCA-job B6_random_3d_seed1003_d3.00_q0_m3_R2SCAN-3C E -148.696200251874
  B       0.147037      0.736621     -0.912758
  B      -0.144756     -0.736930      0.913532
  B      -1.168641      0.184781     -0.037615
  B       1.166502     -0.185068      0.038700
  B       0.118054      0.905056      0.750178
  B      -0.118196     -0.904459     -0.752037
6
Coordinates from ORCA-job B6_random_3d_seed1003_d3.00_q0_m3_R2SCAN-3C E -148.696206493957
  B       0.147186      0.737130     -0.913358
  B      -0.145562     -0.738203      0.912513
  B      -1.167945      0.184826     -0.037713
  B       1.168303     -0.184240      0.038538
  B       0.117713      0.906573      0.751364
  B      -0.119695     -0.906087     -0.751344
6
Coordinates from ORCA-job B6_random_3d_seed1003_d3.00_q0_m3_R2SCAN-3C E -148.696206959597
  B       0.146667      0.737949     -0.912965
  B      -0.146178     -0.737731      0.913201
  B      -1.167882      0.184155     -0.037797
  B       1.167812     -0.185071      0.038192
  B       0.118305      0.906541      0.750838
  B      -0.118724     -0.905842     -0.751469
6
Coordinates from ORCA-job B6_random_3d_seed1003_d3.00_q0_m3_R2SCAN-3C E -148.696207045420
  B       0.146649      0.737779     -0.912956
  B      -0.146186     -0.737654      0.913084
  B      -1.167959      0.184358     -0.037875
  B       1.167957     -0.184801      0.038162
  B       0.118328      0.906300      0.750983
  B      -0.118788     -0.905981     -0.751399
