6
Coordinates from ORCA-job B6_random_3d_seed1003_d3.00_q0_m3_R2SCAN-3C E -148.696207045420
  B           0.14664875898553      0.73777868793829     -0.91295612345972
  B          -0.14618619019636     -0.73765369741751      0.91308442973497
  B          -1.16795928067311      0.18435755416463     -0.03787504970828
  B           1.16795716130074     -0.18480100813003      0.03816243136160
  B           0.11832762840699      0.90629982262295      0.75098326101721
  B          -0.11878808782379     -0.90598135917833     -0.75139895894577
