6
Coordinates from ORCA-job B6_trigonal_prism_d2.50_q0_m5_R2SCAN-3C E -148.560739107955
  B           0.82280954290996      0.47507817950802     -0.96965877159711
  B          -0.82280960550276      0.47507802763664     -0.96965904876171
  B          -0.00000017724907     -0.95015607651280     -0.96944060559001
  B           0.82280993104485      0.47507805532487      0.96965897114934
  B          -0.82280986172687      0.47507819554203      0.96965868554200
  B           0.00000017052389     -0.95015636149876      0.96944076925749
