6
Coordinates from ORCA-job B6_trigonal_prism_d2.50_q0_m5_R2SCAN-3C E -148.191446155126
  B       1.250000      0.721688     -1.250000
  B      -1.250000      0.721688     -1.250000
  B      -0.000000     -1.443376     -1.250000
  B       1.250000      0.721688      1.250000
  B      -1.250000      0.721688      1.250000
  B      -0.000000     -1.443376      1.250000
6
Coordinates from ORCA-job B6_trigonal_prism_d2.50_q0_m5_R2SCAN-3C E -148.216766002459
  B       1.222135      0.705595     -1.226621
  B      -1.222135      0.705595     -1.226621
  B       0.000000     -1.411190     -1.226605
  B       1.222135      0.705595      1.226621
  B      -1.222135      0.705595      1.226621
  B      -0.000000     -1.411190      1.226605
6
Coordinates from ORCA-job B6_trigonal_prism_d2.50_q0_m5_R2SCAN-3C E -148.243190072803
  B       1.194031      0.689373     -1.203800
  B      -1.194031      0.689373     -1.203800
  B       0.000000     -1.378746     -1.203775
  B       1.194031      0.689373      1.203800
  B      -1.194031      0.689373      1.203800
  B      -0.000000     -1.378746      1.203775
6
Coordinates from ORCA-job B6_trigonal_prism_d2.50_q0_m5_R2SCAN-3C E -148.284831687792
  B       1.151476      0.664803     -1.170581
  B      -1.151476      0.664803     -1.170581
  B       0.000000     -1.329606     -1.170556
  B       1.151476      0.664803      1.170581
  B      -1.151476      0.664803      1.170581
  B      -0.000000     -1.329606      1.170556
6
Coordinates from ORCA-job B6_trigonal_prism_d2.50_q0_m5_R2SCAN-3C E -148.350263925586
  B       1.086607      0.627348     -1.123503
  B      -1.086607      0.627348     -1.123503
  B       0.000000     -1.254696     -1.123497
  B       1.086607      0.627348      1.123503
  B      -1.086607      0.627348      1.123503
  B      -0.000000     -1.254696      1.123497
6
Coordinates from ORCA-job B6_trigonal_prism_d2.50_q0_m5_R2SCAN-3C E -148.421919613687
  B       1.017502      0.587462     -1.080062
  B      -1.017502      0.587462     -1.080062
  B      -0.000000     -1.174924     -1.080088
  B       1.017502      0.587462      1.080062
  B      -1.017502      0.587462      1.080062
  B       0.000000     -1.174924      1.080088
6
Coordinates from ORCA-job B6_trigonal_prism_d2.50_q0_m5_R2SCAN-3C E -148.490719173855
  B       0.947209      0.546886     -1.040631
  B      -0.947209      0.546886     -1.040631
  B      -0.000000     -1.093771     -1.040681
  B       0.947209      0.546886      1.040631
  B      -0.947209      0.546886      1.040631
  B       0.000000     -1.093771      1.040681
6
Coordinates from ORCA-job B6_trigonal_prism_d2.50_q0_m5_R2SCAN-3C E -148.544339023284
  B       0.874533      0.504910     -1.011207
  B      -0.874533      0.504910     -1.011207
  B      -0.000000     -1.009820     -1.011208
  B       0.874533      0.504910      1.011207
  B      -0.874533      0.504910      1.011207
  B       0.000000     -1.009820      1.011208
6
Coordinates from ORCA-job B6_trigonal_prism_d2.50_q0_m5_R2SCAN-3C E -148.558978926327
  B       0.808314      0.466696     -0.985769
  B      -0.808314      0.466696     -0.985769
  B      -0.000000     -0.933392     -0.985737
  B       0.808314      0.466696      0.985769
  B      -0.808314      0.466696      0.985769
  B       0.000000     -0.933392      0.985737
6
Coordinates from ORCA-job B6_trigonal_prism_d2.50_q0_m5_R2SCAN-3C E -148.560657976632
  B       0.826048      0.476857     -0.973102
  B      -0.826048      0.476857     -0.973102
  B      -0.000000     -0.953713     -0.972966
  B       0.826048      0.476857      0.973102
  B      -0.826048      0.476857      0.973102
  B       0.000000     -0.953713      0.972966
6
Coordinates from ORCA-job B6_trigonal_prism_d2.50_q0_m5_R2SCAN-3C E -148.560738568678
  B       0.822877      0.475280     -0.969456
  B      -0.822877      0.475280     -0.969456
  B      -0.000000     -0.950559     -0.969252
  B       0.822877      0.475280      0.969456
  B      -0.822877      0.475280      0.969456
  B       0.000000     -0.950559      0.969252
6
Coordinates from ORCA-job B6_trigonal_prism_d2.50_q0_m5_R2SCAN-3C E -148.560738095965
  B       0.823248      0.474753     -0.969679
  B      -0.823248      0.474753     -0.969679
  B      -0.000000     -0.949505     -0.969489
  B       0.823248      0.474753      0.969679
  B      -0.823248      0.474753      0.969679
  B       0.000000     -0.949505      0.969489
6
Coordinates from ORCA-job B6_trigonal_prism_d2.50_q0_m5_R2SCAN-3C E -148.560739026851
  B       0.822619      0.475041     -0.969795
  B      -0.822619      0.475040     -0.969795
  B      -0.000000     -0.950081     -0.969586
  B       0.822619      0.475040      0.969795
  B      -0.822619      0.475040      0.969795
  B       0.000000     -0.950081      0.969586
6
Coordinates from ORCA-job B6_trigonal_prism_d2.50_q0_m5_R2SCAN-3C E -148.560739107955
  B       0.822810      0.475078     -0.969659
  B      -0.822810      0.475078     -0.969659
  B      -0.000000     -0.950156     -0.969441
  B       0.822810      0.475078      0.969659
  B      -0.822810      0.475078      0.969659
  B       0.000000     -0.950156      0.969441
