6
Coordinates from ORCA-job B6_rhombic_planar_d3.50_q0_m3_R2SCAN-3C E -148.743335803571
  B          -1.94102057105463     -0.62920748520976     -0.00004945441911
  B          -0.36021786447284     -0.87282990260642     -0.00010659640403
  B           1.21779632762209     -0.70783461680970     -0.00011373215625
  B          -1.21778893352042      0.70783445438112      0.00012033146977
  B           0.36020754428477      0.87282527706366      0.00010851117418
  B           1.94102349714102      0.62921227318109      0.00004094033543
