6
Coordinates from ORCA-job B6_rhombic_planar_d3.50_q0_m3_R2SCAN-3C E -147.897864851060
  B      -4.375000     -1.515544      0.000000
  B      -0.875000     -1.515544      0.000000
  B       2.625000     -1.515544      0.000000
  B      -2.625000      1.515544      0.000000
  B       0.875000      1.515544      0.000000
  B       4.375000      1.515544      0.000000
6
Coordinates from ORCA-job B6_rhombic_planar_d3.50_q0_m3_R2SCAN-3C E -147.905749093111
  B      -4.306374     -1.492794     -0.000000
  B      -0.864053     -1.493131      0.000000
  B       2.586384     -1.493799     -0.000000
  B      -2.586388      1.493800      0.000000
  B       0.864053      1.493136     -0.000000
  B       4.306378      1.492789     -0.000000
6
Coordinates from ORCA-job B6_rhombic_planar_d3.50_q0_m3_R2SCAN-3C E -147.914199049933
  B      -4.236252     -1.468966     -0.000000
  B      -0.853271     -1.471749      0.000000
  B       2.549319     -1.472271     -0.000000
  B      -2.549323      1.472272      0.000000
  B       0.853271      1.471753     -0.000000
  B       4.236256      1.468961     -0.000000
6
Coordinates from ORCA-job B6_rhombic_planar_d3.50_q0_m3_R2SCAN-3C E -147.927958223836
  B      -4.129454     -1.431734     -0.000000
  B      -0.837143     -1.441025      0.000001
  B       2.495860     -1.440094     -0.000000
  B      -2.495864      1.440095      0.000000
  B       0.837143      1.441030     -0.000000
  B       4.129459      1.431728     -0.000000
6
Coordinates from ORCA-job B6_rhombic_planar_d3.50_q0_m3_R2SCAN-3C E -147.950978206511
  B      -3.966712     -1.373051     -0.000001
  B      -0.812447     -1.397442      0.000001
  B       2.419475     -1.391925     -0.000000
  B      -2.419481      1.391926      0.000000
  B       0.812447      1.397447     -0.000000
  B       3.966718      1.373046     -0.000000
6
Coordinates from ORCA-job B6_rhombic_planar_d3.50_q0_m3_R2SCAN-3C E -147.977881029615
  B      -3.794095     -1.308625     -0.000001
  B      -0.784224     -1.355342      0.000001
  B       2.344197     -1.343114     -0.000000
  B      -2.344202      1.343116      0.000000
  B       0.784224      1.355347     -0.000000
  B       3.794101      1.308619      0.000000
6
Coordinates from ORCA-job B6_rhombic_planar_d3.50_q0_m3_R2SCAN-3C E -148.008072273282
  B      -3.617887     -1.241501     -0.000001
  B      -0.751966     -1.315260      0.000002
  B       2.271076     -1.296185     -0.000001
  B      -2.271082      1.296187      0.000001
  B       0.751966      1.315265     -0.000001
  B       3.617894      1.241494      0.000000
6
Coordinates from ORCA-job B6_rhombic_planar_d3.50_q0_m3_R2SCAN-3C E -148.046734768754
  B      -3.438415     -1.172879     -0.000003
  B      -0.715520     -1.276441      0.000006
  B       2.198044     -1.251551     -0.000003
  B      -2.198052      1.251552      0.000003
  B       0.715519      1.276448     -0.000005
  B       3.438423      1.172871      0.000003
6
Coordinates from ORCA-job B6_rhombic_planar_d3.50_q0_m3_R2SCAN-3C E -148.095892948396
  B      -3.256654     -1.110119     -0.000188
  B      -0.681934     -1.239220      0.000360
  B       2.113312     -1.209454     -0.000193
  B      -2.113379      1.209509      0.000217
  B       0.681925      1.239198     -0.000435
  B       3.256729      1.110086      0.000239
6
Coordinates from ORCA-job B6_rhombic_planar_d3.50_q0_m3_R2SCAN-3C E -148.146537322575
  B      -3.058384     -1.037719     -0.000171
  B      -0.642594     -1.207519      0.000339
  B       2.041347     -1.172236     -0.000181
  B      -2.040398      1.178634      0.000200
  B       0.625405      1.197467     -0.000412
  B       3.074623      1.041372      0.000225
6
Coordinates from ORCA-job B6_rhombic_planar_d3.50_q0_m3_R2SCAN-3C E -148.203584240021
  B      -2.858949     -0.963928     -0.000154
  B      -0.602933     -1.178964      0.000320
  B       1.963746     -1.139665     -0.000172
  B      -1.961201      1.145727      0.000183
  B       0.568279      1.159116     -0.000392
  B       2.891058      0.977714      0.000214
6
Coordinates from ORCA-job B6_rhombic_planar_d3.50_q0_m3_R2SCAN-3C E -148.272265569076
  B      -2.659788     -0.891287     -0.000137
  B      -0.564568     -1.154178      0.000308
  B       1.875155     -1.109427     -0.000170
  B      -1.873644      1.110149      0.000168
  B       0.512546      1.123627     -0.000384
  B       2.710299      0.921117      0.000214
6
Coordinates from ORCA-job B6_rhombic_planar_d3.50_q0_m3_R2SCAN-3C E -148.358465608380
  B      -2.463565     -0.822387     -0.000274
  B      -0.529567     -1.131140      0.000201
  B       1.784925     -1.071712      0.000239
  B      -1.786110      1.070035     -0.000985
  B       0.461819      1.098926      0.002365
  B       2.532499      0.856278     -0.001546
6
Coordinates from ORCA-job B6_rhombic_planar_d3.50_q0_m3_R2SCAN-3C E -148.455366349425
  B      -2.271316     -0.764923     -0.000282
  B      -0.490935     -1.100390      0.000165
  B       1.698752     -1.032214      0.000228
  B      -1.691643      1.035670     -0.000932
  B       0.415495      1.080592      0.002315
  B       2.339646      0.781264     -0.001494
6
Coordinates from ORCA-job B6_rhombic_planar_d3.50_q0_m3_R2SCAN-3C E -148.530811690490
  B      -2.146783     -0.729901     -0.000243
  B      -0.456861     -1.084997      0.000102
  B       1.631499     -1.005361      0.000218
  B      -1.618936      1.016744     -0.000907
  B       0.384812      1.069898      0.002256
  B       2.206270      0.733617     -0.001427
6
Coordinates from ORCA-job B6_rhombic_planar_d3.50_q0_m3_R2SCAN-3C E -148.628671143690
  B      -1.969642     -0.659167     -0.000227
  B      -0.406771     -1.074727      0.000038
  B       1.532532     -0.954051      0.000203
  B      -1.513077      0.971352     -0.000825
  B       0.332700      1.055996      0.002153
  B       2.024258      0.660597     -0.001342
6
Coordinates from ORCA-job B6_rhombic_planar_d3.50_q0_m3_R2SCAN-3C E -148.694516047279
  B      -1.843827     -0.573443     -0.000327
  B      -0.347227     -1.066606      0.000097
  B       1.428984     -0.900690      0.000157
  B      -1.400808      0.894282     -0.000649
  B       0.280102      1.039653      0.001985
  B       1.882777      0.606803     -0.001264
6
Coordinates from ORCA-job B6_rhombic_planar_d3.50_q0_m3_R2SCAN-3C E -148.707252911897
  B      -1.717908     -0.616861     -0.000590
  B      -0.331879     -0.986482      0.000274
  B       1.289338     -0.865859      0.000149
  B      -1.279583      0.875111     -0.000386
  B       0.267176      1.017689      0.001832
  B       1.772855      0.576401     -0.001279
6
Coordinates from ORCA-job B6_rhombic_planar_d3.50_q0_m3_R2SCAN-3C E -148.707969199101
  B      -1.774850     -0.526052     -0.000790
  B      -0.263297     -0.979759      0.000403
  B       1.251664     -0.788158      0.000191
  B      -1.261965      0.763345     -0.000216
  B       0.274488      0.983726      0.001721
  B       1.773960      0.546898     -0.001310
6
Coordinates from ORCA-job B6_rhombic_planar_d3.50_q0_m3_R2SCAN-3C E -148.733139083145
  B      -1.896548     -0.584522     -0.000918
  B      -0.321207     -0.945648      0.000498
  B       1.301582     -0.800506      0.000249
  B      -1.272382      0.771794     -0.000132
  B       0.323995      0.948441      0.001673
  B       1.864559      0.610441     -0.001370
6
Coordinates from ORCA-job B6_rhombic_planar_d3.50_q0_m3_R2SCAN-3C E -148.739570718729
  B      -1.903192     -0.626844     -0.000934
  B      -0.341078     -0.900396      0.000459
  B       1.247873     -0.767741      0.000236
  B      -1.248590      0.747782     -0.000003
  B       0.331060      0.946023      0.001558
  B       1.913927      0.601175     -0.001316
6
Coordinates from ORCA-job B6_rhombic_planar_d3.50_q0_m3_R2SCAN-3C E -148.740911120854
  B      -1.932554     -0.630021     -0.000762
  B      -0.370584     -0.872563      0.000320
  B       1.203864     -0.727303      0.000234
  B      -1.187714      0.701349      0.000058
  B       0.389699      0.882546      0.001148
  B       1.897289      0.645992     -0.000998
6
Coordinates from ORCA-job B6_rhombic_planar_d3.50_q0_m3_R2SCAN-3C E -148.740204897440
  B      -1.970926     -0.616581     -0.000319
  B      -0.393924     -0.888533     -0.000040
  B       1.228633     -0.675070      0.000133
  B      -1.177566      0.683163      0.000131
  B       0.348199      0.858330      0.000519
  B       1.965584      0.638691     -0.000424
6
Coordinates from ORCA-job B6_rhombic_planar_d3.50_q0_m3_R2SCAN-3C E -148.737662928612
  B      -1.927350     -0.649077     -0.000048
  B      -0.351866     -0.847075     -0.000236
  B       1.204170     -0.690688      0.000013
  B      -1.305189      0.713845      0.000164
  B       0.357952      0.880277      0.000168
  B       2.022283      0.592718     -0.000061
6
Coordinates from ORCA-job B6_rhombic_planar_d3.50_q0_m3_R2SCAN-3C E -148.742331611687
  B      -1.937231     -0.641871     -0.000241
  B      -0.341501     -0.854044     -0.000046
  B       1.230097     -0.710047      0.000012
  B      -1.236762      0.729592      0.000205
  B       0.355902      0.868113      0.000266
  B       1.929495      0.608256     -0.000196
6
Coordinates from ORCA-job B6_rhombic_planar_d3.50_q0_m3_R2SCAN-3C E -148.741850179241
  B      -1.933785     -0.611403     -0.000212
  B      -0.359071     -0.878062     -0.000058
  B       1.217757     -0.731215      0.000010
  B      -1.202510      0.709589      0.000188
  B       0.346119      0.852610      0.000244
  B       1.931490      0.658480     -0.000173
6
Coordinates from ORCA-job B6_rhombic_planar_d3.50_q0_m3_R2SCAN-3C E -148.742998102851
  B      -1.947584     -0.631017      0.000002
  B      -0.377286     -0.882434     -0.000214
  B       1.210107     -0.693325     -0.000046
  B      -1.214300      0.697904      0.000131
  B       0.373506      0.874404      0.000083
  B       1.955558      0.634468      0.000044
6
Coordinates from ORCA-job B6_rhombic_planar_d3.50_q0_m3_R2SCAN-3C E -148.743127696312
  B      -1.939027     -0.634278     -0.000129
  B      -0.349251     -0.862950     -0.000070
  B       1.225617     -0.716502     -0.000070
  B      -1.226913      0.715334      0.000158
  B       0.354938      0.879780      0.000157
  B       1.934636      0.618616     -0.000046
6
Coordinates from ORCA-job B6_rhombic_planar_d3.50_q0_m3_R2SCAN-3C E -148.743333799614
  B      -1.940691     -0.629217     -0.000078
  B      -0.359757     -0.872571     -0.000104
  B       1.218222     -0.709272     -0.000087
  B      -1.217527      0.708630      0.000143
  B       0.359885      0.872635      0.000117
  B       1.939868      0.629794      0.000008
6
Coordinates from ORCA-job B6_rhombic_planar_d3.50_q0_m3_R2SCAN-3C E -148.743335598462
  B      -1.941257     -0.629335     -0.000053
  B      -0.360371     -0.872353     -0.000114
  B       1.217933     -0.707588     -0.000102
  B      -1.218161      0.707749      0.000129
  B       0.360157      0.872310      0.000106
  B       1.941700      0.629216      0.000034
6
Coordinates from ORCA-job B6_rhombic_planar_d3.50_q0_m3_R2SCAN-3C E -148.743335769874
  B      -1.941034     -0.629253     -0.000052
  B      -0.360332     -0.872887     -0.000109
  B       1.217811     -0.707721     -0.000109
  B      -1.217765      0.707854      0.000125
  B       0.360266      0.872812      0.000107
  B       1.941055      0.629195      0.000038
6
Coordinates from ORCA-job B6_rhombic_planar_d3.50_q0_m3_R2SCAN-3C E -148.743335803571
  B      -1.941021     -0.629207     -0.000049
  B      -0.360218     -0.872830     -0.000107
  B       1.217796     -0.707835     -0.000114
  B      -1.217789      0.707834      0.000120
  B       0.360208      0.872825      0.000109
  B       1.941023      0.629212      0.000041
