6
Coordinates from ORCA-job FINAL_rank03_B6_random_3d_seed1000_d2.20_q0_m3_R2SCAN-3C_PBE0_def2-TZVP_OptFreq E -148.631808572899
  B           0.98566269665154     -0.24421301748830      0.97071572630816
  B           1.38584845342815     -1.47381885460930      0.17746200535485
  B           0.17878961441616     -0.75392688985108     -0.56897143466795
  B          -0.17880386692771      0.75391527505243      0.56897998859850
  B          -1.38583256498327      1.47382624130868     -0.17746948139059
  B          -0.98566333258488      0.24421624558756     -0.97071680420297
