6
Coordinates from ORCA-job FINAL_rank03_B6_random_3d_seed1000_d2.20_q0_m3_R2SCAN-3C_PBE0_def2-TZVP_OptFreq E -148.631673247564
  B       0.989643     -0.247724      0.971359
  B       1.392218     -1.480792      0.178819
  B       0.179353     -0.741580     -0.556236
  B      -0.179236      0.741646      0.556135
  B      -1.392417      1.480657     -0.178686
  B      -0.989560      0.247792     -0.971391
6
Coordinates from ORCA-job FINAL_rank03_B6_random_3d_seed1000_d2.20_q0_m3_R2SCAN-3C_PBE0_def2-TZVP_OptFreq E -148.631709776697
  B       0.989396     -0.247358      0.971561
  B       1.390329     -1.478726      0.178494
  B       0.179073     -0.742227     -0.557176
  B      -0.178974      0.742283      0.557086
  B      -1.390455      1.478647     -0.178412
  B      -0.989369      0.247380     -0.971552
6
Coordinates from ORCA-job FINAL_rank03_B6_random_3d_seed1000_d2.20_q0_m3_R2SCAN-3C_PBE0_def2-TZVP_OptFreq E -148.631765269816
  B       0.988752     -0.246030      0.972449
  B       1.385749     -1.473879      0.177545
  B       0.178374     -0.744974     -0.560641
  B      -0.178323      0.745002      0.560579
  B      -1.385725      1.473902     -0.177556
  B      -0.988826      0.245977     -0.972376
6
Coordinates from ORCA-job FINAL_rank03_B6_random_3d_seed1000_d2.20_q0_m3_R2SCAN-3C_PBE0_def2-TZVP_OptFreq E -148.631775538418
  B       0.988523     -0.245420      0.972859
  B       1.384937     -1.473103      0.177278
  B       0.178200     -0.746607     -0.562440
  B      -0.178170      0.746626      0.562391
  B      -1.384902      1.473123     -0.177288
  B      -0.988587      0.245380     -0.972799
6
Coordinates from ORCA-job FINAL_rank03_B6_random_3d_seed1000_d2.20_q0_m3_R2SCAN-3C_PBE0_def2-TZVP_OptFreq E -148.631796463129
  B       0.987752     -0.243977      0.973536
  B       1.384228     -1.472516      0.176847
  B       0.177936     -0.751195     -0.567233
  B      -0.177947      0.751186      0.567230
  B      -1.384207      1.472528     -0.176847
  B      -0.987761      0.243972     -0.973533
6
Coordinates from ORCA-job FINAL_rank03_B6_random_3d_seed1000_d2.20_q0_m3_R2SCAN-3C_PBE0_def2-TZVP_OptFreq E -148.631801914547
  B       0.987354     -0.243854      0.973167
  B       1.384812     -1.473081      0.176978
  B       0.178027     -0.752243     -0.568161
  B      -0.178043      0.752230      0.568167
  B      -1.384811      1.473076     -0.176966
  B      -0.987339      0.243871     -0.973185
6
Coordinates from ORCA-job FINAL_rank03_B6_random_3d_seed1000_d2.20_q0_m3_R2SCAN-3C_PBE0_def2-TZVP_OptFreq E -148.631805063324
  B       0.986711     -0.243964      0.972249
  B       1.385599     -1.473754      0.177251
  B       0.178265     -0.753070     -0.568710
  B      -0.178282      0.753056      0.568719
  B      -1.385605      1.473737     -0.177235
  B      -0.986686      0.243994     -0.972274
6
Coordinates from ORCA-job FINAL_rank03_B6_random_3d_seed1000_d2.20_q0_m3_R2SCAN-3C_PBE0_def2-TZVP_OptFreq E -148.631806380380
  B       0.986117     -0.244114      0.971377
  B       1.385949     -1.473973      0.177429
  B       0.178509     -0.753587     -0.568942
  B      -0.178528      0.753573      0.568954
  B      -1.385941      1.473971     -0.177430
  B      -0.986106      0.244129     -0.971389
6
Coordinates from ORCA-job FINAL_rank03_B6_random_3d_seed1000_d2.20_q0_m3_R2SCAN-3C_PBE0_def2-TZVP_OptFreq E -148.631806654061
  B       0.985710     -0.244211      0.970789
  B       1.385950     -1.473897      0.177489
  B       0.178719     -0.753906     -0.569021
  B      -0.178736      0.753891      0.569034
  B      -1.385928      1.473911     -0.177504
  B      -0.985714      0.244211     -0.970787
6
Coordinates from ORCA-job FINAL_rank03_B6_random_3d_seed1000_d2.20_q0_m3_R2SCAN-3C_PBE0_def2-TZVP_OptFreq E -148.631808572899
  B       0.985663     -0.244213      0.970716
  B       1.385848     -1.473819      0.177462
  B       0.178790     -0.753927     -0.568971
  B      -0.178804      0.753915      0.568980
  B      -1.385833      1.473826     -0.177469
  B      -0.985663      0.244216     -0.970717
