6
Coordinates from ORCA-job B6_rhombic_planar_d2.50_q0_m5_R2SCAN-3C E -148.696257273214
  B          -2.00696544071112     -0.76195549643847     -0.00000003028454
  B          -0.42176902097671     -0.73955029907919     -0.00000001331920
  B           1.17801641485710     -0.68101236495567     -0.00000008313709
  B          -1.17544695585930      0.74584943218319      0.00000011637929
  B           0.39577278808460      0.82347742253410      0.00000007539699
  B           2.03039221460543      0.61319130575604     -0.00000006503545
