6
Coordinates from ORCA-job B6_rhombic_planar_d2.50_q0_m5_R2SCAN-3C E -148.163454451704
  B      -3.125000     -1.082532      0.000000
  B      -0.625000     -1.082532      0.000000
  B       1.875000     -1.082532      0.000000
  B      -1.875000      1.082532      0.000000
  B       0.625000      1.082532      0.000000
  B       3.125000      1.082532      0.000000
6
Coordinates from ORCA-job B6_rhombic_planar_d2.50_q0_m5_R2SCAN-3C E -148.185280010069
  B      -3.058368     -1.063812     -0.000000
  B      -0.614241     -1.062386      0.000000
  B       1.826528     -1.061312      0.000000
  B      -1.826528      1.061312      0.000000
  B       0.614241      1.062386      0.000000
  B       3.058368      1.063812     -0.000000
6
Coordinates from ORCA-job B6_rhombic_planar_d2.50_q0_m5_R2SCAN-3C E -148.207955992322
  B      -2.991341     -1.045299     -0.000000
  B      -0.603321     -1.043317      0.000000
  B       1.776716     -1.040347      0.000000
  B      -1.776716      1.040347     -0.000000
  B       0.603321      1.043317      0.000000
  B       2.991341      1.045299     -0.000000
6
Coordinates from ORCA-job B6_rhombic_planar_d2.50_q0_m5_R2SCAN-3C E -148.244019229995
  B      -2.888802     -1.017400      0.000000
  B      -0.585905     -1.016496      0.000000
  B       1.700564     -1.010232     -0.000000
  B      -1.700564      1.010232     -0.000000
  B       0.585905      1.016496      0.000000
  B       2.888802      1.017400      0.000000
6
Coordinates from ORCA-job B6_rhombic_planar_d2.50_q0_m5_R2SCAN-3C E -148.305645213607
  B      -2.723498     -0.974352     -0.000000
  B      -0.554979     -0.982069      0.000000
  B       1.584374     -0.973603      0.000000
  B      -1.584374      0.973603      0.000000
  B       0.554979      0.982069      0.000000
  B       2.723498      0.974352     -0.000000
6
Coordinates from ORCA-job B6_rhombic_planar_d2.50_q0_m5_R2SCAN-3C E -148.378998132090
  B      -2.528589     -0.926904     -0.000000
  B      -0.511048     -0.952239      0.000000
  B       1.470754     -0.958867      0.000000
  B      -1.470754      0.958867      0.000000
  B       0.511048      0.952239      0.000000
  B       2.528589      0.926904     -0.000000
6
Coordinates from ORCA-job B6_rhombic_planar_d2.50_q0_m5_R2SCAN-3C E -148.459754575232
  B      -2.323960     -0.867947     -0.000000
  B      -0.457059     -0.922370      0.000000
  B       1.376227     -0.949418      0.000000
  B      -1.376227      0.949418      0.000000
  B       0.457059      0.922370      0.000000
  B       2.323960      0.867947     -0.000000
6
Coordinates from ORCA-job B6_rhombic_planar_d2.50_q0_m5_R2SCAN-3C E -148.527292127938
  B      -2.113717     -0.792263     -0.000000
  B      -0.398982     -0.897845      0.000000
  B       1.314045     -0.942089      0.000000
  B      -1.314045      0.942089      0.000000
  B       0.398982      0.897845      0.000000
  B       2.113717      0.792263     -0.000000
6
Coordinates from ORCA-job B6_rhombic_planar_d2.50_q0_m5_R2SCAN-3C E -148.636418449916
  B      -1.966310     -0.700071     -0.000000
  B      -0.342581     -0.881389      0.000000
  B       1.330709     -0.928155      0.000000
  B      -1.330709      0.928155      0.000000
  B       0.342581      0.881389      0.000000
  B       1.966310      0.700071     -0.000000
6
Coordinates from ORCA-job B6_rhombic_planar_d2.50_q0_m5_R2SCAN-3C E -148.658176485713
  B      -1.869632     -0.662896      0.000001
  B      -0.316346     -0.833376     -0.000001
  B       1.259687     -0.833749     -0.000001
  B      -1.248986      0.866014     -0.000001
  B       0.304656      0.842758     -0.000000
  B       1.870621      0.621249      0.000001
6
Coordinates from ORCA-job B6_rhombic_planar_d2.50_q0_m5_R2SCAN-3C E -148.682392943498
  B      -1.950815     -0.701144     -0.000000
  B      -0.362013     -0.800007      0.000000
  B       1.245867     -0.742909     -0.000000
  B      -1.235101      0.808946     -0.000000
  B       0.356569      0.834409      0.000000
  B       1.945494      0.600704     -0.000000
6
Coordinates from ORCA-job B6_rhombic_planar_d2.50_q0_m5_R2SCAN-3C E -148.692869109171
  B      -1.988142     -0.727994     -0.000000
  B      -0.397944     -0.786471      0.000000
  B       1.200830     -0.720720      0.000000
  B      -1.199748      0.778554     -0.000000
  B       0.374847      0.823997      0.000000
  B       2.010157      0.632634     -0.000000
6
Coordinates from ORCA-job B6_rhombic_planar_d2.50_q0_m5_R2SCAN-3C E -148.692775968845
  B      -2.008694     -0.742824     -0.000002
  B      -0.447346     -0.741557      0.000001
  B       1.167227     -0.649147      0.000001
  B      -1.160878      0.706303      0.000001
  B       0.425388      0.803353      0.000001
  B       2.024302      0.623872     -0.000002
6
Coordinates from ORCA-job B6_rhombic_planar_d2.50_q0_m5_R2SCAN-3C E -148.695254683762
  B      -2.025236     -0.766603     -0.000002
  B      -0.407222     -0.741121      0.000001
  B       1.174032     -0.670745      0.000001
  B      -1.156659      0.748522      0.000001
  B       0.387723      0.819684      0.000001
  B       2.027362      0.610263     -0.000002
6
Coordinates from ORCA-job B6_rhombic_planar_d2.50_q0_m5_R2SCAN-3C E -148.692790680974
  B      -1.968202     -0.758425      0.000000
  B      -0.437556     -0.744645     -0.000000
  B       1.190501     -0.701744     -0.000000
  B      -1.213221      0.757697     -0.000000
  B       0.371182      0.845660     -0.000000
  B       2.057297      0.601458      0.000000
6
Coordinates from ORCA-job B6_rhombic_planar_d2.50_q0_m5_R2SCAN-3C E -148.695793884513
  B      -2.011243     -0.759695      0.000001
  B      -0.415254     -0.747405     -0.000000
  B       1.176905     -0.687508     -0.000000
  B      -1.188262      0.749878     -0.000000
  B       0.409150      0.825393     -0.000000
  B       2.028704      0.619336      0.000001
6
Coordinates from ORCA-job B6_rhombic_planar_d2.50_q0_m5_R2SCAN-3C E -148.695095179671
  B      -2.022527     -0.759115     -0.000000
  B      -0.428981     -0.736470      0.000000
  B       1.189062     -0.670340      0.000000
  B      -1.147565      0.734775      0.000000
  B       0.382793      0.817108      0.000000
  B       2.027219      0.614043     -0.000001
6
Coordinates from ORCA-job B6_rhombic_planar_d2.50_q0_m5_R2SCAN-3C E -148.696222193855
  B      -2.004543     -0.763406     -0.000000
  B      -0.419558     -0.737050      0.000000
  B       1.173538     -0.677892      0.000000
  B      -1.178728      0.744703      0.000000
  B       0.394388      0.824710      0.000000
  B       2.034903      0.608935     -0.000000
6
Coordinates from ORCA-job B6_rhombic_planar_d2.50_q0_m5_R2SCAN-3C E -148.696176543498
  B      -2.009523     -0.761621      0.000000
  B      -0.425175     -0.745163     -0.000000
  B       1.183021     -0.685182     -0.000000
  B      -1.173460      0.750028     -0.000000
  B       0.399988      0.823340     -0.000000
  B       2.025149      0.618597      0.000000
6
Coordinates from ORCA-job B6_rhombic_planar_d2.50_q0_m5_R2SCAN-3C E -148.696256786222
  B      -2.007479     -0.761224     -0.000000
  B      -0.421745     -0.739899     -0.000000
  B       1.178542     -0.681059     -0.000000
  B      -1.175733      0.745382      0.000000
  B       0.395609      0.823185      0.000000
  B       2.030805      0.613616     -0.000000
6
Coordinates from ORCA-job B6_rhombic_planar_d2.50_q0_m5_R2SCAN-3C E -148.696256748467
  B      -2.006453     -0.762671     -0.000000
  B      -0.421856     -0.739422      0.000000
  B       1.177380     -0.680713     -0.000000
  B      -1.175223      0.746331      0.000000
  B       0.395917      0.823770      0.000000
  B       2.030235      0.612704     -0.000000
6
Coordinates from ORCA-job B6_rhombic_planar_d2.50_q0_m5_R2SCAN-3C E -148.696257272456
  B      -2.006966     -0.761919     -0.000000
  B      -0.421771     -0.739599     -0.000000
  B       1.178011     -0.680994     -0.000000
  B      -1.175449      0.745843      0.000000
  B       0.395769      0.823457      0.000000
  B       2.030406      0.613212     -0.000000
6
Coordinates from ORCA-job B6_rhombic_planar_d2.50_q0_m5_R2SCAN-3C E -148.696257273214
  B      -2.006965     -0.761955     -0.000000
  B      -0.421769     -0.739550     -0.000000
  B       1.178016     -0.681012     -0.000000
  B      -1.175447      0.745849      0.000000
  B       0.395773      0.823477      0.000000
  B       2.030392      0.613191     -0.000000
