6
Coordinates from ORCA-job B6_compact_planar_triangle_d2.20_q0_m5_R2SCAN-3C E -148.650726878104
  B          -1.65959279182286     -0.95815798118131     -0.00000000234128
  B           0.00000000578215     -0.96577178731642      0.00000000399538
  B           1.65959277407548     -0.95815796205737     -0.00000000270948
  B          -0.83635597831593      0.48286806474507      0.00000000062288
  B           0.83635598295876      0.48286805977131      0.00000000139450
  B           0.00000000732239      1.91635161603873     -0.00000000096201
