6
Coordinates from ORCA-job B6_compact_planar_triangle_d2.20_q0_m5_R2SCAN-3C E -148.346087391778
  B      -2.200000     -1.270171      0.000000
  B       0.000000     -1.270171      0.000000
  B       2.200000     -1.270171      0.000000
  B      -1.100000      0.635085      0.000000
  B       1.100000      0.635085      0.000000
  B       0.000000      2.540341      0.000000
6
Coordinates from ORCA-job B6_compact_planar_triangle_d2.20_q0_m5_R2SCAN-3C E -148.383168281447
  B      -2.142081     -1.236737      0.000000
  B      -0.000000     -1.246723     -0.000000
  B       2.142081     -1.236737      0.000000
  B      -1.079694      0.623365     -0.000000
  B       1.079694      0.623365     -0.000000
  B       0.000000      2.473468      0.000000
6
Coordinates from ORCA-job B6_compact_planar_triangle_d2.20_q0_m5_R2SCAN-3C E -148.421397431283
  B      -2.083938     -1.203152      0.000000
  B      -0.000000     -1.223669     -0.000000
  B       2.083938     -1.203152      0.000000
  B      -1.059735      0.611838     -0.000000
  B       1.059735      0.611838     -0.000000
  B       0.000000      2.406296      0.000000
6
Coordinates from ORCA-job B6_compact_planar_triangle_d2.20_q0_m5_R2SCAN-3C E -148.480023385887
  B      -1.996829     -1.152855      0.000000
  B      -0.000000     -1.188771     -0.000000
  B       1.996829     -1.152855      0.000000
  B      -1.029518      0.594386     -0.000000
  B       1.029518      0.594386     -0.000000
  B      -0.000000      2.305709      0.000000
6
Coordinates from ORCA-job B6_compact_planar_triangle_d2.20_q0_m5_R2SCAN-3C E -148.562221817576
  B      -1.866567     -1.077685      0.000000
  B      -0.000000     -1.135469     -0.000000
  B       1.866567     -1.077685      0.000000
  B      -0.983343      0.567758     -0.000000
  B       0.983343      0.567758     -0.000000
  B      -0.000000      2.155323      0.000000
6
Coordinates from ORCA-job B6_compact_planar_triangle_d2.20_q0_m5_R2SCAN-3C E -148.625981812070
  B      -1.736960     -1.002821      0.000000
  B      -0.000000     -1.071673     -0.000000
  B       1.736960     -1.002821      0.000000
  B      -0.928093      0.535811     -0.000000
  B       0.928093      0.535811      0.000000
  B      -0.000000      2.005692      0.000000
6
Coordinates from ORCA-job B6_compact_planar_triangle_d2.20_q0_m5_R2SCAN-3C E -148.648924305999
  B      -1.640799     -0.947215     -0.000000
  B       0.000000     -0.988185      0.000000
  B       1.640799     -0.947215     -0.000000
  B      -0.855774      0.494062     -0.000000
  B       0.855774      0.494062     -0.000000
  B      -0.000000      1.894491      0.000000
6
Coordinates from ORCA-job B6_compact_planar_triangle_d2.20_q0_m5_R2SCAN-3C E -148.650643260239
  B      -1.658576     -0.957639     -0.000000
  B      -0.000000     -0.959419      0.000000
  B       1.658576     -0.957639     -0.000000
  B      -0.830840      0.479722     -0.000000
  B       0.830840      0.479722     -0.000000
  B       0.000000      1.915254      0.000000
6
Coordinates from ORCA-job B6_compact_planar_triangle_d2.20_q0_m5_R2SCAN-3C E -148.650719290611
  B      -1.660816     -0.958848     -0.000000
  B       0.000000     -0.967420      0.000000
  B       1.660816     -0.958848     -0.000000
  B      -0.837792      0.483690     -0.000000
  B       0.837792      0.483690      0.000000
  B       0.000000      1.917735     -0.000000
6
Coordinates from ORCA-job B6_compact_planar_triangle_d2.20_q0_m5_R2SCAN-3C E -148.650726851290
  B      -1.659490     -0.958114      0.000000
  B      -0.000000     -0.965836     -0.000000
  B       1.659490     -0.958114      0.000000
  B      -0.836409      0.482919     -0.000000
  B       0.836409      0.482919     -0.000000
  B      -0.000000      1.916226      0.000000
6
Coordinates from ORCA-job B6_compact_planar_triangle_d2.20_q0_m5_R2SCAN-3C E -148.650726878104
  B      -1.659593     -0.958158     -0.000000
  B       0.000000     -0.965772      0.000000
  B       1.659593     -0.958158     -0.000000
  B      -0.836356      0.482868      0.000000
  B       0.836356      0.482868      0.000000
  B       0.000000      1.916352     -0.000000
