6
Coordinates from ORCA-job B6_compact_planar_triangle_d1.60_q0_m1_R2SCAN-3C E -148.614194644034
  B      -1.600000     -0.923760      0.000000
  B       0.000000     -0.923760      0.000000
  B       1.600000     -0.923760      0.000000
  B      -0.800000      0.461880      0.000000
  B       0.800000      0.461880      0.000000
  B       0.000000      1.847521      0.000000
6
Coordinates from ORCA-job B6_compact_planar_triangle_d1.60_q0_m1_R2SCAN-3C E -148.625267536265
  B      -1.638805     -0.946158      0.000000
  B      -0.000000     -0.926428      0.000000
  B       1.638805     -0.946158     -0.000000
  B      -0.802310      0.463214     -0.000000
  B       0.802310      0.463214     -0.000000
  B      -0.000000      1.892315      0.000000
6
Coordinates from ORCA-job B6_compact_planar_triangle_d1.60_q0_m1_R2SCAN-3C E -148.630346771538
  B      -1.681869     -0.971027     -0.000000
  B      -0.000000     -0.928584      0.000000
  B       1.681870     -0.971029      0.000000
  B      -0.804178      0.464288      0.000000
  B       0.804179      0.464288     -0.000000
  B      -0.000001      1.942064      0.000000
6
Coordinates from ORCA-job B6_compact_planar_triangle_d1.60_q0_m1_R2SCAN-3C E -148.630565575582
  B      -1.692063     -0.976921      0.000000
  B      -0.000001     -0.929053     -0.000000
  B       1.692067     -0.976929      0.000000
  B      -0.804588      0.464528      0.000000
  B       0.804590      0.464530     -0.000000
  B      -0.000005      1.953844      0.000000
6
Coordinates from ORCA-job B6_compact_planar_triangle_d1.60_q0_m1_R2SCAN-3C E -148.630568459378
  B      -1.693351     -0.977675     -0.000000
  B      -0.000001     -0.929154      0.000000
  B       1.693354     -0.977681     -0.000000
  B      -0.804684      0.464589      0.000000
  B       0.804685      0.464590      0.000000
  B      -0.000004      1.955331     -0.000000
6
Coordinates from ORCA-job B6_compact_planar_triangle_d1.60_q0_m1_R2SCAN-3C E -148.630568474199
  B      -1.693392     -0.977705      0.000000
  B      -0.000001     -0.929183     -0.000000
  B       1.693395     -0.977711      0.000000
  B      -0.804715      0.464611     -0.000000
  B       0.804716      0.464612     -0.000000
  B      -0.000003      1.955375      0.000000
