6
Coordinates from ORCA-job B6_compact_planar_triangle_d1.60_q0_m1_R2SCAN-3C E -148.630568474199
  B          -1.69339234561703     -0.97770542192672      0.00000000215881
  B          -0.00000066958637     -0.92918258927768     -0.00000000195970
  B           1.69339510644563     -0.97771077185168      0.00000000355113
  B          -0.80471464986559      0.46461103626252     -0.00000000233641
  B           0.80471581117694      0.46461248058446     -0.00000000512868
  B          -0.00000325255359      1.95537527620910      0.00000000371486
