6
Coordinates from ORCA-job B6_linear_chain_d3.00_q0_m3_R2SCAN-3C E -147.901181749220
  B      -7.500000      0.000000      0.000000
  B      -4.500000      0.000000      0.000000
  B      -1.500000      0.000000      0.000000
  B       1.500000      0.000000      0.000000
  B       4.500000      0.000000      0.000000
  B       7.500000      0.000000      0.000000
6
Coordinates from ORCA-job B6_linear_chain_d3.00_q0_m3_R2SCAN-3C E -147.914005464649
  B      -7.324086     -0.000000      0.000000
  B      -4.390554     -0.000000      0.000000
  B      -1.471635     -0.000000     -0.000000
  B       1.471635      0.000000     -0.000000
  B       4.390554      0.000000      0.000000
  B       7.324086     -0.000000      0.000000
6
Coordinates from ORCA-job B6_linear_chain_d3.00_q0_m3_R2SCAN-3C E -147.928321703352
  B      -7.147996      0.000000      0.000000
  B      -4.284876     -0.000000     -0.000000
  B      -1.444537     -0.000000     -0.000000
  B       1.444537      0.000000     -0.000000
  B       4.284876     -0.000000      0.000000
  B       7.147996      0.000000      0.000000
6
Coordinates from ORCA-job B6_linear_chain_d3.00_q0_m3_R2SCAN-3C E -147.952506686676
  B      -6.884107     -0.000000      0.000000
  B      -4.132846      0.000000      0.000000
  B      -1.405857     -0.000000     -0.000000
  B       1.405857      0.000000     -0.000000
  B       4.132846     -0.000000      0.000000
  B       6.884107     -0.000000      0.000000
6
Coordinates from ORCA-job B6_linear_chain_d3.00_q0_m3_R2SCAN-3C E -147.989146285477
  B      -6.514297      0.000000      0.000000
  B      -3.921790      0.000000      0.000000
  B      -1.353553     -0.000000     -0.000000
  B       1.353553      0.000000     -0.000000
  B       3.921790     -0.000000      0.000000
  B       6.514297      0.000000     -0.000000
6
Coordinates from ORCA-job B6_linear_chain_d3.00_q0_m3_R2SCAN-3C E -148.026205550443
  B      -6.154695      0.000000      0.000000
  B      -3.720941     -0.000000     -0.000000
  B      -1.311457     -0.000000     -0.000000
  B       1.311457     -0.000000     -0.000000
  B       3.720941     -0.000000      0.000000
  B       6.154695      0.000000      0.000000
6
Coordinates from ORCA-job B6_linear_chain_d3.00_q0_m3_R2SCAN-3C E -148.061530827172
  B      -5.794740      0.000000      0.000000
  B      -3.519739     -0.000000     -0.000000
  B      -1.269009     -0.000000     -0.000000
  B       1.269009     -0.000000     -0.000000
  B       3.519739     -0.000000      0.000000
  B       5.794740      0.000000      0.000000
6
Coordinates from ORCA-job B6_linear_chain_d3.00_q0_m3_R2SCAN-3C E -148.201982455940
  B      -5.496054     -0.000002      0.000009
  B      -3.379806      0.000000      0.000002
  B      -1.287829      0.000002     -0.000012
  B       1.287829      0.000002     -0.000012
  B       3.379806     -0.000000      0.000002
  B       5.496054     -0.000002      0.000010
6
Coordinates from ORCA-job B6_linear_chain_d3.00_q0_m3_R2SCAN-3C E -148.284272612612
  B      -5.144821     -0.000003      0.000013
  B      -3.174082     -0.000002      0.000004
  B      -1.240858      0.000006     -0.000017
  B       1.240622      0.000001     -0.000019
  B       3.173846      0.000003      0.000005
  B       5.145293     -0.000005      0.000013
6
Coordinates from ORCA-job B6_linear_chain_d3.00_q0_m3_R2SCAN-3C E -148.354016477061
  B      -4.879829      0.000000      0.000019
  B      -2.989556     -0.000004      0.000006
  B      -1.199163      0.000008     -0.000024
  B       1.200022     -0.000006     -0.000027
  B       2.988411      0.000005      0.000007
  B       4.880116     -0.000003      0.000019
6
Coordinates from ORCA-job B6_linear_chain_d3.00_q0_m3_R2SCAN-3C E -148.433863916505
  B      -4.518711     -0.004872      0.003055
  B      -2.759278     -0.001770      0.001096
  B      -1.127665      0.006075     -0.003796
  B       1.127684      0.007076     -0.004426
  B       2.757292     -0.000937      0.000583
  B       4.520678     -0.005573      0.003488
