6
Coordinates from ORCA-job B6_linear_chain_d3.00_q0_m3_R2SCAN-3C
  B          -4.20699262292957     -0.00913564219509      0.00576859665796
  B          -2.57600701600100     -0.00677593906223      0.00415394555766
  B          -1.04704466219659      0.01454562947377     -0.00908810333835
  B           1.04954974762420      0.01644803563638     -0.01025331344072
  B           2.57448886295103     -0.00383750792085      0.00236814667906
  B           4.20600569055192     -0.01124457593199      0.00705072788439
