6
Coordinates from ORCA-job FINAL_rank09_B6_rhombic_planar_d2.50_q0_m3_R2SCAN-3C_PBE0_def2-TZVP_OptFreq E -148.631807518628
  B          -1.93100405567391     -0.62874477471723      0.00000613810760
  B          -0.36144168543840     -0.89082639904034      0.00000204725403
  B           1.21341590855402     -0.70778050839594     -0.00000012238964
  B          -1.21341816538790      0.70777954920544     -0.00000225556122
  B           0.36144039725589      0.89082842521278     -0.00000386978794
  B           1.93100860069031      0.62874370773528     -0.00000193762283
