6
Coordinates from ORCA-job FINAL_rank09_B6_rhombic_planar_d2.50_q0_m3_R2SCAN-3C_PBE0_def2-TZVP_OptFreq E -148.631671930547
  B      -1.940387     -0.631340      0.000004
  B      -0.359250     -0.873142      0.000003
  B       1.218604     -0.706457      0.000001
  B      -1.218604      0.706462     -0.000001
  B       0.359249      0.873135     -0.000003
  B       1.940389      0.631342     -0.000004
6
Coordinates from ORCA-job FINAL_rank09_B6_rhombic_planar_d2.50_q0_m3_R2SCAN-3C_PBE0_def2-TZVP_OptFreq E -148.631707361510
  B      -1.937643     -0.630506      0.000007
  B      -0.359093     -0.874312      0.000002
  B       1.218279     -0.706821     -0.000001
  B      -1.218280      0.706825     -0.000003
  B       0.359092      0.874306     -0.000003
  B       1.937646      0.630508     -0.000002
6
Coordinates from ORCA-job FINAL_rank09_B6_rhombic_planar_d2.50_q0_m3_R2SCAN-3C_PBE0_def2-TZVP_OptFreq E -148.631765898535
  B      -1.931064     -0.628722     -0.000004
  B      -0.358949     -0.878796      0.000005
  B       1.217356     -0.708279      0.000006
  B      -1.217358      0.708281      0.000005
  B       0.358948      0.878792     -0.000002
  B       1.931068      0.628724     -0.000011
6
Coordinates from ORCA-job FINAL_rank09_B6_rhombic_planar_d2.50_q0_m3_R2SCAN-3C_PBE0_def2-TZVP_OptFreq E -148.631776399899
  B      -1.929866     -0.628524     -0.000000
  B      -0.359121     -0.881268      0.000004
  B       1.216973     -0.708964      0.000004
  B      -1.216975      0.708966      0.000002
  B       0.359121      0.881265     -0.000002
  B       1.929869      0.628525     -0.000008
6
Coordinates from ORCA-job FINAL_rank09_B6_rhombic_planar_d2.50_q0_m3_R2SCAN-3C_PBE0_def2-TZVP_OptFreq E -148.631793603357
  B      -1.928943     -0.628584      0.000014
  B      -0.359811     -0.887663      0.000001
  B       1.215865     -0.710273     -0.000007
  B      -1.215858      0.710281     -0.000011
  B       0.359815      0.887654     -0.000002
  B       1.928933      0.628584      0.000004
6
Coordinates from ORCA-job FINAL_rank09_B6_rhombic_planar_d2.50_q0_m3_R2SCAN-3C_PBE0_def2-TZVP_OptFreq E -148.631802224953
  B      -1.929699     -0.628760      0.000009
  B      -0.360163     -0.889254      0.000001
  B       1.215331     -0.710067     -0.000001
  B      -1.215327      0.710072     -0.000005
  B       0.360166      0.889247     -0.000003
  B       1.929692      0.628762     -0.000001
6
Coordinates from ORCA-job FINAL_rank09_B6_rhombic_planar_d2.50_q0_m3_R2SCAN-3C_PBE0_def2-TZVP_OptFreq E -148.631805970183
  B      -1.930679     -0.628867      0.000002
  B      -0.360594     -0.890211      0.000002
  B       1.214619     -0.709284      0.000004
  B      -1.214618      0.709285      0.000001
  B       0.360596      0.890208     -0.000003
  B       1.930678      0.628868     -0.000006
6
Coordinates from ORCA-job FINAL_rank09_B6_rhombic_planar_d2.50_q0_m3_R2SCAN-3C_PBE0_def2-TZVP_OptFreq E -148.631806706695
  B      -1.931182     -0.628831     -0.000004
  B      -0.361003     -0.890693      0.000004
  B       1.213934     -0.708412      0.000008
  B      -1.213935      0.708410      0.000007
  B       0.361002      0.890693     -0.000003
  B       1.931186      0.628833     -0.000011
6
Coordinates from ORCA-job FINAL_rank09_B6_rhombic_planar_d2.50_q0_m3_R2SCAN-3C_PBE0_def2-TZVP_OptFreq E -148.631806345878
  B      -1.931204     -0.628747     -0.000000
  B      -0.361309     -0.890878      0.000003
  B       1.213487     -0.707836      0.000005
  B      -1.213489      0.707835      0.000003
  B       0.361308      0.890880     -0.000003
  B       1.931209      0.628747     -0.000008
6
Coordinates from ORCA-job FINAL_rank09_B6_rhombic_planar_d2.50_q0_m3_R2SCAN-3C_PBE0_def2-TZVP_OptFreq E -148.631808591882
  B      -1.931068     -0.628729      0.000003
  B      -0.361397     -0.890840      0.000002
  B       1.213419     -0.707759      0.000002
  B      -1.213420      0.707760      0.000000
  B       0.361397      0.890840     -0.000004
  B       1.931069      0.628728     -0.000005
6
Coordinates from ORCA-job FINAL_rank09_B6_rhombic_planar_d2.50_q0_m3_R2SCAN-3C_PBE0_def2-TZVP_OptFreq E -148.631807518628
  B      -1.931004     -0.628745      0.000006
  B      -0.361442     -0.890826      0.000002
  B       1.213416     -0.707781     -0.000000
  B      -1.213418      0.707780     -0.000002
  B       0.361440      0.890828     -0.000004
  B       1.931009      0.628744     -0.000002
