6
Coordinates from ORCA-job B6_linear_chain_d2.20_q0_m1_R2SCAN-3C E -148.501913865754
  B          -4.06088507072490     -0.00000000182216      0.00000004796448
  B          -2.30770497545574     -0.00000000126079     -0.00000000772637
  B          -0.75715849539534     -0.00000000019568     -0.00000005271421
  B           0.75715804287162      0.00000000982834     -0.00000002845930
  B           2.30770376338834     -0.00000000363205      0.00000000529112
  B           4.06088673531602     -0.00000000291767      0.00000003564427
