6
Coordinates from ORCA-job B6_linear_chain_d2.20_q0_m1_R2SCAN-3C E -148.170065748778
  B      -5.500000      0.000000      0.000000
  B      -3.300000      0.000000      0.000000
  B      -1.100000      0.000000      0.000000
  B       1.100000      0.000000      0.000000
  B       3.300000      0.000000      0.000000
  B       5.500000      0.000000      0.000000
6
Coordinates from ORCA-job B6_linear_chain_d2.20_q0_m1_R2SCAN-3C E -148.216552874849
  B      -5.328319      0.000000      0.000000
  B      -3.175088     -0.000000      0.000000
  B      -1.056366     -0.000000     -0.000000
  B       1.056366     -0.000000     -0.000000
  B       3.175088      0.000000     -0.000000
  B       5.328319     -0.000000      0.000000
6
Coordinates from ORCA-job B6_linear_chain_d2.20_q0_m1_R2SCAN-3C E -148.266289921532
  B      -5.158568      0.000000      0.000000
  B      -3.048096     -0.000000      0.000000
  B      -1.011348     -0.000000     -0.000000
  B       1.011348      0.000000     -0.000000
  B       3.048096      0.000000     -0.000000
  B       5.158568     -0.000000      0.000000
6
Coordinates from ORCA-job B6_linear_chain_d2.20_q0_m1_R2SCAN-3C E -148.343238924511
  B      -4.906440      0.000000      0.000000
  B      -2.855427     -0.000000      0.000000
  B      -0.942298     -0.000000     -0.000000
  B       0.942298      0.000000     -0.000000
  B       2.855427      0.000000     -0.000000
  B       4.906440     -0.000000      0.000000
6
Coordinates from ORCA-job B6_linear_chain_d2.20_q0_m1_R2SCAN-3C E -148.432785966689
  B      -4.585110     -0.000000      0.000000
  B      -2.617298      0.000000     -0.000000
  B      -0.862922      0.000000     -0.000000
  B       0.862921      0.000000     -0.000000
  B       2.617297      0.000000     -0.000000
  B       4.585112     -0.000000      0.000000
6
Coordinates from ORCA-job B6_linear_chain_d2.20_q0_m1_R2SCAN-3C E -148.492751654433
  B      -4.248464     -0.000000      0.000000
  B      -2.379167      0.000000     -0.000000
  B      -0.783544     -0.000000     -0.000000
  B       0.783545      0.000000     -0.000000
  B       2.379168      0.000000      0.000000
  B       4.248462     -0.000000      0.000000
6
Coordinates from ORCA-job B6_linear_chain_d2.20_q0_m1_R2SCAN-3C E -148.499401379841
  B      -3.995112     -0.000000      0.000000
  B      -2.284568     -0.000000     -0.000000
  B      -0.733296      0.000000     -0.000000
  B       0.733284      0.000000     -0.000000
  B       2.284576      0.000000     -0.000000
  B       3.995116     -0.000000      0.000000
6
Coordinates from ORCA-job B6_linear_chain_d2.20_q0_m1_R2SCAN-3C E -148.491008369541
  B      -4.007368     -0.000000      0.000000
  B      -2.283498     -0.000000     -0.000000
  B      -0.802500      0.000000     -0.000000
  B       0.802509      0.000000     -0.000000
  B       2.283479      0.000000     -0.000000
  B       4.007378     -0.000000      0.000000
6
Coordinates from ORCA-job B6_linear_chain_d2.20_q0_m1_R2SCAN-3C E -148.500573169539
  B      -4.123479     -0.000000      0.000000
  B      -2.339728     -0.000000     -0.000000
  B      -0.773854      0.000000     -0.000000
  B       0.773847      0.000000     -0.000000
  B       2.339722     -0.000000     -0.000000
  B       4.123492     -0.000000      0.000000
6
Coordinates from ORCA-job B6_linear_chain_d2.20_q0_m1_R2SCAN-3C E -148.501310307360
  B      -4.039517      0.000000      0.000000
  B      -2.291862     -0.000000      0.000000
  B      -0.742066      0.000000     -0.000000
  B       0.742082      0.000000     -0.000000
  B       2.291866     -0.000000     -0.000000
  B       4.039497     -0.000000      0.000000
6
Coordinates from ORCA-job B6_linear_chain_d2.20_q0_m1_R2SCAN-3C E -148.501847362567
  B      -4.057328     -0.000000      0.000000
  B      -2.313389     -0.000000      0.000000
  B      -0.759786      0.000000     -0.000000
  B       0.759731      0.000000     -0.000000
  B       2.313405     -0.000000     -0.000000
  B       4.057367     -0.000000      0.000000
6
Coordinates from ORCA-job B6_linear_chain_d2.20_q0_m1_R2SCAN-3C E -148.501814299730
  B      -4.072227     -0.000000      0.000000
  B      -2.305495     -0.000000      0.000000
  B      -0.757811      0.000000     -0.000000
  B       0.758047      0.000000     -0.000000
  B       2.305397     -0.000000     -0.000000
  B       4.072089     -0.000000      0.000000
6
Coordinates from ORCA-job B6_linear_chain_d2.20_q0_m1_R2SCAN-3C E -148.501913710542
  B      -4.060938     -0.000000      0.000000
  B      -2.307494     -0.000000      0.000000
  B      -0.757303      0.000000     -0.000000
  B       0.756873      0.000000     -0.000000
  B       2.307726     -0.000000      0.000000
  B       4.061136     -0.000000      0.000000
6
Coordinates from ORCA-job B6_linear_chain_d2.20_q0_m1_R2SCAN-3C E -148.501909844812
  B      -4.061346     -0.000000      0.000000
  B      -2.308438      0.000000      0.000000
  B      -0.755892      0.000000     -0.000000
  B       0.758426      0.000000     -0.000000
  B       2.307049     -0.000000      0.000000
  B       4.060200     -0.000000      0.000000
6
Coordinates from ORCA-job B6_linear_chain_d2.20_q0_m1_R2SCAN-3C E -148.501913864570
  B      -4.060886     -0.000000      0.000000
  B      -2.307714     -0.000000     -0.000000
  B      -0.757164      0.000000     -0.000000
  B       0.757165      0.000000     -0.000000
  B       2.307718     -0.000000      0.000000
  B       4.060881     -0.000000      0.000000
6
Coordinates from ORCA-job B6_linear_chain_d2.20_q0_m1_R2SCAN-3C E -148.501913865754
  B      -4.060885     -0.000000      0.000000
  B      -2.307705     -0.000000     -0.000000
  B      -0.757158     -0.000000     -0.000000
  B       0.757158      0.000000     -0.000000
  B       2.307704     -0.000000      0.000000
  B       4.060887     -0.000000      0.000000
