6
Coordinates from ORCA-job B6_rectangular_planar_d2.50_q0_m5_R2SCAN-3C E -148.695229836493
  B          -1.37369360799681     -0.58043854102175      0.05007799100986
  B           0.00593696408695     -1.29641593568833      0.11232925056333
  B           1.37896679861199     -0.56794213241574      0.04941009977915
  B          -1.58110827194935      1.00737640769046     -0.08746717618314
  B          -0.00188927500260      0.41566378903673     -0.03605135053487
  B           1.57178739224982      1.02175641239862     -0.08829881463435
