6
Coordinates from ORCA-job B6_rectangular_planar_d2.50_q0_m5_R2SCAN-3C E -148.137632045395
  B      -2.500000     -1.250000      0.000000
  B       0.000000     -1.250000      0.000000
  B       2.500000     -1.250000      0.000000
  B      -2.500000      1.250000      0.000000
  B       0.000000      1.250000      0.000000
  B       2.500000      1.250000      0.000000
6
Coordinates from ORCA-job B6_rectangular_planar_d2.50_q0_m5_R2SCAN-3C E -148.162709379835
  B      -2.433173     -1.223940      0.000000
  B       0.000000     -1.228199     -0.000000
  B       2.433173     -1.223940      0.000000
  B      -2.433173      1.223940      0.000000
  B      -0.000000      1.228199     -0.000000
  B       2.433173      1.223940     -0.000000
6
Coordinates from ORCA-job B6_rectangular_planar_d2.50_q0_m5_R2SCAN-3C E -148.188618673183
  B      -2.366035     -1.198085      0.000000
  B      -0.000000     -1.206852     -0.000000
  B       2.366035     -1.198085      0.000000
  B      -2.366035      1.198085      0.000000
  B      -0.000000      1.206852     -0.000000
  B       2.366035      1.198085     -0.000000
6
Coordinates from ORCA-job B6_rectangular_planar_d2.50_q0_m5_R2SCAN-3C E -148.228615719422
  B      -2.264875     -1.159611     -0.000000
  B       0.000000     -1.175474     -0.000000
  B       2.264875     -1.159611      0.000000
  B      -2.264875      1.159611      0.000000
  B      -0.000000      1.175474      0.000000
  B       2.264875      1.159611     -0.000000
6
Coordinates from ORCA-job B6_rectangular_planar_d2.50_q0_m5_R2SCAN-3C E -148.288246455667
  B      -2.112307     -1.102231     -0.000000
  B       0.000000     -1.130174     -0.000000
  B       2.112307     -1.102231      0.000000
  B      -2.112307      1.102231      0.000000
  B      -0.000000      1.130174     -0.000000
  B       2.112307      1.102231     -0.000000
6
Coordinates from ORCA-job B6_rectangular_planar_d2.50_q0_m5_R2SCAN-3C E -148.344859397458
  B      -1.953162     -1.041977     -0.000000
  B       0.000000     -1.089636     -0.000000
  B       1.953162     -1.041977      0.000000
  B      -1.953162      1.041977     -0.000000
  B      -0.000000      1.089636      0.000000
  B       1.953162      1.041977     -0.000000
6
Coordinates from ORCA-job B6_rectangular_planar_d2.50_q0_m5_R2SCAN-3C E -148.517056316276
  B      -1.800838     -0.970571      0.000001
  B       0.000000     -1.057362     -0.000002
  B       1.800838     -0.970571      0.000001
  B      -1.800839      0.970575     -0.000001
  B      -0.000000      1.057353      0.000002
  B       1.800839      0.970575     -0.000001
6
Coordinates from ORCA-job B6_rectangular_planar_d2.50_q0_m5_R2SCAN-3C E -148.577534583051
  B      -1.690694     -0.891133     -0.000000
  B       0.000000     -1.025220      0.000001
  B       1.690694     -0.891133     -0.000000
  B      -1.690698      0.891139     -0.000004
  B       0.000000      1.025207      0.000007
  B       1.690698      0.891139     -0.000004
6
Coordinates from ORCA-job B6_rectangular_planar_d2.50_q0_m5_R2SCAN-3C E -148.599771542514
  B      -1.668626     -0.812486     -0.000008
  B      -0.000000     -1.010830      0.000016
  B       1.668626     -0.812486     -0.000008
  B      -1.668632      0.812496     -0.000011
  B      -0.000000      1.010810      0.000022
  B       1.668632      0.812496     -0.000011
6
Coordinates from ORCA-job B6_rectangular_planar_d2.50_q0_m5_R2SCAN-3C E -148.611094424811
  B      -1.547490     -0.798258     -0.000161
  B       0.000000     -1.076543      0.000322
  B       1.547490     -0.798258     -0.000161
  B      -1.547511      0.798274     -0.000162
  B       0.000000      1.076510      0.000324
  B       1.547511      0.798274     -0.000162
6
Coordinates from ORCA-job B6_rectangular_planar_d2.50_q0_m5_R2SCAN-3C E -148.618894845231
  B      -1.615250     -0.783212     -0.001749
  B      -0.000004     -1.070858      0.003496
  B       1.615253     -0.783195     -0.001749
  B      -1.615275      0.783232     -0.001747
  B      -0.000004      1.070819      0.003495
  B       1.615279      0.783214     -0.001747
6
Coordinates from ORCA-job B6_rectangular_planar_d2.50_q0_m5_R2SCAN-3C E -148.618954673204
  B      -1.622469     -0.787829      0.000041
  B       0.000045     -1.054954     -0.000084
  B       1.622425     -0.787927      0.000042
  B      -1.622499      0.787859      0.000042
  B       0.000048      1.054895     -0.000083
  B       1.622450      0.787956      0.000042
6
Coordinates from ORCA-job B6_rectangular_planar_d2.50_q0_m5_R2SCAN-3C E -148.619035269715
  B      -1.623350     -0.785056      0.000971
  B      -0.000294     -1.044146     -0.001944
  B       1.623643     -0.784803      0.000972
  B      -1.623342      0.785119      0.000971
  B      -0.000301      1.044021     -0.001942
  B       1.623644      0.784866      0.000971
6
Coordinates from ORCA-job B6_rectangular_planar_d2.50_q0_m5_R2SCAN-3C E -148.619002570329
  B      -1.626739     -0.782862     -0.000536
  B       0.004269     -1.033079      0.001079
  B       1.622476     -0.784753     -0.000543
  B      -1.627237      0.782744     -0.000537
  B       0.004316      1.033316      0.001081
  B       1.622915      0.784635     -0.000544
6
Coordinates from ORCA-job B6_rectangular_planar_d2.50_q0_m5_R2SCAN-3C E -148.619023859191
  B      -1.625314     -0.782332     -0.002551
  B      -0.001795     -1.020166      0.005132
  B       1.627119     -0.783672     -0.002581
  B      -1.625999      0.782213     -0.002554
  B      -0.001723      1.020403      0.005136
  B       1.627712      0.783554     -0.002583
6
Coordinates from ORCA-job B6_rectangular_planar_d2.50_q0_m5_R2SCAN-3C E -148.619016186510
  B      -1.625570     -0.788111      0.001280
  B       0.000091     -1.036423     -0.002515
  B       1.625428     -0.780414      0.001245
  B      -1.623956      0.789015      0.001261
  B      -0.000168      1.034606     -0.002501
  B       1.624174      0.781327      0.001229
6
Coordinates from ORCA-job B6_rectangular_planar_d2.50_q0_m5_R2SCAN-3C E -148.618984092173
  B      -1.623037     -0.781998      0.003943
  B       0.000226     -1.047636     -0.007827
  B       1.622825     -0.789730      0.003909
  B      -1.623541      0.782038      0.003906
  B       0.000335      1.047549     -0.007803
  B       1.623191      0.789778      0.003872
6
Coordinates from ORCA-job B6_rectangular_planar_d2.50_q0_m5_R2SCAN-3C E -148.619047346674
  B      -1.624277     -0.783836     -0.001244
  B       0.000071     -1.027498      0.002560
  B       1.624251     -0.784523     -0.001282
  B      -1.626897      0.783003     -0.001281
  B       0.000345      1.029146      0.002563
  B       1.626506      0.783708     -0.001316
6
Coordinates from ORCA-job B6_rectangular_planar_d2.50_q0_m5_R2SCAN-3C E -148.619034207735
  B      -1.628546     -0.782551     -0.000156
  B       0.000252     -1.033900      0.000406
  B       1.628136     -0.782148     -0.000194
  B      -1.621950      0.786016     -0.000225
  B      -0.000646      1.026933      0.000430
  B       1.622754      0.785649     -0.000260
6
Coordinates from ORCA-job B6_rectangular_planar_d2.50_q0_m5_R2SCAN-3C E -148.619050765382
  B      -1.624451     -0.784710      0.000756
  B      -0.000237     -1.033780     -0.001408
  B       1.624712     -0.783980      0.000717
  B      -1.625468      0.784918      0.000679
  B      -0.000039      1.033339     -0.001386
  B       1.625482      0.784213      0.000643
6
Coordinates from ORCA-job B6_rectangular_planar_d2.50_q0_m5_R2SCAN-3C E -148.619051257529
  B      -1.624944     -0.783630     -0.000723
  B       0.000346     -1.031050      0.001543
  B       1.624508     -0.784120     -0.000760
  B      -1.625788      0.783989     -0.000781
  B      -0.000116      1.030297      0.001540
  B       1.625994      0.784515     -0.000818
6
Coordinates from ORCA-job B6_rectangular_planar_d2.50_q0_m5_R2SCAN-3C E -148.619051294890
  B      -1.624657     -0.783518     -0.000204
  B      -0.000416     -1.031991      0.000506
  B       1.625214     -0.783757     -0.000241
  B      -1.625966      0.784465     -0.000264
  B       0.000527      1.030072      0.000504
  B       1.625298      0.784729     -0.000301
6
Coordinates from ORCA-job B6_rectangular_planar_d2.50_q0_m5_R2SCAN-3C E -148.619052093337
  B      -1.624493     -0.783971      0.000821
  B      -0.000048     -1.033949     -0.001539
  B       1.624485     -0.783442      0.000784
  B      -1.625639      0.785219      0.000753
  B      -0.000190      1.031402     -0.001535
  B       1.625885      0.784741      0.000716
6
Coordinates from ORCA-job B6_rectangular_planar_d2.50_q0_m5_R2SCAN-3C E -148.619053672962
  B      -1.624070     -0.783465      0.000197
  B       0.000070     -1.033868     -0.000298
  B       1.623934     -0.783250      0.000160
  B      -1.626213      0.785227      0.000146
  B      -0.000151      1.030298     -0.000313
  B       1.626430      0.785058      0.000108
6
Coordinates from ORCA-job B6_rectangular_planar_d2.50_q0_m5_R2SCAN-3C E -148.619102519998
  B      -1.614213     -0.772436     -0.011211
  B       0.002609     -1.034130      0.022402
  B       1.611300     -0.779166     -0.011213
  B      -1.637366      0.785127     -0.011158
  B       0.000881      1.008724      0.022409
  B       1.636789      0.791882     -0.011229
6
Coordinates from ORCA-job B6_rectangular_planar_d2.50_q0_m5_R2SCAN-3C E -148.619226725325
  B      -1.603434     -0.763306     -0.023637
  B       0.004528     -1.036897      0.047601
  B       1.598845     -0.773918     -0.023489
  B      -1.645787      0.786983     -0.026215
  B       0.001286      0.989944      0.052211
  B       1.644563      0.797194     -0.026471
6
Coordinates from ORCA-job B6_rectangular_planar_d2.50_q0_m5_R2SCAN-3C E -148.619475296457
  B      -1.592360     -0.752629     -0.031061
  B       0.006771     -1.038494      0.064050
  B       1.586151     -0.768138     -0.030615
  B      -1.653731      0.788456     -0.041162
  B       0.001844      0.968092      0.080472
  B       1.651325      0.802712     -0.041684
6
Coordinates from ORCA-job B6_rectangular_planar_d2.50_q0_m5_R2SCAN-3C E -148.619908966587
  B      -1.581627     -0.742071     -0.035220
  B       0.008792     -1.039292      0.074998
  B       1.574532     -0.761904     -0.034586
  B      -1.660627      0.790421     -0.056199
  B       0.002397      0.945140      0.107863
  B       1.656532      0.807706     -0.056856
6
Coordinates from ORCA-job B6_rectangular_planar_d2.50_q0_m5_R2SCAN-3C E -148.620574385064
  B      -1.571147     -0.731076     -0.037111
  B       0.010830     -1.039730      0.082154
  B       1.563467     -0.755292     -0.036443
  B      -1.667025      0.792615     -0.070468
  B       0.003013      0.920800      0.132933
  B       1.660863      0.812684     -0.071065
6
Coordinates from ORCA-job B6_rectangular_planar_d2.50_q0_m5_R2SCAN-3C E -148.621518562343
  B      -1.560917     -0.719628     -0.037572
  B       0.012779     -1.039704      0.086972
  B       1.552944     -0.748234     -0.036985
  B      -1.673225      0.795043     -0.083719
  B       0.003801      0.894793      0.155403
  B       1.664618      0.817730     -0.084099
6
Coordinates from ORCA-job B6_rectangular_planar_d2.50_q0_m5_R2SCAN-3C E -148.622791505070
  B      -1.551037     -0.707695     -0.037043
  B       0.014584     -1.039250      0.090225
  B       1.542970     -0.740645     -0.036596
  B      -1.679346      0.797692     -0.095811
  B       0.004888      0.866958      0.175080
  B       1.667941      0.822940     -0.095856
6
Coordinates from ORCA-job B6_rectangular_planar_d2.50_q0_m5_R2SCAN-3C E -148.624443409018
  B      -1.541555     -0.695332     -0.035828
  B       0.016166     -1.038548      0.092503
  B       1.533515     -0.732466     -0.035576
  B      -1.685375      0.800581     -0.106787
  B       0.006396      0.837378      0.192058
  B       1.670852      0.828386     -0.106371
6
Coordinates from ORCA-job B6_rectangular_planar_d2.50_q0_m5_R2SCAN-3C E -148.626513145132
  B      -1.532357     -0.682561     -0.034161
  B       0.017459     -1.037929      0.094286
  B       1.524432     -0.723664     -0.034181
  B      -1.691229      0.803733     -0.116807
  B       0.008441      0.806277      0.206633
  B       1.673255      0.834144     -0.115770
6
Coordinates from ORCA-job B6_rectangular_planar_d2.50_q0_m5_R2SCAN-3C E -148.629006991856
  B      -1.523222     -0.669432     -0.032224
  B       0.018415     -1.037721      0.095956
  B       1.515586     -0.714263     -0.032625
  B      -1.696720      0.807248     -0.126137
  B       0.011101      0.773909      0.219305
  B       1.674840      0.840259     -0.124274
6
Coordinates from ORCA-job B6_rectangular_planar_d2.50_q0_m5_R2SCAN-3C E -148.631870282002
  B      -1.513861     -0.656057     -0.030165
  B       0.019028     -1.038212      0.097805
  B       1.506868     -0.704307     -0.031091
  B      -1.701507      0.811325     -0.135151
  B       0.014284      0.740546      0.230844
  B       1.675189      0.846705     -0.132242
6
Coordinates from ORCA-job B6_rectangular_planar_d2.50_q0_m5_R2SCAN-3C E -148.635023973636
  B      -1.504058     -0.642562     -0.028058
  B       0.019340     -1.039693      0.099978
  B       1.498206     -0.693808     -0.029718
  B      -1.705263      0.816153     -0.144296
  B       0.017805      0.706512      0.242191
  B       1.673970      0.853398     -0.140097
6
Coordinates from ORCA-job B6_rectangular_planar_d2.50_q0_m5_R2SCAN-3C E -148.638353899663
  B      -1.493403     -0.628710     -0.025881
  B       0.019465     -1.042786      0.102490
  B       1.489193     -0.682631     -0.028541
  B      -1.707277      0.821807     -0.153876
  B       0.021463      0.671926      0.253936
  B       1.670558      0.860393     -0.148129
6
Coordinates from ORCA-job B6_rectangular_planar_d2.50_q0_m5_R2SCAN-3C E -148.646479782483
  B      -1.484353     -0.617751     -0.016999
  B       0.016166     -1.065352      0.099053
  B       1.490099     -0.666005     -0.020608
  B      -1.711939      0.841838     -0.156297
  B       0.022171      0.635820      0.244001
  B       1.667856      0.871450     -0.149150
6
Coordinates from ORCA-job B6_rectangular_planar_d2.50_q0_m5_R2SCAN-3C E -148.655070687355
  B      -1.472093     -0.607820     -0.007765
  B       0.013261     -1.098365      0.096171
  B       1.487446     -0.651933     -0.012036
  B      -1.710428      0.866046     -0.156786
  B       0.019945      0.603600      0.229483
  B       1.661869      0.888473     -0.149068
6
Coordinates from ORCA-job B6_rectangular_planar_d2.50_q0_m5_R2SCAN-3C E -148.668216228203
  B      -1.444551     -0.590119      0.005729
  B       0.009058     -1.146218      0.092569
  B       1.476481     -0.633598      0.000232
  B      -1.701789      0.900841     -0.157898
  B       0.017939      0.553945      0.207999
  B       1.642862      0.915149     -0.148632
6
Coordinates from ORCA-job B6_rectangular_planar_d2.50_q0_m5_R2SCAN-3C E -148.684892822891
  B      -1.394982     -0.569042      0.022724
  B       0.004089     -1.217881      0.090889
  B       1.442160     -0.609691      0.016218
  B      -1.666422      0.953720     -0.160172
  B       0.016902      0.481645      0.180046
  B       1.598252      0.961248     -0.149705
6
Coordinates from ORCA-job B6_rectangular_planar_d2.50_q0_m5_R2SCAN-3C E -148.693200484438
  B      -1.354835     -0.559632      0.060342
  B       0.009633     -1.308762      0.071448
  B       1.382953     -0.582007      0.058943
  B      -1.575728      1.017139     -0.143545
  B       0.009854      0.407760      0.092957
  B       1.528124      1.025503     -0.140144
6
Coordinates from ORCA-job B6_rectangular_planar_d2.50_q0_m5_R2SCAN-3C E -148.686509104960
  B      -1.392869     -0.612016      0.090739
  B      -0.003252     -1.315045      0.067281
  B       1.412095     -0.616759      0.090812
  B      -1.541691      1.017666     -0.098583
  B      -0.001792      0.482542     -0.050700
  B       1.527509      1.043612     -0.099550
6
Coordinates from ORCA-job B6_rectangular_planar_d2.50_q0_m5_R2SCAN-3C E -148.691303451722
  B      -1.399215     -0.577948      0.094381
  B      -0.020837     -1.245603      0.066459
  B       1.403948     -0.562075      0.092662
  B      -1.599984      0.975111     -0.071818
  B       0.025286      0.395363     -0.107792
  B       1.590802      1.015151     -0.073892
6
Coordinates from ORCA-job B6_rectangular_planar_d2.50_q0_m5_R2SCAN-3C E -148.694042521138
  B      -1.351653     -0.557093      0.039789
  B       0.013154     -1.312405      0.125646
  B       1.359678     -0.566460      0.037545
  B      -1.602816      1.008277     -0.086794
  B       0.006437      0.402577     -0.031209
  B       1.575201      1.025104     -0.084978
6
Coordinates from ORCA-job B6_rectangular_planar_d2.50_q0_m5_R2SCAN-3C E -148.694213298176
  B      -1.372888     -0.578097      0.071761
  B       0.016784     -1.307067      0.096068
  B       1.389799     -0.586510      0.067863
  B      -1.565345      1.028361     -0.083407
  B      -0.004261      0.409226     -0.073176
  B       1.535911      1.034087     -0.079110
6
Coordinates from ORCA-job B6_rectangular_planar_d2.50_q0_m5_R2SCAN-3C E -148.694870795246
  B      -1.381633     -0.588123      0.051615
  B      -0.003950     -1.286060      0.116086
  B       1.388003     -0.576059      0.046122
  B      -1.585227      0.997987     -0.085093
  B       0.006457      0.429323     -0.046124
  B       1.576351      1.022931     -0.082606
6
Coordinates from ORCA-job B6_rectangular_planar_d2.50_q0_m5_R2SCAN-3C E -148.695097456643
  B      -1.370265     -0.572510      0.054001
  B       0.003810     -1.295245      0.111803
  B       1.375807     -0.564606      0.049808
  B      -1.583689      1.003599     -0.085237
  B       0.003810      0.406157     -0.047351
  B       1.570527      1.022605     -0.083024
6
Coordinates from ORCA-job B6_rectangular_planar_d2.50_q0_m5_R2SCAN-3C E -148.695168415761
  B      -1.371900     -0.577334      0.045854
  B       0.009905     -1.297977      0.117479
  B       1.381307     -0.574255      0.044823
  B      -1.580129      1.011206     -0.088688
  B      -0.001869      0.414561     -0.031114
  B       1.562686      1.023799     -0.088353
6
Coordinates from ORCA-job B6_rectangular_planar_d2.50_q0_m5_R2SCAN-3C E -148.695188809073
  B      -1.373601     -0.581289      0.053666
  B       0.003499     -1.293789      0.110540
  B       1.378864     -0.571578      0.050647
  B      -1.586353      1.002480     -0.086736
  B       0.001664      0.422623     -0.042412
  B       1.575927      1.021552     -0.085706
6
Coordinates from ORCA-job B6_rectangular_planar_d2.50_q0_m5_R2SCAN-3C E -148.695214212197
  B      -1.372654     -0.577895      0.049963
  B       0.004298     -1.295520      0.110925
  B       1.378653     -0.567835      0.050116
  B      -1.580040      1.005716     -0.088254
  B       0.001137      0.412826     -0.032888
  B       1.568607      1.022707     -0.089862
6
Coordinates from ORCA-job B6_rectangular_planar_d2.50_q0_m5_R2SCAN-3C E -148.695222122486
  B      -1.373281     -0.579011      0.049040
  B       0.006329     -1.296134      0.115849
  B       1.379992     -0.570484      0.046345
  B      -1.581033      1.007638     -0.086930
  B      -0.000823      0.414942     -0.038525
  B       1.568816      1.023049     -0.085780
6
Coordinates from ORCA-job B6_rectangular_planar_d2.50_q0_m5_R2SCAN-3C E -148.695225340437
  B      -1.372657     -0.579046      0.050844
  B       0.006186     -1.296151      0.110961
  B       1.378524     -0.569649      0.050340
  B      -1.583322      1.005943     -0.087929
  B      -0.000486      0.417369     -0.035438
  B       1.571754      1.021533     -0.088778
6
Coordinates from ORCA-job B6_rectangular_planar_d2.50_q0_m5_R2SCAN-3C E -148.695227867160
  B      -1.373363     -0.579821      0.050206
  B       0.005124     -1.295768      0.112321
  B       1.378934     -0.568727      0.049317
  B      -1.581081      1.006413     -0.087446
  B      -0.000372      0.415582     -0.036287
  B       1.570759      1.022322     -0.088112
6
Coordinates from ORCA-job B6_rectangular_planar_d2.50_q0_m5_R2SCAN-3C E -148.695228915609
  B      -1.373388     -0.579672      0.049989
  B       0.005711     -1.296058      0.112823
  B       1.379153     -0.568749      0.048912
  B      -1.581221      1.006913     -0.087403
  B      -0.001005      0.415405     -0.036487
  B       1.570751      1.022161     -0.087834
6
Coordinates from ORCA-job B6_rectangular_planar_d2.50_q0_m5_R2SCAN-3C E -148.695229574484
  B      -1.373476     -0.580023      0.050034
  B       0.006008     -1.296325      0.112622
  B       1.379031     -0.568453      0.049099
  B      -1.581323      1.007214     -0.087475
  B      -0.001560      0.415698     -0.036249
  B       1.571321      1.021888     -0.088030
6
Coordinates from ORCA-job B6_rectangular_planar_d2.50_q0_m5_R2SCAN-3C E -148.695229823831
  B      -1.373703     -0.580422      0.050071
  B       0.006027     -1.296429      0.112307
  B       1.378995     -0.567953      0.049403
  B      -1.581145      1.007404     -0.087514
  B      -0.001974      0.415712     -0.035932
  B       1.571800      1.021688     -0.088336
6
Coordinates from ORCA-job B6_rectangular_planar_d2.50_q0_m5_R2SCAN-3C E -148.695229836493
  B      -1.373694     -0.580439      0.050078
  B       0.005937     -1.296416      0.112329
  B       1.378967     -0.567942      0.049410
  B      -1.581108      1.007376     -0.087467
  B      -0.001889      0.415664     -0.036051
  B       1.571787      1.021756     -0.088299
