6
Coordinates from ORCA-job B6_random_3d_seed1003_d2.50_q0_m1_R2SCAN-3C E -148.737099279024
  B           0.42935822973473      0.10717078859521     -1.30699579008735
  B          -0.62240721259157     -0.87205914483144      0.86947802785740
  B          -0.58900582023471      0.49596584207229     -0.06140401427944
  B           1.00368886382699      0.94490880428152     -0.05550744211751
  B           0.35414597017812      0.33944814001969      1.28957485787792
  B          -0.57578005091355     -1.01543444013727     -0.73514563925102
