6
Coordinates from ORCA-job B6_random_3d_seed1003_d2.50_q0_m1_R2SCAN-3C E -148.162063621757
  B       0.245641      1.128679     -1.521570
  B      -0.188163     -1.082174      1.355884
  B      -1.824643      0.248563     -0.065661
  B       1.957133     -0.171984      0.173575
  B       0.108707      1.284490      1.151563
  B      -0.298675     -1.407574     -1.093792
6
Coordinates from ORCA-job B6_random_3d_seed1003_d2.50_q0_m1_R2SCAN-3C E -148.186433837739
  B       0.247992      1.104831     -1.506251
  B      -0.191184     -1.053755      1.335374
  B      -1.792459      0.232679     -0.062259
  B       1.928591     -0.156405      0.174966
  B       0.113666      1.252154      1.140826
  B      -0.306607     -1.379504     -1.082656
6
Coordinates from ORCA-job B6_random_3d_seed1003_d2.50_q0_m1_R2SCAN-3C E -148.211916453067
  B       0.250478      1.081076     -1.491138
  B      -0.194529     -1.024884      1.315378
  B      -1.760343      0.216123     -0.058955
  B       1.900070     -0.140803      0.176229
  B       0.119011      1.219826      1.130497
  B      -0.314687     -1.351337     -1.072011
6
Coordinates from ORCA-job B6_random_3d_seed1003_d2.50_q0_m1_R2SCAN-3C E -148.252022579420
  B       0.254020      1.045519     -1.468118
  B      -0.199612     -0.981582      1.285837
  B      -1.712123      0.190963     -0.054225
  B       1.856814     -0.117900      0.177825
  B       0.127275      1.171911      1.115000
  B      -0.326374     -1.308911     -1.056319
6
Coordinates from ORCA-job B6_random_3d_seed1003_d2.50_q0_m1_R2SCAN-3C E -148.315143545974
  B       0.258697      0.992236     -1.432511
  B      -0.207103     -0.917469      1.242262
  B      -1.639534      0.152986     -0.047675
  B       1.790682     -0.084832      0.179646
  B       0.140001      1.101857      1.091292
  B      -0.342743     -1.244778     -1.033013
6
Coordinates from ORCA-job B6_random_3d_seed1003_d2.50_q0_m1_R2SCAN-3C E -148.382753294089
  B       0.262840      0.937530     -1.395328
  B      -0.214727     -0.850812      1.198101
  B      -1.564577      0.113537     -0.040966
  B       1.721243     -0.052051      0.181296
  B       0.153484      1.030193      1.066637
  B      -0.358263     -1.178398     -1.009741
6
Coordinates from ORCA-job B6_random_3d_seed1003_d2.50_q0_m1_R2SCAN-3C E -148.447481793859
  B       0.267110      0.882122     -1.359871
  B      -0.224850     -0.785157      1.156382
  B      -1.488969      0.070368     -0.034777
  B       1.652900     -0.019404      0.182365
  B       0.168611      0.961521      1.044106
  B      -0.374802     -1.109450     -0.988205
6
Coordinates from ORCA-job B6_random_3d_seed1003_d2.50_q0_m1_R2SCAN-3C E -148.502120802543
  B       0.269856      0.824829     -1.320022
  B      -0.235332     -0.727642      1.112538
  B      -1.412379      0.032742     -0.024974
  B       1.577415      0.011984      0.182960
  B       0.185017      0.900263      1.016899
  B      -0.384577     -1.042175     -0.967400
6
Coordinates from ORCA-job B6_random_3d_seed1003_d2.50_q0_m1_R2SCAN-3C E -148.539736932715
  B       0.270449      0.753425     -1.265732
  B      -0.248404     -0.692100      1.068301
  B      -1.342829      0.008880     -0.010958
  B       1.494411      0.042892      0.174536
  B       0.203620      0.859269      0.984566
  B      -0.377247     -0.972366     -0.950713
6
Coordinates from ORCA-job B6_random_3d_seed1003_d2.50_q0_m1_R2SCAN-3C E -148.558695952327
  B       0.272720      0.671654     -1.196290
  B      -0.257126     -0.690479      1.041813
  B      -1.299256      0.016481      0.007277
  B       1.412988      0.068583      0.145920
  B       0.213764      0.845760      0.950542
  B      -0.343089     -0.911999     -0.949262
6
Coordinates from ORCA-job B6_random_3d_seed1003_d2.50_q0_m1_R2SCAN-3C E -148.565837471181
  B       0.298767      0.608277     -1.127739
  B      -0.254085     -0.715083      1.052636
  B      -1.288259      0.038609      0.004815
  B       1.367076      0.088144      0.082241
  B       0.195687      0.851664      0.935889
  B      -0.319186     -0.871612     -0.947843
6
Coordinates from ORCA-job B6_random_3d_seed1003_d2.50_q0_m1_R2SCAN-3C E -148.567425700767
  B       0.349176      0.605200     -1.094353
  B      -0.264218     -0.745010      1.063525
  B      -1.287445      0.051112      0.014476
  B       1.347952      0.123038      0.044649
  B       0.191242      0.861116      0.925744
  B      -0.336707     -0.895455     -0.954042
6
Coordinates from ORCA-job B6_random_3d_seed1003_d2.50_q0_m1_R2SCAN-3C E -148.569908743455
  B       0.339162      0.595365     -1.112304
  B      -0.265745     -0.765811      1.074642
  B      -1.273491      0.068661      0.016228
  B       1.374784      0.139789      0.061502
  B       0.180546      0.867194      0.932011
  B      -0.355256     -0.905198     -0.972079
6
Coordinates from ORCA-job B6_random_3d_seed1003_d2.50_q0_m1_R2SCAN-3C E -148.572902225862
  B       0.329354      0.579472     -1.113770
  B      -0.269961     -0.787002      1.086733
  B      -1.245640      0.088852      0.012525
  B       1.398751      0.167831      0.073298
  B       0.168080      0.862954      0.927223
  B      -0.380584     -0.912106     -0.986009
6
Coordinates from ORCA-job B6_random_3d_seed1003_d2.50_q0_m1_R2SCAN-3C E -148.576910205229
  B       0.321915      0.565523     -1.107200
  B      -0.278617     -0.808646      1.098106
  B      -1.216410      0.108566      0.008632
  B       1.418784      0.199789      0.080968
  B       0.159817      0.856635      0.917511
  B      -0.405489     -0.921867     -0.998017
6
Coordinates from ORCA-job B6_random_3d_seed1003_d2.50_q0_m1_R2SCAN-3C E -148.581921146690
  B       0.313981      0.552462     -1.096232
  B      -0.290405     -0.830089      1.108367
  B      -1.185499      0.127991      0.003439
  B       1.436381      0.233094      0.085542
  B       0.154149      0.848835      0.906138
  B      -0.428608     -0.932293     -1.007253
6
Coordinates from ORCA-job B6_random_3d_seed1003_d2.50_q0_m1_R2SCAN-3C E -148.587564049112
  B       0.305599      0.539405     -1.083227
  B      -0.304852     -0.851428      1.116626
  B      -1.153752      0.147502     -0.002395
  B       1.452264      0.267566      0.087643
  B       0.150553      0.840200      0.895172
  B      -0.449813     -0.943245     -1.013818
6
Coordinates from ORCA-job B6_random_3d_seed1003_d2.50_q0_m1_R2SCAN-3C E -148.593378050932
  B       0.297298      0.525729     -1.069743
  B      -0.321714     -0.872592      1.121878
  B      -1.122087      0.167063     -0.008496
  B       1.466937      0.303548      0.087731
  B       0.149054      0.831043      0.886129
  B      -0.469488     -0.954790     -1.017498
6
Coordinates from ORCA-job B6_random_3d_seed1003_d2.50_q0_m1_R2SCAN-3C E -148.602139588704
  B       0.286685      0.506525     -1.035320
  B      -0.354600     -0.893600      1.118486
  B      -1.072045      0.191473     -0.020536
  B       1.475143      0.360607      0.077272
  B       0.156051      0.804874      0.869285
  B      -0.491234     -0.969880     -1.009187
6
Coordinates from ORCA-job B6_random_3d_seed1003_d2.50_q0_m1_R2SCAN-3C E -148.611146016739
  B       0.282103      0.474722     -1.013031
  B      -0.407987     -0.932976      1.117937
  B      -1.011812      0.226188     -0.027824
  B       1.512027      0.453522      0.063852
  B       0.159739      0.777547      0.866154
  B      -0.534071     -0.999004     -1.007088
6
Coordinates from ORCA-job B6_random_3d_seed1003_d2.50_q0_m1_R2SCAN-3C E -148.618534641464
  B       0.303147      0.445799     -0.980155
  B      -0.467027     -0.935733      1.096960
  B      -0.988833      0.231706     -0.040329
  B       1.520381      0.549856      0.034535
  B       0.195858      0.721409      0.870973
  B      -0.563525     -1.013036     -0.981983
6
Coordinates from ORCA-job B6_random_3d_seed1003_d2.50_q0_m1_R2SCAN-3C E -148.627054096062
  B       0.320545      0.400792     -0.996878
  B      -0.513074     -0.951738      1.092773
  B      -0.976847      0.253750     -0.034757
  B       1.558274      0.641362      0.017561
  B       0.204064      0.681156      0.899885
  B      -0.592962     -1.025322     -0.978583
6
Coordinates from ORCA-job B6_random_3d_seed1003_d2.50_q0_m1_R2SCAN-3C E -148.637988516942
  B       0.324148      0.355556     -1.020013
  B      -0.536696     -0.948875      1.064905
  B      -0.974195      0.297914     -0.037808
  B       1.561065      0.703026      0.001898
  B       0.213295      0.621672      0.936909
  B      -0.587616     -1.029294     -0.945891
6
Coordinates from ORCA-job B6_random_3d_seed1003_d2.50_q0_m1_R2SCAN-3C E -148.651015725421
  B       0.329406      0.320020     -1.033314
  B      -0.553572     -0.949116      1.016187
  B      -0.954094      0.348479     -0.041288
  B       1.549563      0.753973     -0.015226
  B       0.211971      0.562971      0.962621
  B      -0.583275     -1.036327     -0.888980
6
Coordinates from ORCA-job B6_random_3d_seed1003_d2.50_q0_m1_R2SCAN-3C E -148.665791874409
  B       0.328266      0.289887     -1.054117
  B      -0.556594     -0.958825      0.962280
  B      -0.934950      0.401836     -0.053122
  B       1.527569      0.787711     -0.016669
  B       0.217365      0.524703      0.988630
  B      -0.581656     -1.045313     -0.827000
6
Coordinates from ORCA-job B6_random_3d_seed1003_d2.50_q0_m1_R2SCAN-3C E -148.681756551168
  B       0.317262      0.268230     -1.090745
  B      -0.536447     -0.966175      0.889820
  B      -0.919881      0.460760     -0.072347
  B       1.481566      0.784971     -0.004195
  B       0.224814      0.503069      1.024295
  B      -0.567313     -1.050855     -0.746828
6
Coordinates from ORCA-job B6_random_3d_seed1003_d2.50_q0_m1_R2SCAN-3C E -148.694506227591
  B       0.305509      0.237258     -1.137530
  B      -0.515248     -0.960148      0.869226
  B      -0.878525      0.524096     -0.091797
  B       1.414062      0.787867      0.002015
  B       0.226178      0.465966      1.076504
  B      -0.551976     -1.055039     -0.718418
6
Coordinates from ORCA-job B6_random_3d_seed1003_d2.50_q0_m1_R2SCAN-3C E -148.707316656799
  B       0.301483      0.218499     -1.193843
  B      -0.503607     -0.951130      0.870896
  B      -0.805323      0.563842     -0.100787
  B       1.326345      0.782874     -0.002705
  B       0.222209      0.443292      1.141132
  B      -0.541106     -1.057377     -0.714693
6
Coordinates from ORCA-job B6_random_3d_seed1003_d2.50_q0_m1_R2SCAN-3C E -148.719326551847
  B       0.312001      0.203624     -1.247694
  B      -0.510812     -0.944467      0.862386
  B      -0.715939      0.574500     -0.082009
  B       1.235416      0.780444     -0.023374
  B       0.213401      0.438907      1.202153
  B      -0.534067     -1.053008     -0.711462
6
Coordinates from ORCA-job B6_random_3d_seed1003_d2.50_q0_m1_R2SCAN-3C E -148.726481600398
  B       0.319089      0.190507     -1.310491
  B      -0.512883     -0.928441      0.879210
  B      -0.639966      0.560358     -0.070308
  B       1.139190      0.759393     -0.030170
  B       0.220463      0.454749      1.275675
  B      -0.525893     -1.036567     -0.743916
6
Coordinates from ORCA-job B6_random_3d_seed1003_d2.50_q0_m1_R2SCAN-3C E -148.728251259517
  B       0.345779      0.175904     -1.331057
  B      -0.541081     -0.902624      0.868363
  B      -0.581923      0.534886     -0.048302
  B       1.102106      0.811559     -0.068360
  B       0.210237      0.404878      1.295380
  B      -0.535119     -1.024603     -0.716025
6
Coordinates from ORCA-job B6_random_3d_seed1003_d2.50_q0_m1_R2SCAN-3C E -148.730653820416
  B       0.347776      0.161612     -1.338830
  B      -0.550525     -0.922185      0.857909
  B      -0.577824      0.529321     -0.052460
  B       1.097122      0.828631     -0.049212
  B       0.234398      0.428070      1.304978
  B      -0.550948     -1.025450     -0.722386
6
Coordinates from ORCA-job B6_random_3d_seed1003_d2.50_q0_m1_R2SCAN-3C E -148.732337263491
  B       0.359496      0.153881     -1.329135
  B      -0.560789     -0.914504      0.875923
  B      -0.604098      0.505750     -0.055672
  B       1.110504      0.851414     -0.044869
  B       0.256488      0.425120      1.300879
  B      -0.561601     -1.021661     -0.747126
6
Coordinates from ORCA-job B6_random_3d_seed1003_d2.50_q0_m1_R2SCAN-3C E -148.734119545381
  B       0.375718      0.158676     -1.331052
  B      -0.569638     -0.896509      0.873246
  B      -0.595203      0.486935     -0.063079
  B       1.073550      0.852034     -0.038089
  B       0.283659      0.419660      1.303517
  B      -0.568086     -1.020797     -0.744543
6
Coordinates from ORCA-job B6_random_3d_seed1003_d2.50_q0_m1_R2SCAN-3C E -148.735604339151
  B       0.398458      0.134541     -1.311164
  B      -0.600810     -0.897168      0.878765
  B      -0.561887      0.493977     -0.063132
  B       1.039618      0.915268     -0.048038
  B       0.310373      0.381236      1.288544
  B      -0.585752     -1.027853     -0.744975
6
Coordinates from ORCA-job B6_random_3d_seed1003_d2.50_q0_m1_R2SCAN-3C E -148.736623922060
  B       0.412436      0.119528     -1.308557
  B      -0.607624     -0.880282      0.865558
  B      -0.576094      0.483750     -0.058977
  B       1.026850      0.930641     -0.053015
  B       0.326126      0.360494      1.288207
  B      -0.581695     -1.014132     -0.733216
6
Coordinates from ORCA-job B6_random_3d_seed1003_d2.50_q0_m1_R2SCAN-3C E -148.736992646776
  B       0.424791      0.111914     -1.310422
  B      -0.612389     -0.876010      0.870565
  B      -0.583991      0.489112     -0.060467
  B       1.013440      0.938453     -0.051752
  B       0.340909      0.350429      1.288944
  B      -0.582760     -1.013899     -0.736868
6
Coordinates from ORCA-job B6_random_3d_seed1003_d2.50_q0_m1_R2SCAN-3C E -148.737077247441
  B       0.430942      0.105289     -1.305032
  B      -0.617523     -0.875364      0.870429
  B      -0.588392      0.495904     -0.064495
  B       1.003441      0.945065     -0.056167
  B       0.351615      0.340510      1.290770
  B      -0.580083     -1.011403     -0.735505
6
Coordinates from ORCA-job B6_random_3d_seed1003_d2.50_q0_m1_R2SCAN-3C E -148.737091216504
  B       0.432971      0.103986     -1.305671
  B      -0.618774     -0.874125      0.869312
  B      -0.590077      0.496885     -0.060982
  B       1.002111      0.945920     -0.054930
  B       0.353642      0.340200      1.288177
  B      -0.579873     -1.012866     -0.735905
6
Coordinates from ORCA-job B6_random_3d_seed1003_d2.50_q0_m1_R2SCAN-3C E -148.737094527913
  B       0.431991      0.104764     -1.306174
  B      -0.618846     -0.874231      0.869399
  B      -0.589113      0.495945     -0.061347
  B       1.002842      0.945475     -0.055403
  B       0.352833      0.340833      1.289475
  B      -0.579707     -1.012787     -0.735951
6
Coordinates from ORCA-job B6_random_3d_seed1003_d2.50_q0_m1_R2SCAN-3C E -148.737095774067
  B       0.431265      0.105379     -1.306271
  B      -0.619157     -0.874041      0.869349
  B      -0.589096      0.495923     -0.061495
  B       1.003345      0.945009     -0.055518
  B       0.352671      0.340896      1.289708
  B      -0.579028     -1.013165     -0.735772
6
Coordinates from ORCA-job B6_random_3d_seed1003_d2.50_q0_m1_R2SCAN-3C E -148.737097829183
  B       0.428301      0.107771     -1.307001
  B      -0.621362     -0.872646      0.869192
  B      -0.588777      0.495828     -0.061639
  B       1.004816      0.943542     -0.055731
  B       0.352761      0.340703      1.290370
  B      -0.575738     -1.015199     -0.735190
6
Coordinates from ORCA-job B6_random_3d_seed1003_d2.50_q0_m1_R2SCAN-3C E -148.737098988499
  B       0.429220      0.107181     -1.306909
  B      -0.621881     -0.872425      0.869330
  B      -0.588877      0.495915     -0.061498
  B       1.003973      0.944606     -0.055695
  B       0.353633      0.339908      1.289968
  B      -0.576069     -1.015185     -0.735195
6
Coordinates from ORCA-job B6_random_3d_seed1003_d2.50_q0_m1_R2SCAN-3C E -148.737099271156
  B       0.429453      0.107063     -1.306973
  B      -0.622317     -0.872067      0.869452
  B      -0.589013      0.495985     -0.061405
  B       1.003564      0.944913     -0.055524
  B       0.354169      0.339445      1.289627
  B      -0.575855     -1.015338     -0.735177
6
Coordinates from ORCA-job B6_random_3d_seed1003_d2.50_q0_m1_R2SCAN-3C E -148.737099279024
  B       0.429358      0.107171     -1.306996
  B      -0.622407     -0.872059      0.869478
  B      -0.589006      0.495966     -0.061404
  B       1.003689      0.944909     -0.055507
  B       0.354146      0.339448      1.289575
  B      -0.575780     -1.015434     -0.735146
