6
Coordinates from ORCA-job B6_random_3d_seed1000_d3.00_q0_m3_R2SCAN-3C E -147.996640308490
  B       0.932351     -0.947138      1.875669
  B       2.333628     -0.223821     -0.702504
  B      -0.037024     -2.185974     -0.793046
  B      -1.044287      1.104845      1.600394
  B      -0.093303      2.218480     -1.016352
  B      -2.091365      0.033609     -0.964161
6
Coordinates from ORCA-job B6_random_3d_seed1000_d3.00_q0_m3_R2SCAN-3C E -148.011808720346
  B       0.913824     -0.919468      1.846942
  B       2.301463     -0.232507     -0.682816
  B      -0.038642     -2.149373     -0.789851
  B      -1.020251      1.076340      1.580726
  B      -0.108220      2.184757     -1.008900
  B      -2.048174      0.040250     -0.946100
6
Coordinates from ORCA-job B6_random_3d_seed1000_d3.00_q0_m3_R2SCAN-3C E -148.027986607558
  B       0.894312     -0.891438      1.818109
  B       2.269618     -0.240548     -0.663688
  B      -0.040408     -2.113022     -0.786146
  B      -0.995774      1.047127      1.560268
  B      -0.122441      2.151288     -1.000976
  B      -2.005307      0.046593     -0.927566
6
Coordinates from ORCA-job B6_random_3d_seed1000_d3.00_q0_m3_R2SCAN-3C E -148.054360821094
  B       0.863612     -0.849135      1.774407
  B       2.222320     -0.251267     -0.635871
  B      -0.043484     -2.058545     -0.779424
  B      -0.958047      1.002806      1.528231
  B      -0.142564      2.100982     -0.987664
  B      -1.941837      0.055160     -0.899679
6
Coordinates from ORCA-job B6_random_3d_seed1000_d3.00_q0_m3_R2SCAN-3C E -148.098482136884
  B       0.818444     -0.788982      1.708228
  B       2.153085     -0.264642     -0.595947
  B      -0.049474     -1.977651     -0.766772
  B      -0.902881      0.939705      1.477688
  B      -0.170710      2.025880     -0.964453
  B      -1.848464      0.065690     -0.858745
6
Coordinates from ORCA-job B6_random_3d_seed1000_d3.00_q0_m3_R2SCAN-3C E -148.151056575650
  B       0.772533     -0.729128      1.637856
  B       2.084687     -0.275396     -0.555396
  B      -0.059606     -1.896035     -0.750615
  B      -0.846374      0.877124      1.422478
  B      -0.198728      1.950039     -0.936575
  B      -1.752511      0.073395     -0.817748
6
Coordinates from ORCA-job B6_random_3d_seed1000_d3.00_q0_m3_R2SCAN-3C E -148.192307989076
  B       0.736341     -0.683472      1.589355
  B       2.040451     -0.280708     -0.526962
  B      -0.070505     -1.841691     -0.738590
  B      -0.800932      0.828683      1.383414
  B      -0.217594      1.901161     -0.916471
  B      -1.687761      0.076027     -0.790746
6
Coordinates from ORCA-job B6_random_3d_seed1000_d3.00_q0_m3_R2SCAN-3C E -148.237074941543
  B       0.700277     -0.637668      1.541744
  B       1.996994     -0.285585     -0.497906
  B      -0.083172     -1.786184     -0.726861
  B      -0.754117      0.779661      1.343526
  B      -0.236869      1.852252     -0.896245
  B      -1.623113      0.077524     -0.764258
6
Coordinates from ORCA-job B6_random_3d_seed1000_d3.00_q0_m3_R2SCAN-3C E -148.306949853551
  B       0.657166     -0.579745      1.473522
  B       1.933604     -0.293955     -0.454865
  B      -0.102266     -1.699807     -0.709945
  B      -0.694613      0.716942      1.283151
  B      -0.266801      1.776726     -0.866327
  B      -1.527090      0.079839     -0.725535
6
Coordinates from ORCA-job B6_random_3d_seed1000_d3.00_q0_m3_R2SCAN-3C E -148.380904183597
  B       0.615290     -0.521857      1.405767
  B       1.870376     -0.305354     -0.411294
  B      -0.120916     -1.608392     -0.694150
  B      -0.635695      0.655570      1.222910
  B      -0.299649      1.697452     -0.835913
  B      -1.429406      0.082581     -0.687321
6
Coordinates from ORCA-job B6_random_3d_seed1000_d3.00_q0_m3_R2SCAN-3C E -148.452606426795
  B       0.587339     -0.472020      1.334999
  B       1.805315     -0.326512     -0.360748
  B      -0.135944     -1.508302     -0.677975
  B      -0.585132      0.602417      1.157811
  B      -0.343188      1.613667     -0.804834
  B      -1.328391      0.090750     -0.649253
6
Coordinates from ORCA-job B6_random_3d_seed1000_d3.00_q0_m3_R2SCAN-3C E -148.498225637452
  B       0.586986     -0.452597      1.286302
  B       1.762616     -0.344720     -0.323786
  B      -0.144972     -1.434887     -0.664914
  B      -0.567428      0.580644      1.108372
  B      -0.372045      1.558909     -0.782145
  B      -1.265158      0.092651     -0.623829
6
Coordinates from ORCA-job B6_random_3d_seed1000_d3.00_q0_m3_R2SCAN-3C E -148.560501472527
  B       0.607525     -0.434312      1.214976
  B       1.691458     -0.378014     -0.262865
  B      -0.151994     -1.320568     -0.643878
  B      -0.550322      0.556583      1.039098
  B      -0.411945      1.487434     -0.752429
  B      -1.184722      0.088877     -0.594902
6
Coordinates from ORCA-job B6_random_3d_seed1000_d3.00_q0_m3_R2SCAN-3C E -148.605149952651
  B       0.633758     -0.412264      1.149656
  B       1.600041     -0.417228     -0.208347
  B      -0.145144     -1.213743     -0.621974
  B      -0.533162      0.536141      0.978167
  B      -0.437436      1.445501     -0.719892
  B      -1.118056      0.061593     -0.577610
6
Coordinates from ORCA-job B6_random_3d_seed1000_d3.00_q0_m3_R2SCAN-3C E -148.627823873720
  B       0.654026     -0.388680      1.094207
  B       1.519064     -0.479123     -0.182872
  B      -0.078265     -1.179032     -0.593608
  B      -0.535067      0.548240      0.905045
  B      -0.463494      1.435193     -0.652382
  B      -1.096264      0.063403     -0.570389
6
Coordinates from ORCA-job B6_random_3d_seed1000_d3.00_q0_m3_R2SCAN-3C E -148.640578124042
  B       0.651097     -0.368299      1.108481
  B       1.468221     -0.535698     -0.220169
  B      -0.037329     -1.118644     -0.574386
  B      -0.544635      0.562869      0.889639
  B      -0.469964      1.446471     -0.616786
  B      -1.067390      0.013300     -0.586778
6
Coordinates from ORCA-job B6_random_3d_seed1000_d3.00_q0_m3_R2SCAN-3C E -148.647398756011
  B       0.670051     -0.350316      1.126284
  B       1.457194     -0.583162     -0.224576
  B      -0.001975     -1.115264     -0.577785
  B      -0.541592      0.583077      0.888686
  B      -0.494631      1.447351     -0.586093
  B      -1.089047      0.018314     -0.626516
6
Coordinates from ORCA-job B6_random_3d_seed1000_d3.00_q0_m3_R2SCAN-3C E -148.655648912992
  B       0.713736     -0.317600      1.140747
  B       1.472781     -0.636464     -0.194775
  B      -0.020108     -1.103555     -0.594858
  B      -0.524365      0.604847      0.866672
  B      -0.529984      1.460481     -0.525673
  B      -1.112061     -0.007710     -0.692114
6
Coordinates from ORCA-job B6_random_3d_seed1000_d3.00_q0_m3_R2SCAN-3C E -148.667641312847
  B       0.772726     -0.288065      1.183293
  B       1.473115     -0.739315     -0.164849
  B      -0.015291     -1.054424     -0.604149
  B      -0.489069      0.612809      0.823379
  B      -0.628604      1.471927     -0.477714
  B      -1.112877     -0.002932     -0.759959
6
Coordinates from ORCA-job B6_random_3d_seed1000_d3.00_q0_m3_R2SCAN-3C E -148.687908225414
  B       0.849194     -0.312704      1.214667
  B       1.473521     -0.801188     -0.086344
  B      -0.009019     -0.996578     -0.601298
  B      -0.411245      0.580127      0.803768
  B      -0.743148      1.500103     -0.503244
  B      -1.159303      0.030241     -0.827550
6
Coordinates from ORCA-job B6_random_3d_seed1000_d3.00_q0_m3_R2SCAN-3C E -148.699197836858
  B       0.898634     -0.339711      1.247304
  B       1.477567     -0.838159     -0.035648
  B      -0.003280     -0.932658     -0.584676
  B      -0.353976      0.560053      0.748837
  B      -0.817237      1.474751     -0.508991
  B      -1.201708      0.075724     -0.866827
6
Coordinates from ORCA-job B6_random_3d_seed1000_d3.00_q0_m3_R2SCAN-3C E -148.705643768253
  B       0.903296     -0.343171      1.263667
  B       1.478040     -0.872372     -0.024208
  B       0.010488     -0.899847     -0.574875
  B      -0.319812      0.559720      0.716858
  B      -0.855688      1.491381     -0.493593
  B      -1.216324      0.064289     -0.887848
6
Coordinates from ORCA-job B6_random_3d_seed1000_d3.00_q0_m3_R2SCAN-3C E -148.710743089481
  B       0.897126     -0.344758      1.285873
  B       1.477171     -0.899761     -0.021127
  B       0.011296     -0.850835     -0.561728
  B      -0.276156      0.545406      0.681078
  B      -0.895132      1.485148     -0.489963
  B      -1.214305      0.064801     -0.894133
6
Coordinates from ORCA-job B6_random_3d_seed1000_d3.00_q0_m3_R2SCAN-3C E -148.715291193098
  B       0.895100     -0.350373      1.279772
  B       1.495622     -0.950471      0.017066
  B       0.023411     -0.822132     -0.548235
  B      -0.231131      0.555274      0.619668
  B      -0.959561      1.503858     -0.453109
  B      -1.223442      0.063844     -0.915162
6
Coordinates from ORCA-job B6_random_3d_seed1000_d3.00_q0_m3_R2SCAN-3C E -148.719503263385
  B       0.898292     -0.336373      1.281502
  B       1.506608     -1.033892      0.037589
  B       0.044367     -0.810451     -0.546548
  B      -0.210500      0.581676      0.561744
  B      -1.050023      1.523724     -0.412524
  B      -1.188743      0.075316     -0.921762
6
Coordinates from ORCA-job B6_random_3d_seed1000_d3.00_q0_m3_R2SCAN-3C E -148.726867600594
  B       0.859336     -0.290274      1.141184
  B       1.514481     -1.283795      0.132014
  B       0.161691     -0.815133     -0.473305
  B      -0.154209      0.637899      0.379187
  B      -1.357686      1.586869     -0.287926
  B      -1.023613      0.164434     -0.891155
6
Coordinates from ORCA-job B6_random_3d_seed1000_d3.00_q0_m3_R2SCAN-3C E -148.732160189549
  B       0.919056     -0.281158      1.177896
  B       1.495498     -1.265913      0.143258
  B       0.124594     -0.812068     -0.502397
  B      -0.142978      0.623603      0.428400
  B      -1.344044      1.563994     -0.296837
  B      -1.052127      0.171542     -0.950320
6
Coordinates from ORCA-job B6_random_3d_seed1000_d3.00_q0_m3_R2SCAN-3C E -148.733882473152
  B       0.925396     -0.262951      1.166570
  B       1.493953     -1.270446      0.147554
  B       0.117225     -0.833496     -0.505657
  B      -0.165736      0.633079      0.433444
  B      -1.330932      1.540605     -0.284245
  B      -1.039906      0.193209     -0.957666
6
Coordinates from ORCA-job B6_random_3d_seed1000_d3.00_q0_m3_R2SCAN-3C E -148.726878102691
  B       1.023379     -0.137093      0.984214
  B       1.434847     -1.460072      0.279389
  B       0.107450     -0.843519     -0.485726
  B      -0.206314      0.652861      0.432068
  B      -1.509193      1.473631     -0.158864
  B      -0.850170      0.314192     -1.051081
6
Coordinates from ORCA-job B6_random_3d_seed1000_d3.00_q0_m3_R2SCAN-3C E -148.726884903066
  B       1.002223     -0.199333      0.975998
  B       1.375171     -1.346150      0.236078
  B       0.104330     -0.802856     -0.463468
  B      -0.186862      0.669328      0.503404
  B      -1.403824      1.390853     -0.228290
  B      -0.891037      0.288159     -1.023722
6
Coordinates from ORCA-job B6_random_3d_seed1000_d3.00_q0_m3_R2SCAN-3C E -148.739766065864
  B       0.986110     -0.172403      0.968328
  B       1.433939     -1.458333      0.234112
  B       0.125254     -0.791203     -0.476503
  B      -0.210520      0.737104      0.540588
  B      -1.432543      1.406033     -0.228942
  B      -0.902240      0.278803     -1.037583
6
Coordinates from ORCA-job B6_random_3d_seed1000_d3.00_q0_m3_R2SCAN-3C E -148.736225950908
  B       1.000256     -0.198636      1.023355
  B       1.412646     -1.415777      0.209327
  B       0.132987     -0.829488     -0.485114
  B      -0.202714      0.758366      0.511712
  B      -1.457007      1.456797     -0.193087
  B      -0.886168      0.228739     -1.066192
6
Coordinates from ORCA-job B6_random_3d_seed1000_d3.00_q0_m3_R2SCAN-3C E -148.741813221132
  B       0.974189     -0.209892      0.992744
  B       1.437971     -1.437278      0.221006
  B       0.140460     -0.794405     -0.481264
  B      -0.197119      0.762974      0.527333
  B      -1.444159      1.435633     -0.225529
  B      -0.911341      0.242967     -1.034291
6
Coordinates from ORCA-job B6_random_3d_seed1000_d3.00_q0_m3_R2SCAN-3C E -148.742223241579
  B       0.980113     -0.200467      1.009897
  B       1.438610     -1.424704      0.212652
  B       0.143894     -0.781686     -0.483202
  B      -0.211936      0.726334      0.531513
  B      -1.405423      1.441904     -0.242866
  B      -0.945259      0.238620     -1.027994
6
Coordinates from ORCA-job B6_random_3d_seed1000_d3.00_q0_m3_R2SCAN-3C E -148.742729569317
  B       0.958914     -0.218634      1.011058
  B       1.434549     -1.429096      0.209835
  B       0.165317     -0.764887     -0.500451
  B      -0.194626      0.754438      0.535200
  B      -1.413684      1.443544     -0.252651
  B      -0.950471      0.214634     -1.002991
6
Coordinates from ORCA-job B6_random_3d_seed1000_d3.00_q0_m3_R2SCAN-3C E -148.742961435230
  B       0.958047     -0.226080      1.006774
  B       1.445971     -1.429931      0.215584
  B       0.173383     -0.770078     -0.497713
  B      -0.201947      0.753339      0.532132
  B      -1.413114      1.458043     -0.250618
  B      -0.962339      0.214708     -1.006159
6
Coordinates from ORCA-job B6_random_3d_seed1000_d3.00_q0_m3_R2SCAN-3C E -148.743124083971
  B       0.965758     -0.218079      1.011797
  B       1.437763     -1.427842      0.219429
  B       0.176277     -0.771685     -0.513779
  B      -0.206962      0.747686      0.537550
  B      -1.405604      1.458905     -0.250942
  B      -0.967233      0.211015     -1.004055
6
Coordinates from ORCA-job B6_random_3d_seed1000_d3.00_q0_m3_R2SCAN-3C E -148.743189900970
  B       0.965923     -0.206320      1.000500
  B       1.421458     -1.434740      0.227316
  B       0.189261     -0.767355     -0.524951
  B      -0.207682      0.752301      0.547597
  B      -1.401017      1.448344     -0.244328
  B      -0.967943      0.207770     -1.006134
6
Coordinates from ORCA-job B6_random_3d_seed1000_d3.00_q0_m3_R2SCAN-3C E -148.743304618081
  B       0.967865     -0.209129      1.003042
  B       1.421953     -1.440008      0.233772
  B       0.198130     -0.760318     -0.534951
  B      -0.206779      0.747125      0.541003
  B      -1.406872      1.455794     -0.248857
  B      -0.974297      0.206536     -0.994009
6
Coordinates from ORCA-job B6_random_3d_seed1000_d3.00_q0_m3_R2SCAN-3C E -148.743333656129
  B       0.970183     -0.209035      0.998870
  B       1.420004     -1.445686      0.237298
  B       0.200821     -0.756672     -0.534922
  B      -0.208229      0.750381      0.539911
  B      -1.410788      1.454360     -0.246048
  B      -0.971991      0.206653     -0.995108
6
Coordinates from ORCA-job B6_random_3d_seed1000_d3.00_q0_m3_R2SCAN-3C E -148.743343609717
  B       0.971905     -0.207534      0.996681
  B       1.416610     -1.449134      0.240504
  B       0.203792     -0.753026     -0.534934
  B      -0.207034      0.749502      0.537418
  B      -1.413689      1.452575     -0.243268
  B      -0.971584      0.207616     -0.996401
6
Coordinates from ORCA-job B6_random_3d_seed1000_d3.00_q0_m3_R2SCAN-3C E -148.743345914149
  B       0.973035     -0.207259      0.996397
  B       1.414871     -1.450498      0.241794
  B       0.204772     -0.750965     -0.535114
  B      -0.206122      0.749739      0.536464
  B      -1.414731      1.450785     -0.242313
  B      -0.971824      0.208199     -0.997229
6
Coordinates from ORCA-job B6_random_3d_seed1000_d3.00_q0_m3_R2SCAN-3C E -148.743346559293
  B       0.972818     -0.207490      0.997230
  B       1.414620     -1.450345      0.241875
  B       0.204798     -0.750201     -0.535151
  B      -0.205179      0.749654      0.535359
  B      -1.414785      1.450395     -0.241749
  B      -0.972272      0.207987     -0.997564
6
Coordinates from ORCA-job B6_random_3d_seed1000_d3.00_q0_m3_R2SCAN-3C E -148.743346675741
  B       0.972660     -0.207748      0.997530
  B       1.414715     -1.450288      0.241794
  B       0.204764     -0.750175     -0.535277
  B      -0.204848      0.750078      0.535366
  B      -1.414836      1.450246     -0.241772
  B      -0.972456      0.207887     -0.997642
6
Coordinates from ORCA-job B6_random_3d_seed1000_d3.00_q0_m3_R2SCAN-3C E -148.743346682833
  B       0.972551     -0.207805      0.997567
  B       1.414824     -1.450260      0.241764
  B       0.204755     -0.750206     -0.535288
  B      -0.204840      0.750131      0.535330
  B      -1.414787      1.450288     -0.241777
  B      -0.972503      0.207853     -0.997596
