6
Coordinates from ORCA-job B6_random_3d_seed1000_d3.00_q0_m3_R2SCAN-3C E -148.743346682833
  B           0.97255115662037     -0.20780547099186      0.99756731994138
  B           1.41482376296735     -1.45026030114715      0.24176418385389
  B           0.20475488545183     -0.75020618659967     -0.53528837588561
  B          -0.20484001453126      0.75013146345912      0.53533000554663
  B          -1.41478668397092      1.45028782724726     -0.24177690317089
  B          -0.97250309653737      0.20785266803230     -0.99759621028541
