6
Coordinates from ORCA-job B6_random_3d_seed1001_d2.20_q0_m5_R2SCAN-3C E -148.645478687534
  B           0.04135864106717     -1.12372336468369     -0.33701884878424
  B          -0.03820878756034      1.12684583384154      0.33292191062820
  B           0.28245741289727      0.54253160110058     -1.17580720943994
  B          -0.28474945892261     -0.54700468339497      1.17352224482002
  B           1.09109964384107     -0.01508390159952      0.43657411934327
  B          -1.09195746132257      0.01643452473606     -0.43019220656731
