6
Coordinates from ORCA-job B6_random_3d_seed1001_d2.20_q0_m5_R2SCAN-3C E -148.347446655757
  B       0.146493     -1.569205     -0.447151
  B      -0.067161      1.438376      0.487309
  B       0.392042      0.552130     -1.392666
  B      -0.450617     -0.699258      1.444170
  B       1.495508      0.105786      0.466321
  B      -1.516265      0.172172     -0.557982
6
Coordinates from ORCA-job B6_random_3d_seed1001_d2.20_q0_m5_R2SCAN-3C E -148.375293335417
  B       0.142302     -1.539917     -0.430046
  B      -0.061706      1.410038      0.473019
  B       0.378057      0.544784     -1.367849
  B      -0.438705     -0.696111      1.415022
  B       1.462536      0.107024      0.460661
  B      -1.482484      0.174182     -0.550806
6
Coordinates from ORCA-job B6_random_3d_seed1001_d2.20_q0_m5_R2SCAN-3C E -148.404166470002
  B       0.137521     -1.510295     -0.411369
  B      -0.056370      1.382138      0.458348
  B       0.364111      0.538206     -1.342907
  B      -0.426404     -0.693677      1.384585
  B       1.430716      0.107791      0.455275
  B      -1.449574      0.175836     -0.543933
6
Coordinates from ORCA-job B6_random_3d_seed1001_d2.20_q0_m5_R2SCAN-3C E -148.453283632325
  B       0.127635     -1.465373     -0.378497
  B      -0.048071      1.339556      0.433644
  B       0.345036      0.532679     -1.305077
  B      -0.407856     -0.692499      1.336106
  B       1.386968      0.108995      0.447478
  B      -1.403711      0.176642     -0.533654
6
Coordinates from ORCA-job B6_random_3d_seed1001_d2.20_q0_m5_R2SCAN-3C E -148.525121151701
  B       0.108732     -1.398101     -0.320574
  B      -0.035732      1.278803      0.391426
  B       0.322060      0.532640     -1.246078
  B      -0.382440     -0.697150      1.259837
  B       1.330226      0.110070      0.433104
  B      -1.342845      0.173739     -0.517716
6
Coordinates from ORCA-job B6_random_3d_seed1001_d2.20_q0_m5_R2SCAN-3C E -148.583496569494
  B       0.085824     -1.332331     -0.262463
  B      -0.026219      1.219568      0.349577
  B       0.294535      0.534825     -1.187066
  B      -0.357364     -0.700201      1.182370
  B       1.271249      0.109998      0.417833
  B      -1.268025      0.168141     -0.500250
6
Coordinates from ORCA-job B6_random_3d_seed1001_d2.20_q0_m5_R2SCAN-3C E -148.610402476895
  B       0.072609     -1.285484     -0.246719
  B      -0.022366      1.180049      0.334576
  B       0.272107      0.527405     -1.158428
  B      -0.341997     -0.685753      1.146026
  B       1.220335      0.105808      0.410079
  B      -1.200688      0.157976     -0.485534
6
Coordinates from ORCA-job B6_random_3d_seed1001_d2.20_q0_m5_R2SCAN-3C E -148.627646887689
  B       0.067114     -1.235771     -0.256916
  B      -0.020033      1.147617      0.339916
  B       0.253099      0.508630     -1.149377
  B      -0.323343     -0.654404      1.130606
  B       1.159291      0.091925      0.408326
  B      -1.136127      0.142004     -0.472555
6
Coordinates from ORCA-job B6_random_3d_seed1001_d2.20_q0_m5_R2SCAN-3C E -148.639657943290
  B       0.051443     -1.158919     -0.285894
  B      -0.031770      1.123985      0.350842
  B       0.262450      0.494482     -1.157128
  B      -0.301720     -0.599629      1.116078
  B       1.103696      0.051765      0.413423
  B      -1.084099      0.088316     -0.437321
6
Coordinates from ORCA-job B6_random_3d_seed1001_d2.20_q0_m5_R2SCAN-3C E -148.643508056198
  B       0.033639     -1.126332     -0.315321
  B      -0.038546      1.126990      0.345539
  B       0.278428      0.505785     -1.165398
  B      -0.294556     -0.574719      1.133704
  B       1.089806      0.025430      0.420789
  B      -1.068771      0.042847     -0.419313
6
Coordinates from ORCA-job B6_random_3d_seed1001_d2.20_q0_m5_R2SCAN-3C E -148.645221259821
  B       0.036760     -1.129843     -0.330359
  B      -0.043817      1.137182      0.334064
  B       0.288068      0.524695     -1.173910
  B      -0.288283     -0.568395      1.159156
  B       1.088281      0.004236      0.429000
  B      -1.081010      0.032126     -0.417951
6
Coordinates from ORCA-job B6_random_3d_seed1001_d2.20_q0_m5_R2SCAN-3C E -148.645429928558
  B       0.035377     -1.128427     -0.338446
  B      -0.041232      1.139572      0.329055
  B       0.290903      0.534005     -1.175163
  B      -0.281558     -0.562470      1.169941
  B       1.082712     -0.004767      0.434978
  B      -1.086202      0.022087     -0.420365
6
Coordinates from ORCA-job B6_random_3d_seed1001_d2.20_q0_m5_R2SCAN-3C E -148.645449286632
  B       0.038082     -1.127933     -0.339751
  B      -0.040557      1.139348      0.327670
  B       0.290537      0.535775     -1.173787
  B      -0.281485     -0.560372      1.172606
  B       1.082672     -0.008009      0.434959
  B      -1.089250      0.021192     -0.421697
6
Coordinates from ORCA-job B6_random_3d_seed1001_d2.20_q0_m5_R2SCAN-3C E -148.645457068828
  B       0.038956     -1.126348     -0.339904
  B      -0.039626      1.138559      0.327982
  B       0.289850      0.536582     -1.173209
  B      -0.281861     -0.558452      1.173136
  B       1.083251     -0.009731      0.434867
  B      -1.090571      0.019391     -0.422873
6
Coordinates from ORCA-job B6_random_3d_seed1001_d2.20_q0_m5_R2SCAN-3C E -148.645466019086
  B       0.040723     -1.123821     -0.339030
  B      -0.038196      1.135996      0.329524
  B       0.287732      0.537626     -1.172941
  B      -0.282834     -0.554965      1.173032
  B       1.084986     -0.012228      0.434800
  B      -1.092412      0.017393     -0.425384
6
Coordinates from ORCA-job B6_random_3d_seed1001_d2.20_q0_m5_R2SCAN-3C E -148.645470917970
  B       0.041436     -1.122663     -0.338191
  B      -0.037495      1.133511      0.330925
  B       0.285766      0.538365     -1.173470
  B      -0.283660     -0.552772      1.173008
  B       1.086875     -0.013204      0.435115
  B      -1.092924      0.016762     -0.427387
6
Coordinates from ORCA-job B6_random_3d_seed1001_d2.20_q0_m5_R2SCAN-3C E -148.645475882455
  B       0.042223     -1.121709     -0.336973
  B      -0.037103      1.129275      0.332835
  B       0.282856      0.539950     -1.175036
  B      -0.284517     -0.549444      1.173173
  B       1.089660     -0.014609      0.436123
  B      -1.093119      0.016537     -0.430122
6
Coordinates from ORCA-job B6_random_3d_seed1001_d2.20_q0_m5_R2SCAN-3C E -148.645477580954
  B       0.041931     -1.122210     -0.336926
  B      -0.037419      1.127864      0.333123
  B       0.282257      0.540737     -1.175764
  B      -0.284660     -0.548544      1.173432
  B       1.090617     -0.014623      0.436678
  B      -1.092726      0.016776     -0.430543
6
Coordinates from ORCA-job B6_random_3d_seed1001_d2.20_q0_m5_R2SCAN-3C E -148.645478291277
  B       0.041655     -1.122895     -0.337050
  B      -0.037905      1.127109      0.333004
  B       0.282239      0.541540     -1.176136
  B      -0.284602     -0.547866      1.173608
  B       1.090972     -0.014788      0.436977
  B      -1.092359      0.016899     -0.430403
6
Coordinates from ORCA-job B6_random_3d_seed1001_d2.20_q0_m5_R2SCAN-3C E -148.645478481843
  B       0.041471     -1.123266     -0.337104
  B      -0.038089      1.126911      0.332924
  B       0.282328      0.541958     -1.176050
  B      -0.284665     -0.547500      1.173598
  B       1.091088     -0.014859      0.436890
  B      -1.092132      0.016756     -0.430258
6
Coordinates from ORCA-job B6_random_3d_seed1001_d2.20_q0_m5_R2SCAN-3C E -148.645478687534
  B       0.041359     -1.123723     -0.337019
  B      -0.038209      1.126846      0.332922
  B       0.282457      0.542532     -1.175807
  B      -0.284749     -0.547005      1.173522
  B       1.091100     -0.015084      0.436574
  B      -1.091957      0.016435     -0.430192
