6
Coordinates from ORCA-job B6_planar_ring_d1.60_q0_m5_R2SCAN-3C E -148.636832854762
  B           1.93543539197891     -0.00000000342012     -0.00000009745555
  B           0.79553655257521      1.07275273674980      0.00000003589521
  B          -0.79553655882610      1.07275274633809      0.00000006315080
  B          -1.93543539217119      0.00000000228976     -0.00000010063647
  B          -0.79553655213328     -1.07275273598670      0.00000003951785
  B           0.79553655857645     -1.07275274597083      0.00000005952816
