6
Coordinates from ORCA-job B6_planar_ring_d1.60_q0_m5_R2SCAN-3C E -148.595044965176
  B       1.600000     -0.000000      0.000000
  B       0.800000      1.385641      0.000000
  B      -0.800000      1.385641      0.000000
  B      -1.600000      0.000000      0.000000
  B      -0.800000     -1.385641      0.000000
  B       0.800000     -1.385641      0.000000
6
Coordinates from ORCA-job B6_planar_ring_d1.60_q0_m5_R2SCAN-3C E -148.606419233223
  B       1.641216     -0.000000     -0.000000
  B       0.805715      1.326680      0.000000
  B      -0.805715      1.326680      0.000000
  B      -1.641216      0.000000     -0.000000
  B      -0.805715     -1.326680      0.000000
  B       0.805715     -1.326680     -0.000000
6
Coordinates from ORCA-job B6_planar_ring_d1.60_q0_m5_R2SCAN-3C E -148.619530885651
  B       1.727985     -0.000000      0.000000
  B       0.809646      1.230897     -0.000000
  B      -0.809646      1.230897      0.000000
  B      -1.727985      0.000000     -0.000000
  B      -0.809646     -1.230897      0.000000
  B       0.809646     -1.230897     -0.000000
6
Coordinates from ORCA-job B6_planar_ring_d1.60_q0_m5_R2SCAN-3C E -148.626987418459
  B       1.794204     -0.000000      0.000000
  B       0.808931      1.173167     -0.000000
  B      -0.808931      1.173167      0.000000
  B      -1.794204      0.000000     -0.000000
  B      -0.808931     -1.173167      0.000000
  B       0.808931     -1.173167     -0.000000
6
Coordinates from ORCA-job B6_planar_ring_d1.60_q0_m5_R2SCAN-3C E -148.635212052659
  B       1.893233     -0.000000      0.000000
  B       0.803631      1.092849     -0.000000
  B      -0.803631      1.092849     -0.000000
  B      -1.893233      0.000000      0.000000
  B      -0.803631     -1.092849      0.000000
  B       0.803631     -1.092849     -0.000000
6
Coordinates from ORCA-job B6_planar_ring_d1.60_q0_m5_R2SCAN-3C E -148.636502222228
  B       1.948325     -0.000000     -0.000000
  B       0.797341      1.050939      0.000000
  B      -0.797341      1.050939      0.000000
  B      -1.948325      0.000000     -0.000000
  B      -0.797341     -1.050939      0.000000
  B       0.797341     -1.050939      0.000000
6
Coordinates from ORCA-job B6_planar_ring_d1.60_q0_m5_R2SCAN-3C E -148.636820205632
  B       1.934956     -0.000000      0.000000
  B       0.796442      1.070908     -0.000000
  B      -0.796442      1.070908     -0.000000
  B      -1.934956      0.000000      0.000000
  B      -0.796442     -1.070908     -0.000000
  B       0.796442     -1.070908     -0.000000
6
Coordinates from ORCA-job B6_planar_ring_d1.60_q0_m5_R2SCAN-3C E -148.636832780004
  B       1.935284     -0.000000     -0.000000
  B       0.795638      1.072827      0.000000
  B      -0.795638      1.072827      0.000000
  B      -1.935284      0.000000     -0.000000
  B      -0.795638     -1.072827      0.000000
  B       0.795638     -1.072827      0.000000
6
Coordinates from ORCA-job B6_planar_ring_d1.60_q0_m5_R2SCAN-3C E -148.636832854313
  B       1.935437     -0.000000      0.000000
  B       0.795548      1.072768     -0.000000
  B      -0.795548      1.072768     -0.000000
  B      -1.935437      0.000000      0.000000
  B      -0.795548     -1.072768     -0.000000
  B       0.795548     -1.072768     -0.000000
6
Coordinates from ORCA-job B6_planar_ring_d1.60_q0_m5_R2SCAN-3C E -148.636832854762
  B       1.935435     -0.000000     -0.000000
  B       0.795537      1.072753      0.000000
  B      -0.795537      1.072753      0.000000
  B      -1.935435      0.000000     -0.000000
  B      -0.795537     -1.072753      0.000000
  B       0.795537     -1.072753      0.000000
