6
Coordinates from ORCA-job B6_octahedral_3d_d2.50_q0_m1_R2SCAN-3C E -148.633292052440
  B           1.68038956067408     -0.55982413805389      0.55973492469600
  B          -0.93674352804104      0.20487886821591     -0.20614497634492
  B          -0.60841433978395      1.64793625495093      0.60389196807943
  B           0.23399780806662     -0.92474500486982     -0.22851297768833
  B           0.23032341155503      0.22029585038516      0.92750239103508
  B          -0.59955291247074     -0.58854183062830     -1.65647132977725
