6
Coordinates from ORCA-job B6_octahedral_3d_d2.50_q0_m1_R2SCAN-3C E -148.195382704805
  B       1.767767      0.000000      0.000000
  B      -1.767767      0.000000      0.000000
  B       0.000000      1.767767      0.000000
  B       0.000000     -1.767767      0.000000
  B       0.000000      0.000000      1.767767
  B       0.000000      0.000000     -1.767767
6
Coordinates from ORCA-job B6_octahedral_3d_d2.50_q0_m1_R2SCAN-3C E -148.220505345230
  B       1.737119     -0.008111      0.007863
  B      -1.736932      0.008401     -0.008921
  B      -0.008274      1.737283      0.008771
  B       0.008237     -1.737073     -0.007731
  B       0.008318      0.008001      1.736906
  B      -0.008467     -0.008501     -1.736889
6
Coordinates from ORCA-job B6_octahedral_3d_d2.50_q0_m1_R2SCAN-3C E -148.246671555425
  B       1.706737     -0.016707      0.016194
  B      -1.706306      0.017346     -0.018464
  B      -0.017075      1.707062      0.018131
  B       0.016978     -1.706622     -0.015907
  B       0.017162      0.016480      1.706275
  B      -0.017496     -0.017558     -1.706230
6
Coordinates from ORCA-job B6_octahedral_3d_d2.50_q0_m1_R2SCAN-3C E -148.287745448309
  B       1.661426     -0.029943      0.029019
  B      -1.660539      0.031170     -0.033263
  B      -0.030669      1.661949      0.032617
  B       0.030445     -1.661162     -0.028480
  B       0.030810      0.029541      1.660551
  B      -0.031473     -0.031554     -1.660443
6
Coordinates from ORCA-job B6_octahedral_3d_d2.50_q0_m1_R2SCAN-3C E -148.351665908394
  B       1.593981     -0.050240      0.048678
  B      -1.592202      0.052470     -0.056193
  B      -0.051603      1.594692      0.054993
  B       0.051110     -1.593394     -0.047718
  B       0.051793      0.049590      1.592391
  B      -0.053078     -0.053117     -1.592151
6
Coordinates from ORCA-job B6_octahedral_3d_d2.50_q0_m1_R2SCAN-3C E -148.420356082326
  B       1.525146     -0.072016      0.069730
  B      -1.521998      0.075464     -0.081239
  B      -0.074212      1.525886      0.079299
  B       0.073284     -1.524044     -0.068260
  B       0.074373      0.071124      1.522588
  B      -0.076593     -0.076414     -1.522119
6
Coordinates from ORCA-job B6_octahedral_3d_d2.50_q0_m1_R2SCAN-3C E -148.484869065215
  B       1.458828     -0.096304      0.093177
  B      -1.453759      0.101348     -0.109885
  B      -0.099619      1.459490      0.107025
  B       0.098086     -1.457011     -0.090915
  B       0.099754      0.095172      1.454848
  B      -0.103290     -0.102695     -1.454251
6
Coordinates from ORCA-job B6_octahedral_3d_d2.50_q0_m1_R2SCAN-3C E -148.536681907955
  B       1.392170     -0.118313      0.114440
  B      -1.384838      0.125065     -0.136103
  B      -0.122981      1.392539      0.132611
  B       0.120466     -1.389264     -0.111338
  B       0.122845      0.116905      1.386468
  B      -0.127663     -0.126933     -1.386079
6
Coordinates from ORCA-job B6_octahedral_3d_d2.50_q0_m1_R2SCAN-3C E -148.564287033944
  B       1.325818     -0.139192      0.134880
  B      -1.317261      0.148620     -0.159197
  B      -0.146070      1.326383      0.157392
  B       0.141482     -1.321065     -0.130797
  B       0.145059      0.136846      1.317944
  B      -0.149027     -0.151592     -1.320221
6
Coordinates from ORCA-job B6_octahedral_3d_d2.50_q0_m1_R2SCAN-3C E -148.565591771365
  B       1.302938     -0.145559      0.142082
  B      -1.298176      0.161974     -0.159654
  B      -0.157791      1.305878      0.166400
  B       0.147818     -1.296355     -0.138252
  B       0.153710      0.140515      1.293768
  B      -0.148500     -0.166453     -1.304343
6
Coordinates from ORCA-job B6_octahedral_3d_d2.50_q0_m1_R2SCAN-3C E -148.565785791659
  B       1.311731     -0.146425      0.142073
  B      -1.301885      0.161030     -0.164596
  B      -0.158260      1.313696      0.170022
  B       0.147850     -1.301226     -0.136119
  B       0.153874      0.140446      1.300308
  B      -0.153309     -0.167521     -1.311688
6
Coordinates from ORCA-job B6_octahedral_3d_d2.50_q0_m1_R2SCAN-3C E -148.565887119932
  B       1.316834     -0.147207      0.142622
  B      -1.300442      0.163107     -0.166474
  B      -0.162055      1.318683      0.175894
  B       0.146754     -1.299154     -0.133603
  B       0.154343      0.138098      1.299320
  B      -0.155433     -0.173527     -1.317760
6
Coordinates from ORCA-job B6_octahedral_3d_d2.50_q0_m1_R2SCAN-3C E -148.566081535282
  B       1.322183     -0.148104      0.142564
  B      -1.296038      0.162875     -0.168348
  B      -0.165073      1.323992      0.182591
  B       0.144487     -1.294420     -0.128891
  B       0.153025      0.134619      1.295458
  B      -0.158584     -0.178962     -1.323373
6
Coordinates from ORCA-job B6_octahedral_3d_d2.50_q0_m1_R2SCAN-3C E -148.566506233880
  B       1.330373     -0.149595      0.143077
  B      -1.289633      0.162571     -0.168540
  B      -0.170033      1.332061      0.191072
  B       0.140581     -1.287454     -0.123038
  B       0.150545      0.129386      1.289284
  B      -0.161833     -0.186968     -1.331854
6
Coordinates from ORCA-job B6_octahedral_3d_d2.50_q0_m1_R2SCAN-3C E -148.567449666476
  B       1.342691     -0.152825      0.144694
  B      -1.279658      0.160630     -0.168573
  B      -0.176823      1.344013      0.203331
  B       0.135015     -1.276814     -0.115040
  B       0.146377      0.122823      1.279708
  B      -0.167601     -0.197827     -1.344120
6
Coordinates from ORCA-job B6_octahedral_3d_d2.50_q0_m1_R2SCAN-3C E -148.569206859790
  B       1.358174     -0.158069      0.148042
  B      -1.266546      0.157764     -0.166633
  B      -0.185875      1.358818      0.217845
  B       0.128083     -1.262734     -0.106702
  B       0.140768      0.115596      1.266757
  B      -0.174604     -0.211374     -1.359309
6
Coordinates from ORCA-job B6_octahedral_3d_d2.50_q0_m1_R2SCAN-3C E -148.570747762100
  B       1.367416     -0.162416      0.151289
  B      -1.256541      0.155237     -0.163895
  B      -0.192001      1.367553      0.226681
  B       0.123596     -1.252002     -0.102213
  B       0.136730      0.111519      1.256392
  B      -0.179200     -0.219891     -1.368253
6
Coordinates from ORCA-job B6_octahedral_3d_d2.50_q0_m1_R2SCAN-3C E -148.572009847918
  B       1.374118     -0.165793      0.153944
  B      -1.249197      0.153304     -0.161718
  B      -0.196518      1.373761      0.232855
  B       0.120421     -1.244175     -0.099240
  B       0.133826      0.108789      1.248796
  B      -0.182650     -0.225885     -1.374637
6
Coordinates from ORCA-job B6_octahedral_3d_d2.50_q0_m1_R2SCAN-3C E -148.573377624095
  B       1.381072     -0.169283      0.156736
  B      -1.241991      0.151313     -0.159599
  B      -0.201074      1.380129      0.238993
  B       0.117291     -1.236539     -0.096354
  B       0.130963      0.106181      1.241422
  B      -0.186260     -0.231801     -1.381197
6
Coordinates from ORCA-job B6_octahedral_3d_d2.50_q0_m1_R2SCAN-3C E -148.575594281004
  B       1.392187     -0.174646      0.161030
  B      -1.231665      0.148327     -0.156865
  B      -0.207992      1.390215      0.248362
  B       0.112699     -1.225676     -0.092076
  B       0.126820      0.102458      1.231126
  B      -0.192050     -0.240678     -1.391577
6
Coordinates from ORCA-job B6_octahedral_3d_d2.50_q0_m1_R2SCAN-3C E -148.579221644330
  B       1.409339     -0.183067      0.167736
  B      -1.216546      0.144110     -0.153571
  B      -0.218680      1.405664      0.262888
  B       0.106193     -1.209884     -0.085985
  B       0.121032      0.097421      1.216418
  B      -0.201338     -0.254246     -1.407485
6
Coordinates from ORCA-job B6_octahedral_3d_d2.50_q0_m1_R2SCAN-3C E -148.585125345652
  B       1.435348     -0.196677      0.178485
  B      -1.194289      0.138885     -0.150226
  B      -0.235710      1.428902      0.285861
  B       0.097530     -1.186846     -0.077900
  B       0.113490      0.091250      1.195289
  B      -0.216369     -0.275513     -1.431509
6
Coordinates from ORCA-job B6_octahedral_3d_d2.50_q0_m1_R2SCAN-3C E -148.591349113865
  B       1.459934     -0.212137      0.190855
  B      -1.171218      0.135141     -0.147136
  B      -0.254396      1.450723      0.309321
  B       0.090575     -1.163350     -0.072118
  B       0.107350      0.087178      1.173274
  B      -0.232244     -0.297556     -1.454195
6
Coordinates from ORCA-job B6_octahedral_3d_d2.50_q0_m1_R2SCAN-3C E -148.597486553253
  B       1.484049     -0.229427      0.205174
  B      -1.148610      0.133254     -0.145334
  B      -0.274872      1.472173      0.333382
  B       0.085797     -1.140936     -0.068664
  B       0.103303      0.085265      1.151935
  B      -0.249666     -0.320329     -1.476493
6
Coordinates from ORCA-job B6_octahedral_3d_d2.50_q0_m1_R2SCAN-3C E -148.603561576517
  B       1.503995     -0.250426      0.223420
  B      -1.122347      0.133495     -0.143008
  B      -0.298592      1.490504      0.358001
  B       0.084368     -1.116445     -0.069730
  B       0.101798      0.087075      1.126552
  B      -0.269222     -0.344203     -1.495234
6
Coordinates from ORCA-job B6_octahedral_3d_d2.50_q0_m1_R2SCAN-3C E -148.609011078603
  B       1.525318     -0.273092      0.244501
  B      -1.100423      0.136536     -0.144030
  B      -0.324271      1.511402      0.383389
  B       0.086330     -1.096727     -0.073496
  B       0.104444      0.090888      1.105707
  B      -0.291399     -0.369006     -1.516071
6
Coordinates from ORCA-job B6_octahedral_3d_d2.50_q0_m1_R2SCAN-3C E -148.616088112253
  B       1.557501     -0.309456      0.279434
  B      -1.071126      0.144164     -0.149576
  B      -0.364408      1.541687      0.422201
  B       0.093862     -1.071911     -0.084126
  B       0.112262      0.101980      1.078722
  B      -0.328091     -0.406464     -1.546655
6
Coordinates from ORCA-job B6_octahedral_3d_d2.50_q0_m1_R2SCAN-3C E -148.623685262610
  B       1.598055     -0.363154      0.333286
  B      -1.035855      0.159602     -0.162837
  B      -0.422528      1.579844      0.472864
  B       0.113037     -1.040750     -0.102761
  B       0.131186      0.120042      1.044517
  B      -0.383895     -0.455585     -1.585068
6
Coordinates from ORCA-job B6_octahedral_3d_d2.50_q0_m1_R2SCAN-3C E -148.628786525747
  B       1.635091     -0.417752      0.390620
  B      -1.001701      0.176446     -0.178436
  B      -0.478801      1.608687      0.523678
  B       0.134675     -1.012582     -0.133730
  B       0.151929      0.150096      1.013425
  B      -0.441193     -0.504895     -1.615557
6
Coordinates from ORCA-job B6_octahedral_3d_d2.50_q0_m1_R2SCAN-3C E -148.631349141968
  B       1.658600     -0.473771      0.451654
  B      -0.978302      0.198325     -0.198806
  B      -0.538260      1.631667      0.558026
  B       0.173330     -0.980331     -0.149679
  B       0.188549      0.162826      0.978832
  B      -0.503918     -0.538716     -1.640026
6
Coordinates from ORCA-job B6_octahedral_3d_d2.50_q0_m1_R2SCAN-3C E -148.632734111302
  B       1.678476     -0.514720      0.498222
  B      -0.948925      0.208668     -0.209743
  B      -0.574600      1.641106      0.596940
  B       0.187598     -0.959323     -0.191982
  B       0.202078      0.201550      0.956911
  B      -0.544626     -0.577282     -1.650348
6
Coordinates from ORCA-job B6_octahedral_3d_d2.50_q0_m1_R2SCAN-3C E -148.633121096378
  B       1.681103     -0.538887      0.524734
  B      -0.937957      0.216390     -0.215878
  B      -0.597683      1.644027      0.609249
  B       0.207671     -0.943304     -0.203158
  B       0.217877      0.211488      0.939733
  B      -0.571011     -0.589714     -1.654680
6
Coordinates from ORCA-job B6_octahedral_3d_d2.50_q0_m1_R2SCAN-3C E -148.633215378508
  B       1.681555     -0.554838      0.546491
  B      -0.929588      0.217841     -0.221697
  B      -0.612407      1.646101      0.618378
  B       0.219981     -0.929882     -0.215694
  B       0.231214      0.219439      0.928364
  B      -0.590755     -0.598661     -1.655842
6
Coordinates from ORCA-job B6_octahedral_3d_d2.50_q0_m1_R2SCAN-3C E -148.633226062997
  B       1.681904     -0.566824      0.556631
  B      -0.925215      0.222581     -0.218794
  B      -0.621719      1.646238      0.622194
  B       0.230957     -0.924357     -0.222918
  B       0.234257      0.226618      0.920357
  B      -0.600184     -0.604257     -1.657469
6
Coordinates from ORCA-job B6_octahedral_3d_d2.50_q0_m1_R2SCAN-3C E -148.633248253907
  B       1.681833     -0.563318      0.555305
  B      -0.926824      0.219192     -0.219364
  B      -0.618354      1.646597      0.620473
  B       0.228008     -0.925196     -0.222389
  B       0.233807      0.224717      0.922961
  B      -0.598472     -0.601992     -1.656986
6
Coordinates from ORCA-job B6_octahedral_3d_d2.50_q0_m1_R2SCAN-3C E -148.633258876644
  B       1.681628     -0.562051      0.555586
  B      -0.928330      0.216504     -0.217934
  B      -0.616344      1.646898      0.618121
  B       0.227918     -0.925264     -0.223064
  B       0.233330      0.223754      0.924084
  B      -0.598201     -0.599842     -1.656793
6
Coordinates from ORCA-job B6_octahedral_3d_d2.50_q0_m1_R2SCAN-3C E -148.633282338584
  B       1.681041     -0.559529      0.557508
  B      -0.933461      0.208474     -0.211553
  B      -0.610706      1.647803      0.609686
  B       0.229940     -0.925190     -0.225936
  B       0.231518      0.221184      0.926865
  B      -0.598332     -0.592742     -1.656570
6
Coordinates from ORCA-job B6_octahedral_3d_d2.50_q0_m1_R2SCAN-3C E -148.633290150983
  B       1.680564     -0.559232      0.559086
  B      -0.936148      0.204863     -0.207372
  B      -0.608416      1.648154      0.604974
  B       0.232482     -0.924880     -0.227820
  B       0.230545      0.220201      0.927688
  B      -0.599027     -0.589106     -1.656555
6
Coordinates from ORCA-job B6_octahedral_3d_d2.50_q0_m1_R2SCAN-3C E -148.633291907966
  B       1.680415     -0.559693      0.559793
  B      -0.936868      0.204420     -0.205961
  B      -0.608203      1.648075      0.603640
  B       0.233895     -0.924708     -0.228557
  B       0.230290      0.220176      0.927604
  B      -0.599529     -0.588269     -1.656518
6
Coordinates from ORCA-job B6_octahedral_3d_d2.50_q0_m1_R2SCAN-3C E -148.633292052440
  B       1.680390     -0.559824      0.559735
  B      -0.936744      0.204879     -0.206145
  B      -0.608414      1.647936      0.603892
  B       0.233998     -0.924745     -0.228513
  B       0.230323      0.220296      0.927502
  B      -0.599553     -0.588542     -1.656471
