6
Coordinates from ORCA-job B6_random_3d_seed1001_d3.00_q0_m5_R2SCAN-3C E -148.645471702323
  B           0.00795400808202     -1.12141285965449     -0.34915908687721
  B          -0.00883153965780      1.12136938760479      0.34930807677951
  B           0.29073033630106      0.55174376390328     -1.16943062342021
  B          -0.28960392192019     -0.55151976166798      1.17015107605596
  B           1.09351201384451     -0.04974802882881      0.42557417504157
  B          -1.09376089664961      0.04956748864321     -0.42644361757963
