6
Coordinates from ORCA-job B6_random_3d_seed1001_d3.00_q0_m5_R2SCAN-3C E -148.025123981893
  B       0.181632     -2.098600     -0.648278
  B      -0.100497      1.964798      0.689348
  B       0.542113      0.756971     -1.897970
  B      -0.602019     -0.907444      1.950645
  B       2.039705      0.085770      0.619872
  B      -2.060933      0.198505     -0.713617
6
Coordinates from ORCA-job B6_random_3d_seed1001_d3.00_q0_m5_R2SCAN-3C E -148.038404404043
  B       0.180913     -2.070843     -0.628253
  B      -0.091596      1.931717      0.672679
  B       0.529639      0.749394     -1.867365
  B      -0.591574     -0.908157      1.925275
  B       2.006516      0.092103      0.609118
  B      -2.033899      0.205787     -0.711455
6
Coordinates from ORCA-job B6_random_3d_seed1001_d3.00_q0_m5_R2SCAN-3C E -148.052368635196
  B       0.179439     -2.043645     -0.607271
  B      -0.082762      1.898585      0.655754
  B       0.516914      0.742562     -1.836928
  B      -0.580727     -0.909552      1.899530
  B       1.973672      0.098779      0.598612
  B      -2.006535      0.213272     -0.709697
6
Coordinates from ORCA-job B6_random_3d_seed1001_d3.00_q0_m5_R2SCAN-3C E -148.074654210181
  B       0.176305     -2.004024     -0.575208
  B      -0.070063      1.849242      0.630435
  B       0.497309      0.733034     -1.791487
  B      -0.563889     -0.911761      1.860222
  B       1.924556      0.108910      0.583234
  B      -1.964218      0.224600     -0.707196
6
Coordinates from ORCA-job B6_random_3d_seed1001_d3.00_q0_m5_R2SCAN-3C E -148.111351225445
  B       0.170968     -1.946657     -0.526730
  B      -0.052422      1.775939      0.592385
  B       0.466454      0.719607     -1.723847
  B      -0.538026     -0.915181      1.800935
  B       1.850794      0.123800      0.560706
  B      -1.897769      0.242492     -0.703448
6
Coordinates from ORCA-job B6_random_3d_seed1001_d3.00_q0_m5_R2SCAN-3C E -148.154109638725
  B       0.165610     -1.890035     -0.474965
  B      -0.035332      1.700437      0.551574
  B       0.432028      0.707441     -1.654895
  B      -0.510894     -0.921093      1.740731
  B       1.773811      0.139334      0.537770
  B      -1.825223      0.263916     -0.700215
6
Coordinates from ORCA-job B6_random_3d_seed1001_d3.00_q0_m5_R2SCAN-3C E -148.202131975752
  B       0.160704     -1.836390     -0.421843
  B      -0.019733      1.625799      0.509102
  B       0.395744      0.697237     -1.587080
  B      -0.483769     -0.929533      1.682237
  B       1.696026      0.154713      0.514720
  B      -1.748972      0.288173     -0.697136
6
Coordinates from ORCA-job B6_random_3d_seed1001_d3.00_q0_m5_R2SCAN-3C E -148.255067731024
  B       0.156026     -1.785556     -0.367729
  B      -0.006185      1.552217      0.465728
  B       0.358222      0.688551     -1.520574
  B      -0.456579     -0.939786      1.625194
  B       1.617371      0.169769      0.491214
  B      -1.668855      0.314805     -0.693832
6
Coordinates from ORCA-job B6_random_3d_seed1001_d3.00_q0_m5_R2SCAN-3C E -148.312051970012
  B       0.151183     -1.736439     -0.312825
  B       0.004043      1.479970      0.423280
  B       0.319511      0.680001     -1.456331
  B      -0.428448     -0.950528      1.568451
  B       1.538218      0.183582      0.467681
  B      -1.584506      0.343415     -0.690257
6
Coordinates from ORCA-job B6_random_3d_seed1001_d3.00_q0_m5_R2SCAN-3C E -148.375215104114
  B       0.146589     -1.688878     -0.258952
  B       0.010874      1.409283      0.382377
  B       0.277099      0.671246     -1.394293
  B      -0.398179     -0.959430      1.512505
  B       1.458926      0.194229      0.446208
  B      -1.495309      0.373550     -0.687845
6
Coordinates from ORCA-job B6_random_3d_seed1001_d3.00_q0_m5_R2SCAN-3C E -148.443226876719
  B       0.131327     -1.638819     -0.201100
  B       0.021369      1.344656      0.344019
  B       0.244625      0.660848     -1.331812
  B      -0.362235     -0.969988      1.444717
  B       1.378562      0.209237      0.426573
  B      -1.413648      0.394065     -0.682398
6
Coordinates from ORCA-job B6_random_3d_seed1001_d3.00_q0_m5_R2SCAN-3C E -148.503356818028
  B       0.118820     -1.572697     -0.143042
  B       0.036869      1.287858      0.314660
  B       0.220931      0.644045     -1.270459
  B      -0.330748     -0.974886      1.366614
  B       1.307158      0.215128      0.407191
  B      -1.353030      0.400551     -0.674964
6
Coordinates from ORCA-job B6_random_3d_seed1001_d3.00_q0_m5_R2SCAN-3C E -148.545042734989
  B       0.122399     -1.484740     -0.102605
  B       0.035315      1.238882      0.301978
  B       0.210663      0.607915     -1.218998
  B      -0.297097     -0.957533      1.291380
  B       1.225894      0.190913      0.385112
  B      -1.297174      0.404563     -0.656866
6
Coordinates from ORCA-job B6_random_3d_seed1001_d3.00_q0_m5_R2SCAN-3C E -148.566430258515
  B       0.137400     -1.425705     -0.122516
  B       0.027529      1.210725      0.305025
  B       0.213378      0.574735     -1.192305
  B      -0.281801     -0.917861      1.276051
  B       1.170050      0.159554      0.373308
  B      -1.266556      0.398551     -0.639564
6
Coordinates from ORCA-job B6_random_3d_seed1001_d3.00_q0_m5_R2SCAN-3C E -148.593692094623
  B       0.155282     -1.335695     -0.144457
  B      -0.000263      1.191297      0.324333
  B       0.222268      0.520562     -1.175333
  B      -0.250769     -0.860312      1.243360
  B       1.104637      0.095296      0.366810
  B      -1.231154      0.388852     -0.614712
6
Coordinates from ORCA-job B6_random_3d_seed1001_d3.00_q0_m5_R2SCAN-3C E -148.611965864438
  B       0.166186     -1.251340     -0.200382
  B      -0.027405      1.164224      0.349224
  B       0.241520      0.461921     -1.165554
  B      -0.225665     -0.786636      1.231352
  B       1.047024      0.042584      0.368265
  B      -1.201660      0.369247     -0.582906
6
Coordinates from ORCA-job B6_random_3d_seed1001_d3.00_q0_m5_R2SCAN-3C E -148.619322451601
  B       0.138157     -1.202128     -0.233985
  B      -0.047543      1.161781      0.367242
  B       0.278589      0.423626     -1.162998
  B      -0.210733     -0.746205      1.202955
  B       1.042203      0.028587      0.377270
  B      -1.200672      0.334339     -0.550483
6
Coordinates from ORCA-job B6_random_3d_seed1001_d3.00_q0_m5_R2SCAN-3C E -148.626850720178
  B       0.093928     -1.160633     -0.279909
  B      -0.062836      1.157538      0.381466
  B       0.288376      0.399877     -1.164319
  B      -0.205243     -0.711557      1.197051
  B       1.053857      0.027183      0.394788
  B      -1.168081      0.287592     -0.529076
6
Coordinates from ORCA-job B6_random_3d_seed1001_d3.00_q0_m5_R2SCAN-3C E -148.637342894411
  B       0.023367     -1.101508     -0.333685
  B      -0.066662      1.146250      0.396311
  B       0.311357      0.389638     -1.180743
  B      -0.202137     -0.670205      1.193254
  B       1.075060      0.029781      0.425535
  B      -1.140984      0.206045     -0.500674
6
Coordinates from ORCA-job B6_random_3d_seed1001_d3.00_q0_m5_R2SCAN-3C E -148.641507518397
  B      -0.048950     -1.046637     -0.368373
  B      -0.067422      1.133415      0.384782
  B       0.332383      0.417690     -1.196044
  B      -0.199180     -0.638400      1.200419
  B       1.096108      0.016559      0.455191
  B      -1.112940      0.117372     -0.475976
6
Coordinates from ORCA-job B6_random_3d_seed1001_d3.00_q0_m5_R2SCAN-3C E -148.643312058516
  B      -0.040379     -1.083466     -0.356910
  B      -0.070796      1.127424      0.350993
  B       0.343897      0.454614     -1.183524
  B      -0.200021     -0.642098      1.206206
  B       1.102445      0.010001      0.452460
  B      -1.135145      0.133525     -0.469224
6
Coordinates from ORCA-job B6_random_3d_seed1001_d3.00_q0_m5_R2SCAN-3C E -148.644122593203
  B      -0.040792     -1.084201     -0.356308
  B      -0.066018      1.126351      0.338385
  B       0.345128      0.468401     -1.156263
  B      -0.192305     -0.623559      1.193446
  B       1.085131     -0.005185      0.445459
  B      -1.131145      0.118193     -0.464719
6
Coordinates from ORCA-job B6_random_3d_seed1001_d3.00_q0_m5_R2SCAN-3C E -148.644475497594
  B      -0.044148     -1.083553     -0.354351
  B      -0.050859      1.131731      0.338428
  B       0.348200      0.485374     -1.143645
  B      -0.213265     -0.617494      1.197021
  B       1.088678     -0.005946      0.424701
  B      -1.128606      0.089888     -0.462155
6
Coordinates from ORCA-job B6_random_3d_seed1001_d3.00_q0_m5_R2SCAN-3C E -148.644835785949
  B      -0.037863     -1.089741     -0.345665
  B      -0.045355      1.129050      0.346640
  B       0.342131      0.497468     -1.159216
  B      -0.220114     -0.612359      1.196258
  B       1.081398     -0.011114      0.423269
  B      -1.120198      0.086696     -0.461286
6
Coordinates from ORCA-job B6_random_3d_seed1001_d3.00_q0_m5_R2SCAN-3C E -148.644988136553
  B      -0.025650     -1.096364     -0.335691
  B      -0.044575      1.128792      0.345844
  B       0.334273      0.513419     -1.160847
  B      -0.234433     -0.603984      1.193493
  B       1.079707     -0.024752      0.412928
  B      -1.109323      0.082889     -0.455726
6
Coordinates from ORCA-job B6_random_3d_seed1001_d3.00_q0_m5_R2SCAN-3C E -148.645178119561
  B      -0.018320     -1.110845     -0.333722
  B      -0.034488      1.128449      0.352003
  B       0.326828      0.529326     -1.160221
  B      -0.245758     -0.587146      1.188144
  B       1.078261     -0.031605      0.408069
  B      -1.106523      0.071821     -0.454272
6
Coordinates from ORCA-job B6_random_3d_seed1001_d3.00_q0_m5_R2SCAN-3C E -148.645381913979
  B      -0.010555     -1.130022     -0.334730
  B      -0.024935      1.123760      0.358115
  B       0.315679      0.555003     -1.158336
  B      -0.267636     -0.556251      1.178536
  B       1.083832     -0.044353      0.401428
  B      -1.096385      0.051863     -0.445014
6
Coordinates from ORCA-job B6_random_3d_seed1001_d3.00_q0_m5_R2SCAN-3C E -148.645430250914
  B      -0.006373     -1.137094     -0.336509
  B      -0.021460      1.121106      0.359800
  B       0.306261      0.564425     -1.158317
  B      -0.277712     -0.543903      1.176379
  B       1.089868     -0.050511      0.401708
  B      -1.090584      0.045977     -0.443060
6
Coordinates from ORCA-job B6_random_3d_seed1001_d3.00_q0_m5_R2SCAN-3C E -148.645443236481
  B      -0.006304     -1.134989     -0.337865
  B      -0.021543      1.118569      0.359029
  B       0.304594      0.563434     -1.160112
  B      -0.278487     -0.544190      1.177527
  B       1.091396     -0.049904      0.404018
  B      -1.089657      0.047080     -0.442597
6
Coordinates from ORCA-job B6_random_3d_seed1001_d3.00_q0_m5_R2SCAN-3C E -148.645451381585
  B      -0.004905     -1.132158     -0.338983
  B      -0.020893      1.115522      0.358280
  B       0.301757      0.562012     -1.162236
  B      -0.279725     -0.543992      1.177258
  B       1.093291     -0.049842      0.407453
  B      -1.089524      0.048457     -0.441772
6
Coordinates from ORCA-job B6_random_3d_seed1001_d3.00_q0_m5_R2SCAN-3C E -148.645456077780
  B      -0.003401     -1.129560     -0.339862
  B      -0.019556      1.114177      0.357440
  B       0.299390      0.560512     -1.163745
  B      -0.280582     -0.544487      1.176589
  B       1.094804     -0.049887      0.410807
  B      -1.090655      0.049244     -0.441228
6
Coordinates from ORCA-job B6_random_3d_seed1001_d3.00_q0_m5_R2SCAN-3C E -148.645460724899
  B      -0.000196     -1.126918     -0.340972
  B      -0.016641      1.113179      0.356625
  B       0.295935      0.559462     -1.165479
  B      -0.283224     -0.544020      1.174702
  B       1.096230     -0.050681      0.414516
  B      -1.092103      0.048978     -0.439393
6
Coordinates from ORCA-job B6_random_3d_seed1001_d3.00_q0_m5_R2SCAN-3C E -148.645463455028
  B       0.001806     -1.124920     -0.342218
  B      -0.014513      1.114141      0.355427
  B       0.294148      0.557988     -1.166433
  B      -0.284381     -0.545197      1.173870
  B       1.096578     -0.050940      0.417379
  B      -1.093638      0.048928     -0.438024
6
Coordinates from ORCA-job B6_random_3d_seed1001_d3.00_q0_m5_R2SCAN-3C E -148.645466228058
  B       0.004472     -1.123346     -0.344064
  B      -0.012046      1.115603      0.354050
  B       0.292340      0.556657     -1.167457
  B      -0.286524     -0.545921      1.172498
  B       1.096250     -0.051390      0.420043
  B      -1.094492      0.048397     -0.435071
6
Coordinates from ORCA-job B6_random_3d_seed1001_d3.00_q0_m5_R2SCAN-3C E -148.645469118498
  B       0.006967     -1.121583     -0.346823
  B      -0.009761      1.118339      0.351772
  B       0.290989      0.554258     -1.168572
  B      -0.288324     -0.548149      1.171357
  B       1.095215     -0.051285      0.423333
  B      -1.095087      0.048421     -0.431067
6
Coordinates from ORCA-job B6_random_3d_seed1001_d3.00_q0_m5_R2SCAN-3C E -148.645470752713
  B       0.008026     -1.121087     -0.348581
  B      -0.008891      1.120149      0.350231
  B       0.290574      0.552783     -1.169191
  B      -0.289319     -0.549764      1.170646
  B       1.094250     -0.050825      0.425022
  B      -1.094640      0.048745     -0.428126
6
Coordinates from ORCA-job B6_random_3d_seed1001_d3.00_q0_m5_R2SCAN-3C E -148.645471482984
  B       0.008172     -1.121231     -0.349333
  B      -0.008732      1.121319      0.349315
  B       0.290674      0.551897     -1.169425
  B      -0.289652     -0.551140      1.170244
  B       1.093503     -0.050119      0.425644
  B      -1.093966      0.049273     -0.426445
6
Coordinates from ORCA-job B6_random_3d_seed1001_d3.00_q0_m5_R2SCAN-3C E -148.645471702323
  B       0.007954     -1.121413     -0.349159
  B      -0.008832      1.121369      0.349308
  B       0.290730      0.551744     -1.169431
  B      -0.289604     -0.551520      1.170151
  B       1.093512     -0.049748      0.425574
  B      -1.093761      0.049567     -0.426444
