6
Coordinates from ORCA-job B6_random_3d_seed1002_d1.60_q0_m1_R2SCAN-3C E -148.557063788410
  B       0.410000     -0.459995     -1.003892
  B       0.791274      0.981879     -0.292941
  B      -0.818388      0.500488     -0.742463
  B       0.141194     -1.141754      0.404911
  B       0.482778      0.139860      1.110875
  B      -1.006859     -0.020478      0.523511
6
Coordinates from ORCA-job B6_random_3d_seed1002_d1.60_q0_m1_R2SCAN-3C E -148.587779553556
  B       0.409712     -0.463557     -1.012191
  B       0.796703      0.970039     -0.254902
  B      -0.849685      0.501126     -0.792828
  B       0.154307     -1.152122      0.399771
  B       0.525715      0.152994      1.122988
  B      -1.036751     -0.008480      0.537162
6
Coordinates from ORCA-job B6_random_3d_seed1002_d1.60_q0_m1_R2SCAN-3C E -148.606323533185
  B       0.402792     -0.467167     -1.022886
  B       0.797517      0.954259     -0.211265
  B      -0.877628      0.500025     -0.846345
  B       0.167489     -1.159025      0.393769
  B       0.568684      0.168449      1.137853
  B      -1.058853      0.003458      0.548874
6
Coordinates from ORCA-job B6_random_3d_seed1002_d1.60_q0_m1_R2SCAN-3C E -148.615439958020
  B       0.393572     -0.467808     -1.037174
  B       0.792064      0.939619     -0.166318
  B      -0.904677      0.485848     -0.900156
  B       0.176050     -1.158724      0.385139
  B       0.610470      0.176425      1.160856
  B      -1.067479      0.024640      0.557652
6
Coordinates from ORCA-job B6_random_3d_seed1002_d1.60_q0_m1_R2SCAN-3C E -148.621260089261
  B       0.389481     -0.463489     -1.059237
  B       0.775793      0.930844     -0.122250
  B      -0.932764      0.446792     -0.953937
  B       0.173230     -1.150115      0.369100
  B       0.649425      0.169919      1.197939
  B      -1.055166      0.066048      0.568385
6
Coordinates from ORCA-job B6_random_3d_seed1002_d1.60_q0_m1_R2SCAN-3C E -148.627333963189
  B       0.390399     -0.454047     -1.096519
  B       0.748333      0.921213     -0.071190
  B      -0.965141      0.376365     -1.007432
  B       0.158249     -1.128402      0.340875
  B       0.682455      0.152924      1.251987
  B      -1.014295      0.131947      0.582280
6
Coordinates from ORCA-job B6_random_3d_seed1002_d1.60_q0_m1_R2SCAN-3C E -148.632547709072
  B       0.400835     -0.442488     -1.133171
  B       0.726342      0.912216     -0.036496
  B      -0.988509      0.304331     -1.028880
  B       0.134013     -1.098607      0.311236
  B       0.688174      0.135071      1.293136
  B      -0.960855      0.189477      0.594175
6
Coordinates from ORCA-job B6_random_3d_seed1002_d1.60_q0_m1_R2SCAN-3C E -148.639274647613
  B       0.423215     -0.429342     -1.167660
  B       0.723253      0.901550     -0.026053
  B      -1.002379      0.239590     -1.011269
  B       0.104773     -1.059664      0.281635
  B       0.658553      0.121107      1.314731
  B      -0.907415      0.226758      0.608616
6
Coordinates from ORCA-job B6_random_3d_seed1002_d1.60_q0_m1_R2SCAN-3C E -148.648304867380
  B       0.457710     -0.411156     -1.208133
  B       0.762238      0.879547     -0.047966
  B      -1.006010      0.181605     -0.943398
  B       0.077806     -1.005154      0.247172
  B       0.576727      0.119808      1.315895
  B      -0.868471      0.235350      0.636430
6
Coordinates from ORCA-job B6_random_3d_seed1002_d1.60_q0_m1_R2SCAN-3C E -148.657004660786
  B       0.477423     -0.389487     -1.242872
  B       0.832756      0.840213     -0.076224
  B      -1.008899      0.146883     -0.879321
  B       0.078208     -0.959368      0.217928
  B       0.498075      0.139687      1.312420
  B      -0.877562      0.222072      0.668068
6
Coordinates from ORCA-job B6_random_3d_seed1002_d1.60_q0_m1_R2SCAN-3C E -148.673533750081
  B       0.498837     -0.350170     -1.276120
  B       0.945192      0.769147     -0.112199
  B      -1.017003      0.109854     -0.803330
  B       0.093775     -0.904547      0.181370
  B       0.414048      0.180802      1.296634
  B      -0.934848      0.194915      0.713644
6
Coordinates from ORCA-job B6_random_3d_seed1002_d1.60_q0_m1_R2SCAN-3C E -148.698570896296
  B       0.520298     -0.304231     -1.279308
  B       1.048882      0.703298     -0.136761
  B      -1.033086      0.080982     -0.763356
  B       0.109555     -0.876429      0.151750
  B       0.399831      0.224323      1.269854
  B      -1.045480      0.172057      0.757821
6
Coordinates from ORCA-job B6_random_3d_seed1002_d1.60_q0_m1_R2SCAN-3C E -148.713598667957
  B       0.515044     -0.260274     -1.294587
  B       1.123432      0.643260     -0.123235
  B      -1.057067      0.026362     -0.774282
  B       0.120497     -0.841897      0.124361
  B       0.408411      0.259589      1.273742
  B      -1.110317      0.172960      0.794002
6
Coordinates from ORCA-job B6_random_3d_seed1002_d1.60_q0_m1_R2SCAN-3C E -148.722285525652
  B       0.492701     -0.214161     -1.309735
  B       1.193711      0.576345     -0.107549
  B      -1.076913     -0.020223     -0.785876
  B       0.136700     -0.800841      0.112385
  B       0.398006      0.295650      1.275338
  B      -1.144205      0.163230      0.815437
6
Coordinates from ORCA-job B6_random_3d_seed1002_d1.60_q0_m1_R2SCAN-3C E -148.728742089177
  B       0.455186     -0.163287     -1.316208
  B       1.256465      0.519626     -0.086198
  B      -1.093455     -0.067198     -0.811178
  B       0.141367     -0.768910      0.116629
  B       0.398615      0.328258      1.276788
  B      -1.158177      0.151512      0.820165
6
Coordinates from ORCA-job B6_random_3d_seed1002_d1.60_q0_m1_R2SCAN-3C E -148.732847225965
  B       0.430101     -0.107981     -1.314476
  B       1.316018      0.463244     -0.075436
  B      -1.102494     -0.114303     -0.814529
  B       0.130019     -0.736070      0.118719
  B       0.383127      0.358311      1.266507
  B      -1.156771      0.136798      0.819216
6
Coordinates from ORCA-job B6_random_3d_seed1002_d1.60_q0_m1_R2SCAN-3C E -148.734523900259
  B       0.410675     -0.073362     -1.308960
  B       1.341109      0.432647     -0.065566
  B      -1.111038     -0.135553     -0.823114
  B       0.120879     -0.726508      0.131930
  B       0.383515      0.379565      1.259909
  B      -1.145140      0.123211      0.805800
6
Coordinates from ORCA-job B6_random_3d_seed1002_d1.60_q0_m1_R2SCAN-3C E -148.735394737036
  B       0.409729     -0.054487     -1.306878
  B       1.346517      0.412545     -0.061321
  B      -1.117468     -0.143633     -0.817474
  B       0.116727     -0.723024      0.135193
  B       0.379305      0.394252      1.253715
  B      -1.134809      0.114348      0.796764
6
Coordinates from ORCA-job B6_random_3d_seed1002_d1.60_q0_m1_R2SCAN-3C E -148.736164314963
  B       0.411215     -0.040328     -1.306063
  B       1.340064      0.398524     -0.054805
  B      -1.124778     -0.146215     -0.813748
  B       0.114861     -0.729515      0.138011
  B       0.383964      0.409881      1.251442
  B      -1.125326      0.107652      0.785163
6
Coordinates from ORCA-job B6_random_3d_seed1002_d1.60_q0_m1_R2SCAN-3C E -148.736574813913
  B       0.414827     -0.031736     -1.308189
  B       1.333616      0.387786     -0.050771
  B      -1.127829     -0.148283     -0.808680
  B       0.117276     -0.735560      0.133904
  B       0.385702      0.421567      1.251708
  B      -1.123593      0.106226      0.782029
6
Coordinates from ORCA-job B6_random_3d_seed1002_d1.60_q0_m1_R2SCAN-3C E -148.736811769999
  B       0.414935     -0.024832     -1.311320
  B       1.330337      0.380676     -0.047972
  B      -1.126494     -0.151766     -0.806663
  B       0.118549     -0.741967      0.129481
  B       0.387241      0.430129      1.254168
  B      -1.124569      0.107761      0.782306
6
Coordinates from ORCA-job B6_random_3d_seed1002_d1.60_q0_m1_R2SCAN-3C E -148.736961888302
  B       0.412603     -0.017894     -1.314252
  B       1.330048      0.372003     -0.047294
  B      -1.122205     -0.153116     -0.804684
  B       0.121711     -0.746994      0.127345
  B       0.384657      0.438367      1.254520
  B      -1.126814      0.107635      0.784365
6
Coordinates from ORCA-job B6_random_3d_seed1002_d1.60_q0_m1_R2SCAN-3C E -148.737040210739
  B       0.409564     -0.012460     -1.316345
  B       1.330730      0.367548     -0.047715
  B      -1.116053     -0.154774     -0.803423
  B       0.121074     -0.751334      0.127216
  B       0.382050      0.442764      1.254282
  B      -1.127365      0.108256      0.785985
6
Coordinates from ORCA-job B6_random_3d_seed1002_d1.60_q0_m1_R2SCAN-3C E -148.737065164627
  B       0.407650     -0.009730     -1.316960
  B       1.331099      0.363947     -0.048452
  B      -1.113020     -0.153839     -0.802755
  B       0.122579     -0.752171      0.129246
  B       0.379182      0.444728      1.252146
  B      -1.127490      0.107064      0.786774
6
Coordinates from ORCA-job B6_random_3d_seed1002_d1.60_q0_m1_R2SCAN-3C E -148.737074476668
  B       0.407611     -0.008958     -1.317180
  B       1.330856      0.364438     -0.048789
  B      -1.111560     -0.154664     -0.802573
  B       0.121175     -0.752225      0.130183
  B       0.378896      0.443638      1.251313
  B      -1.126978      0.107770      0.787045
6
Coordinates from ORCA-job B6_random_3d_seed1002_d1.60_q0_m1_R2SCAN-3C E -148.737079996345
  B       0.408040     -0.008405     -1.317371
  B       1.330219      0.364606     -0.048840
  B      -1.111219     -0.155407     -0.802623
  B       0.120822     -0.751793      0.130992
  B       0.379097      0.442497      1.250532
  B      -1.126959      0.108503      0.787310
6
Coordinates from ORCA-job B6_random_3d_seed1002_d1.60_q0_m1_R2SCAN-3C E -148.737083555032
  B       0.408648     -0.007576     -1.317779
  B       1.329485      0.364655     -0.048729
  B      -1.111091     -0.156799     -0.802636
  B       0.120590     -0.751528      0.131253
  B       0.379650      0.441428      1.250245
  B      -1.127283      0.109821      0.787646
6
Coordinates from ORCA-job B6_random_3d_seed1002_d1.60_q0_m1_R2SCAN-3C E -148.737085192615
  B       0.408885     -0.006802     -1.318112
  B       1.329145      0.364475     -0.048648
  B      -1.111057     -0.157943     -0.802582
  B       0.120677     -0.751553      0.131218
  B       0.380025      0.440916      1.250378
  B      -1.127676      0.110908      0.787746
6
Coordinates from ORCA-job B6_random_3d_seed1002_d1.60_q0_m1_R2SCAN-3C E -148.737086417837
  B       0.408848     -0.006187     -1.318302
  B       1.329093      0.364362     -0.048657
  B      -1.111074     -0.158858     -0.802468
  B       0.120886     -0.751681      0.131159
  B       0.380243      0.440513      1.250710
  B      -1.127995      0.111850      0.787559
6
Coordinates from ORCA-job B6_random_3d_seed1002_d1.60_q0_m1_R2SCAN-3C E -148.737087703362
  B       0.408553     -0.005306     -1.318443
  B       1.329209      0.364339     -0.048740
  B      -1.111054     -0.160255     -0.802205
  B       0.121163     -0.751831      0.131147
  B       0.380427      0.439715      1.251257
  B      -1.128298      0.113339      0.786984
6
Coordinates from ORCA-job B6_random_3d_seed1002_d1.60_q0_m1_R2SCAN-3C E -148.737088343305
  B       0.408231     -0.005149     -1.318310
  B       1.329368      0.364579     -0.048837
  B      -1.111060     -0.160634     -0.802056
  B       0.121326     -0.751912      0.131271
  B       0.380437      0.439196      1.251475
  B      -1.128302      0.113919      0.786456
6
Coordinates from ORCA-job B6_random_3d_seed1002_d1.60_q0_m1_R2SCAN-3C E -148.737088623392
  B       0.407969     -0.005253     -1.318067
  B       1.329525      0.364843     -0.048900
  B      -1.111055     -0.160674     -0.801914
  B       0.121367     -0.751871      0.131334
  B       0.380336      0.438839      1.251501
  B      -1.128143      0.114116      0.786046
6
Coordinates from ORCA-job B6_random_3d_seed1002_d1.60_q0_m1_R2SCAN-3C E -148.737088642659
  B       0.407940     -0.005327     -1.317999
  B       1.329505      0.364923     -0.048884
  B      -1.111040     -0.160612     -0.801927
  B       0.121351     -0.751869      0.131349
  B       0.380348      0.438790      1.251440
  B      -1.128104      0.114095      0.786021
