6
Coordinates from ORCA-job B6_random_3d_seed1002_d1.60_q0_m1_R2SCAN-3C E -148.737088642659
  B           0.40793983368557     -0.00532744677296     -1.31799900214773
  B           1.32950541705344      0.36492349810695     -0.04888368730860
  B          -1.11104022592538     -0.16061231960402     -0.80192679623285
  B           0.12135087768228     -0.75186885310605      0.13134889585312
  B           0.38034806277883      0.43878960570240      1.25143986543916
  B          -1.12810395527474      0.11409549567368      0.78602071439690
