6
Coordinates from ORCA-job B6_linear_chain_d1.80_q0_m5_R2SCAN-3C E -148.613021000583
  B          -3.86276498518245      0.00000005067648     -0.00000004476573
  B          -2.32350484996091     -0.00000000732942     -0.00000000090809
  B          -0.76942616206133     -0.00000005134180      0.00000004738013
  B           0.76942615653034     -0.00000003304133      0.00000003493208
  B           2.32350485150147     -0.00000000400571      0.00000001549795
  B           3.86276498917288      0.00000004504178     -0.00000005213633
