6
Coordinates from ORCA-job B6_linear_chain_d1.80_q0_m5_R2SCAN-3C E -148.488272577460
  B      -4.500000      0.000000      0.000000
  B      -2.700000      0.000000      0.000000
  B      -0.900000      0.000000      0.000000
  B       0.900000      0.000000      0.000000
  B       2.700000      0.000000      0.000000
  B       4.500000      0.000000      0.000000
6
Coordinates from ORCA-job B6_linear_chain_d1.80_q0_m5_R2SCAN-3C E -148.541251607314
  B      -4.323161      0.000000     -0.000000
  B      -2.596481     -0.000000      0.000000
  B      -0.860286     -0.000000      0.000000
  B       0.860286     -0.000000      0.000000
  B       2.596481     -0.000000      0.000000
  B       4.323161      0.000000     -0.000000
6
Coordinates from ORCA-job B6_linear_chain_d1.80_q0_m5_R2SCAN-3C E -148.583086863495
  B      -4.146078      0.000000     -0.000000
  B      -2.493147     -0.000000      0.000000
  B      -0.822021     -0.000000      0.000000
  B       0.822021     -0.000000      0.000000
  B       2.493147     -0.000000      0.000000
  B       4.146078      0.000000     -0.000000
6
Coordinates from ORCA-job B6_linear_chain_d1.80_q0_m5_R2SCAN-3C E -148.612849847119
  B      -3.879920      0.000000     -0.000000
  B      -2.336616      0.000000     -0.000000
  B      -0.770105     -0.000000      0.000000
  B       0.770105     -0.000000      0.000000
  B       2.336616     -0.000000      0.000000
  B       3.879920      0.000000     -0.000000
6
Coordinates from ORCA-job B6_linear_chain_d1.80_q0_m5_R2SCAN-3C E -148.612995769391
  B      -3.857328      0.000000     -0.000000
  B      -2.319063      0.000000     -0.000000
  B      -0.769870     -0.000000      0.000000
  B       0.769870     -0.000000      0.000000
  B       2.319063     -0.000000      0.000000
  B       3.857328      0.000000     -0.000000
6
Coordinates from ORCA-job B6_linear_chain_d1.80_q0_m5_R2SCAN-3C E -148.613020804321
  B      -3.862632      0.000000     -0.000000
  B      -2.323487      0.000000     -0.000000
  B      -0.769185     -0.000000      0.000000
  B       0.769185     -0.000000      0.000000
  B       2.323487     -0.000000      0.000000
  B       3.862632      0.000000     -0.000000
6
Coordinates from ORCA-job B6_linear_chain_d1.80_q0_m5_R2SCAN-3C E -148.613020974467
  B      -3.862923      0.000000     -0.000000
  B      -2.323617     -0.000000     -0.000000
  B      -0.769522     -0.000000      0.000000
  B       0.769522     -0.000000      0.000000
  B       2.323617     -0.000000      0.000000
  B       3.862923      0.000000     -0.000000
6
Coordinates from ORCA-job B6_linear_chain_d1.80_q0_m5_R2SCAN-3C E -148.613020999848
  B      -3.862765      0.000000     -0.000000
  B      -2.323498     -0.000000     -0.000000
  B      -0.769427     -0.000000      0.000000
  B       0.769427     -0.000000      0.000000
  B       2.323498     -0.000000      0.000000
  B       3.862765      0.000000     -0.000000
6
Coordinates from ORCA-job B6_linear_chain_d1.80_q0_m5_R2SCAN-3C E -148.613021000583
  B      -3.862765      0.000000     -0.000000
  B      -2.323505     -0.000000     -0.000000
  B      -0.769426     -0.000000      0.000000
  B       0.769426     -0.000000      0.000000
  B       2.323505     -0.000000      0.000000
  B       3.862765      0.000000     -0.000000
