6
Coordinates from ORCA-job B6_random_3d_seed1001_d2.50_q0_m5_R2SCAN-3C E -148.198638005365
  B       0.160425     -1.769446     -0.520969
  B      -0.079291      1.635644      0.562039
  B       0.448005      0.628776     -1.582202
  B      -0.507912     -0.779248      1.634876
  B       1.699566      0.100717      0.524570
  B      -1.720794      0.183558     -0.618314
6
Coordinates from ORCA-job B6_random_3d_seed1001_d2.50_q0_m5_R2SCAN-3C E -148.219807832837
  B       0.159026     -1.744551     -0.499968
  B      -0.075115      1.604013      0.542823
  B       0.432663      0.625315     -1.554227
  B      -0.495150     -0.780668      1.610741
  B       1.666508      0.102686      0.516147
  B      -1.687931      0.193205     -0.615516
6
Coordinates from ORCA-job B6_random_3d_seed1001_d2.50_q0_m5_R2SCAN-3C E -148.241949776225
  B       0.157567     -1.720237     -0.478438
  B      -0.071272      1.572716      0.523104
  B       0.416968      0.622583     -1.526765
  B      -0.482371     -0.782939      1.587081
  B       1.633271      0.104504      0.507764
  B      -1.654164      0.203372     -0.612745
6
Coordinates from ORCA-job B6_random_3d_seed1001_d2.50_q0_m5_R2SCAN-3C E -148.276725249697
  B       0.155246     -1.683816     -0.445871
  B      -0.066651      1.526531      0.493588
  B       0.393295      0.618632     -1.486133
  B      -0.462917     -0.786411      1.551353
  B       1.583482      0.106322      0.495294
  B      -1.602454      0.218742     -0.608231
6
Coordinates from ORCA-job B6_random_3d_seed1001_d2.50_q0_m5_R2SCAN-3C E -148.332641555092
  B       0.151289     -1.628282     -0.396459
  B      -0.062548      1.458897      0.450610
  B       0.357226      0.612044     -1.427077
  B      -0.432151     -0.790831      1.496154
  B       1.509356      0.106424      0.477837
  B      -1.523171      0.241747     -0.601064
6
Coordinates from ORCA-job B6_random_3d_seed1001_d2.50_q0_m5_R2SCAN-3C E -148.399083382798
  B       0.142998     -1.571570     -0.346047
  B      -0.057508      1.391127      0.409186
  B       0.316459      0.604424     -1.367508
  B      -0.396665     -0.792930      1.434752
  B       1.433646      0.106684      0.465005
  B      -1.438932      0.262265     -0.595388
6
Coordinates from ORCA-job B6_random_3d_seed1001_d2.50_q0_m5_R2SCAN-3C E -148.474961652957
  B       0.124336     -1.513239     -0.289511
  B      -0.044301      1.327509      0.369773
  B       0.281821      0.599492     -1.303137
  B      -0.361624     -0.794559      1.357309
  B       1.367887      0.112428      0.454385
  B      -1.368118      0.268369     -0.588820
6
Coordinates from ORCA-job B6_random_3d_seed1001_d2.50_q0_m5_R2SCAN-3C E -148.540572542315
  B       0.108117     -1.448464     -0.232468
  B      -0.032532      1.264948      0.331997
  B       0.256611      0.593191     -1.240966
  B      -0.334255     -0.795928      1.278161
  B       1.304538      0.116712      0.437416
  B      -1.302480      0.269541     -0.574140
6
Coordinates from ORCA-job B6_random_3d_seed1001_d2.50_q0_m5_R2SCAN-3C E -148.575076820473
  B       0.101391     -1.398331     -0.206478
  B      -0.024625      1.222019      0.321779
  B       0.236111      0.579259     -1.213160
  B      -0.315542     -0.787004      1.233473
  B       1.249590      0.115995      0.427384
  B      -1.246924      0.268062     -0.562997
6
Coordinates from ORCA-job B6_random_3d_seed1001_d2.50_q0_m5_R2SCAN-3C E -148.592309544848
  B       0.101073     -1.361429     -0.203210
  B      -0.021003      1.194555      0.324810
  B       0.226509      0.563857     -1.202607
  B      -0.302536     -0.769722      1.212498
  B       1.207859      0.109658      0.422234
  B      -1.211903      0.263080     -0.553725
6
Coordinates from ORCA-job B6_random_3d_seed1001_d2.50_q0_m5_R2SCAN-3C E -148.611602493592
  B       0.100886     -1.298903     -0.214166
  B      -0.022867      1.158702      0.336370
  B       0.228714      0.537406     -1.195122
  B      -0.285340     -0.730004      1.186436
  B       1.153180      0.089984      0.417037
  B      -1.174574      0.242816     -0.530556
6
Coordinates from ORCA-job B6_random_3d_seed1001_d2.50_q0_m5_R2SCAN-3C E -148.630520383970
  B       0.090624     -1.201608     -0.250620
  B      -0.033882      1.123992      0.354486
  B       0.246310      0.499180     -1.183896
  B      -0.268308     -0.663652      1.157837
  B       1.098871      0.052679      0.412140
  B      -1.133615      0.189409     -0.489947
6
Coordinates from ORCA-job B6_random_3d_seed1001_d2.50_q0_m5_R2SCAN-3C E -148.640596385872
  B       0.053493     -1.121936     -0.303078
  B      -0.033725      1.111797      0.370376
  B       0.268529      0.473089     -1.171004
  B      -0.267167     -0.609303      1.145470
  B       1.079173      0.037113      0.411959
  B      -1.100304      0.109240     -0.453723
6
Coordinates from ORCA-job B6_random_3d_seed1001_d2.50_q0_m5_R2SCAN-3C E -148.643656007644
  B       0.021913     -1.086898     -0.326714
  B      -0.044990      1.123493      0.361688
  B       0.285734      0.486166     -1.176296
  B      -0.265144     -0.591247      1.152128
  B       1.087393      0.012316      0.422147
  B      -1.084907      0.056170     -0.432953
6
Coordinates from ORCA-job B6_random_3d_seed1001_d2.50_q0_m5_R2SCAN-3C E -148.645204973125
  B       0.025470     -1.104238     -0.344981
  B      -0.044638      1.126211      0.342721
  B       0.295724      0.508653     -1.172067
  B      -0.263026     -0.583971      1.175966
  B       1.090959      0.002491      0.428703
  B      -1.104489      0.050854     -0.430343
6
Coordinates from ORCA-job B6_random_3d_seed1001_d2.50_q0_m5_R2SCAN-3C E -148.645328315449
  B       0.021386     -1.108088     -0.347008
  B      -0.042489      1.131037      0.336428
  B       0.297279      0.524482     -1.174788
  B      -0.253915     -0.576499      1.177136
  B       1.085879     -0.009813      0.438822
  B      -1.108140      0.038881     -0.430590
6
Coordinates from ORCA-job B6_random_3d_seed1001_d2.50_q0_m5_R2SCAN-3C E -148.645381766218
  B       0.022575     -1.107598     -0.349577
  B      -0.042615      1.130918      0.332829
  B       0.294965      0.527388     -1.170104
  B      -0.259489     -0.574220      1.180889
  B       1.088243     -0.012441      0.435070
  B      -1.103680      0.035954     -0.429107
6
Coordinates from ORCA-job B6_random_3d_seed1001_d2.50_q0_m5_R2SCAN-3C E -148.645410441392
  B       0.025460     -1.110204     -0.347138
  B      -0.041430      1.130462      0.335323
  B       0.294526      0.528948     -1.170590
  B      -0.264360     -0.572065      1.177712
  B       1.089485     -0.012391      0.431720
  B      -1.103681      0.035250     -0.427026
6
Coordinates from ORCA-job B6_random_3d_seed1001_d2.50_q0_m5_R2SCAN-3C E -148.645446125674
  B       0.028356     -1.115746     -0.345627
  B      -0.037933      1.129452      0.338303
  B       0.290670      0.534711     -1.170750
  B      -0.270377     -0.565348      1.174257
  B       1.089837     -0.014268      0.429287
  B      -1.100553      0.031200     -0.425469
6
Coordinates from ORCA-job B6_random_3d_seed1001_d2.50_q0_m5_R2SCAN-3C E -148.645472805094
  B       0.034180     -1.124650     -0.342413
  B      -0.033943      1.128502      0.340644
  B       0.282239      0.547083     -1.171604
  B      -0.279905     -0.554150      1.170418
  B       1.090776     -0.021732      0.426371
  B      -1.093346      0.024947     -0.423417
6
Coordinates from ORCA-job B6_random_3d_seed1001_d2.50_q0_m5_R2SCAN-3C E -148.645477192573
  B       0.033139     -1.125466     -0.342679
  B      -0.031693      1.127622      0.340798
  B       0.281082      0.549719     -1.172136
  B      -0.281318     -0.552934      1.171322
  B       1.090963     -0.021219      0.426619
  B      -1.092174      0.022277     -0.423924
6
Coordinates from ORCA-job B6_random_3d_seed1001_d2.50_q0_m5_R2SCAN-3C E -148.645478717875
  B       0.033233     -1.124833     -0.342533
  B      -0.032485      1.127508      0.340407
  B       0.281021      0.549173     -1.172429
  B      -0.280427     -0.553664      1.171878
  B       1.091188     -0.021579      0.427197
  B      -1.092531      0.023396     -0.424521
6
Coordinates from ORCA-job B6_random_3d_seed1001_d2.50_q0_m5_R2SCAN-3C E -148.645479225823
  B       0.033392     -1.124591     -0.342459
  B      -0.032635      1.126887      0.340410
  B       0.280707      0.549433     -1.172646
  B      -0.280457     -0.553236      1.172022
  B       1.091582     -0.021960      0.427433
  B      -1.092588      0.023467     -0.424760
6
Coordinates from ORCA-job B6_random_3d_seed1001_d2.50_q0_m5_R2SCAN-3C E -148.645479788360
  B       0.033681     -1.123904     -0.342342
  B      -0.032705      1.125113      0.340784
  B       0.279767      0.549992     -1.173134
  B      -0.280576     -0.551854      1.172293
  B       1.092770     -0.022726      0.428083
  B      -1.092937      0.023379     -0.425684
6
Coordinates from ORCA-job B6_random_3d_seed1001_d2.50_q0_m5_R2SCAN-3C E -148.645479439813
  B       0.034651     -1.124088     -0.341770
  B      -0.031930      1.122876      0.341626
  B       0.277771      0.552306     -1.173581
  B      -0.282025     -0.548741      1.172205
  B       1.094333     -0.024408      0.428236
  B      -1.092801      0.022054     -0.426715
6
Coordinates from ORCA-job B6_random_3d_seed1001_d2.50_q0_m5_R2SCAN-3C E -148.645480188703
  B       0.034013     -1.123908     -0.342086
  B      -0.032245      1.124157      0.341269
  B       0.279001      0.550914     -1.173228
  B      -0.281131     -0.550507      1.172261
  B       1.093440     -0.023334      0.428078
  B      -1.093079      0.022679     -0.426294
6
Coordinates from ORCA-job B6_random_3d_seed1001_d2.50_q0_m5_R2SCAN-3C E -148.645480264250
  B       0.033722     -1.123719     -0.342218
  B      -0.032437      1.124530      0.341206
  B       0.279511      0.550251     -1.173072
  B      -0.280697     -0.551152      1.172291
  B       1.093168     -0.022886      0.428026
  B      -1.093266      0.022976     -0.426232
