6
Coordinates from ORCA-job B6_random_3d_seed1001_d2.50_q0_m5_R2SCAN-3C E -148.645480264250
  B           0.03372160194102     -1.12371877115268     -0.34221814566625
  B          -0.03243677207930      1.12453009767152      0.34120600347530
  B           0.27951113537226      0.55025058592353     -1.17307176649921
  B          -0.28069729550720     -0.55115186197835      1.17229060826635
  B           1.09316781882032     -0.02288621719309      0.42802575767055
  B          -1.09326648854710      0.02297617672906     -0.42623245724674
