6
Coordinates from ORCA-job B6_random_3d_seed1001_d2.20_q0_m3_R2SCAN-3C E -148.696205962395
  B           0.10538495769164     -1.10552421651860     -0.40732486001605
  B          -0.10463850281499      1.10545259116336      0.40800552893218
  B           0.33441423163957      0.41977560140522     -1.05431811951036
  B          -0.33513778035713     -0.42050389198487      1.05373734473672
  B           1.12980589283249     -0.02128884885092      0.34993580187977
  B          -1.12982880899157      0.02208877478581     -0.35003568602226
