6
Coordinates from ORCA-job B6_random_3d_seed1001_d2.20_q0_m3_R2SCAN-3C E -148.370260216419
  B       0.146493     -1.569205     -0.447151
  B      -0.067161      1.438376      0.487309
  B       0.392042      0.552130     -1.392666
  B      -0.450617     -0.699258      1.444170
  B       1.495508      0.105786      0.466321
  B      -1.516265      0.172172     -0.557982
6
Coordinates from ORCA-job B6_random_3d_seed1001_d2.20_q0_m3_R2SCAN-3C E -148.398209561731
  B       0.142800     -1.544102     -0.427802
  B      -0.062026      1.411144      0.469306
  B       0.379293      0.547796     -1.362488
  B      -0.439716     -0.698236      1.413964
  B       1.463746      0.107645      0.457490
  B      -1.484097      0.175753     -0.550470
6
Coordinates from ORCA-job B6_random_3d_seed1001_d2.20_q0_m3_R2SCAN-3C E -148.427250799735
  B       0.138285     -1.519018     -0.407005
  B      -0.056910      1.384155      0.450957
  B       0.366811      0.544563     -1.332665
  B      -0.428793     -0.698060      1.382932
  B       1.432776      0.109482      0.448716
  B      -1.452169      0.178877     -0.542935
6
Coordinates from ORCA-job B6_random_3d_seed1001_d2.20_q0_m3_R2SCAN-3C E -148.473151879246
  B       0.128809     -1.479100     -0.371016
  B      -0.050717      1.339919      0.422822
  B       0.349300      0.544103     -1.293990
  B      -0.410556     -0.698698      1.334899
  B       1.389177      0.110836      0.438805
  B      -1.406013      0.182940     -0.531520
6
Coordinates from ORCA-job B6_random_3d_seed1001_d2.20_q0_m3_R2SCAN-3C E -148.539020789299
  B       0.111515     -1.408325     -0.316143
  B      -0.043107      1.270447      0.384408
  B       0.325375      0.541417     -1.241033
  B      -0.383316     -0.699227      1.265031
  B       1.328131      0.110858      0.424056
  B      -1.338598      0.184829     -0.516319
6
Coordinates from ORCA-job B6_random_3d_seed1001_d2.20_q0_m3_R2SCAN-3C E -148.593011159242
  B       0.089020     -1.324698     -0.264427
  B      -0.039184      1.191718      0.351257
  B       0.297895      0.536060     -1.196475
  B      -0.354922     -0.694569      1.199623
  B       1.271320      0.108829      0.413704
  B      -1.264130      0.182661     -0.503681
6
Coordinates from ORCA-job B6_random_3d_seed1001_d2.20_q0_m3_R2SCAN-3C E -148.624852878454
  B       0.065478     -1.232004     -0.248747
  B      -0.048163      1.109362      0.337484
  B       0.272295      0.517952     -1.164791
  B      -0.325158     -0.656195      1.150704
  B       1.218729      0.094630      0.412724
  B      -1.183181      0.166255     -0.487375
6
Coordinates from ORCA-job B6_random_3d_seed1001_d2.20_q0_m3_R2SCAN-3C E -148.655246136544
  B       0.042485     -1.148382     -0.283068
  B      -0.072897      1.045258      0.351487
  B       0.265813      0.484831     -1.145237
  B      -0.291943     -0.574838      1.115687
  B       1.190974      0.064636      0.427911
  B      -1.134432      0.128495     -0.466780
6
Coordinates from ORCA-job B6_random_3d_seed1001_d2.20_q0_m3_R2SCAN-3C E -148.670501248787
  B       0.035739     -1.072574     -0.330209
  B      -0.101353      0.993062      0.378798
  B       0.275595      0.432052     -1.115506
  B      -0.279271     -0.488270      1.077427
  B       1.160109      0.041513      0.418609
  B      -1.090818      0.094216     -0.429119
6
Coordinates from ORCA-job B6_random_3d_seed1001_d2.20_q0_m3_R2SCAN-3C E -148.687455780782
  B       0.052082     -1.085598     -0.369392
  B      -0.122545      1.025409      0.414017
  B       0.321270      0.407408     -1.111846
  B      -0.303810     -0.457521      1.075283
  B       1.173487      0.033644      0.389088
  B      -1.120483      0.076658     -0.397150
6
Coordinates from ORCA-job B6_random_3d_seed1001_d2.20_q0_m3_R2SCAN-3C E -148.694236491869
  B       0.064973     -1.095218     -0.389568
  B      -0.132652      1.070895      0.428422
  B       0.349230      0.397499     -1.084308
  B      -0.315749     -0.437081      1.054896
  B       1.159858      0.014080      0.358621
  B      -1.125660      0.049824     -0.368063
6
Coordinates from ORCA-job B6_random_3d_seed1001_d2.20_q0_m3_R2SCAN-3C E -148.695764848877
  B       0.083907     -1.112447     -0.398695
  B      -0.132713      1.104379      0.424074
  B       0.356619      0.402907     -1.062430
  B      -0.318212     -0.433188      1.051999
  B       1.139433     -0.003907      0.341631
  B      -1.129034      0.042255     -0.356579
6
Coordinates from ORCA-job B6_random_3d_seed1001_d2.20_q0_m3_R2SCAN-3C E -148.695985834604
  B       0.086409     -1.108967     -0.401407
  B      -0.125012      1.105366      0.419159
  B       0.353220      0.406883     -1.055379
  B      -0.319725     -0.428798      1.050732
  B       1.132260     -0.008119      0.341588
  B      -1.127152      0.033635     -0.354693
6
Coordinates from ORCA-job B6_random_3d_seed1001_d2.20_q0_m3_R2SCAN-3C E -148.696132281516
  B       0.094289     -1.107840     -0.403317
  B      -0.113944      1.105283      0.409607
  B       0.343517      0.415206     -1.050933
  B      -0.324100     -0.427595      1.054540
  B       1.127814     -0.013930      0.345123
  B      -1.127577      0.028877     -0.355019
6
Coordinates from ORCA-job B6_random_3d_seed1001_d2.20_q0_m3_R2SCAN-3C E -148.696175253654
  B       0.099231     -1.106611     -0.404968
  B      -0.110073      1.103792      0.407816
  B       0.339322      0.417358     -1.051460
  B      -0.328795     -0.424514      1.054691
  B       1.128330     -0.016849      0.346839
  B      -1.128015      0.026824     -0.352918
6
Coordinates from ORCA-job B6_random_3d_seed1001_d2.20_q0_m3_R2SCAN-3C E -148.696203482266
  B       0.104573     -1.106022     -0.407183
  B      -0.105117      1.104235      0.407507
  B       0.334756      0.419444     -1.053582
  B      -0.334964     -0.421305      1.054515
  B       1.129959     -0.019768      0.349243
  B      -1.129208      0.023417     -0.350501
6
Coordinates from ORCA-job B6_random_3d_seed1001_d2.20_q0_m3_R2SCAN-3C E -148.696205547928
  B       0.105712     -1.105711     -0.407382
  B      -0.104646      1.105007      0.407964
  B       0.334233      0.419522     -1.054186
  B      -0.335428     -0.420581      1.053942
  B       1.129820     -0.020935      0.349698
  B      -1.129692      0.022698     -0.350036
6
Coordinates from ORCA-job B6_random_3d_seed1001_d2.20_q0_m3_R2SCAN-3C E -148.696205882105
  B       0.105527     -1.105585     -0.407341
  B      -0.104502      1.105386      0.408055
  B       0.334278      0.419687     -1.054355
  B      -0.335341     -0.420549      1.053746
  B       1.129839     -0.021142      0.349911
  B      -1.129802      0.022203     -0.350017
6
Coordinates from ORCA-job B6_random_3d_seed1001_d2.20_q0_m3_R2SCAN-3C E -148.696205962395
  B       0.105385     -1.105524     -0.407325
  B      -0.104639      1.105453      0.408006
  B       0.334414      0.419776     -1.054318
  B      -0.335138     -0.420504      1.053737
  B       1.129806     -0.021289      0.349936
  B      -1.129829      0.022089     -0.350036
