6
Coordinates from ORCA-job B6_random_3d_seed1001_d3.50_q0_m1_R2SCAN-3C E -147.858143682552
  B       0.202838     -2.427755     -0.775587
  B      -0.121704      2.293952      0.816657
  B       0.636220      0.885166     -2.213739
  B      -0.696126     -1.035639      2.266413
  B       2.379843      0.070824      0.715175
  B      -2.401071      0.213451     -0.808919
6
Coordinates from ORCA-job B6_random_3d_seed1001_d3.50_q0_m1_R2SCAN-3C E -147.867935344165
  B       0.191481     -2.404992     -0.757674
  B      -0.108153      2.262745      0.796925
  B       0.618320      0.881607     -2.179736
  B      -0.679607     -1.036743      2.238950
  B       2.350988      0.082162      0.714234
  B      -2.373029      0.215223     -0.812697
6
Coordinates from ORCA-job B6_random_3d_seed1001_d3.50_q0_m1_R2SCAN-3C E -147.878245308516
  B       0.180019     -2.382873     -0.739738
  B      -0.094130      2.231676      0.776649
  B       0.600216      0.878755     -2.145393
  B      -0.663094     -1.038107      2.211774
  B       2.321948      0.093667      0.713377
  B      -2.344959      0.216882     -0.816668
6
Coordinates from ORCA-job B6_random_3d_seed1001_d3.50_q0_m1_R2SCAN-3C E -147.894748677308
  B       0.163012     -2.350281     -0.713005
  B      -0.072781      2.185333      0.745973
  B       0.572924      0.875110     -2.093732
  B      -0.638595     -1.040055      2.171350
  B       2.277765      0.110784      0.711865
  B      -2.302325      0.219107     -0.822451
6
Coordinates from ORCA-job B6_random_3d_seed1001_d3.50_q0_m1_R2SCAN-3C E -147.922103222538
  B       0.138211     -2.302650     -0.673382
  B      -0.040202      2.116304      0.699212
  B       0.532008      0.871202     -2.015966
  B      -0.602686     -1.042588      2.111575
  B       2.209883      0.135896      0.708847
  B      -2.237214      0.221837     -0.830286
6
Coordinates from ORCA-job B6_random_3d_seed1001_d3.50_q0_m1_R2SCAN-3C E -147.953993780149
  B       0.112931     -2.256000     -0.632447
  B      -0.004455      2.045864      0.651002
  B       0.488223      0.869023     -1.936338
  B      -0.566028     -1.045848      2.051310
  B       2.138256      0.162479      0.705901
  B      -2.168928      0.224483     -0.839428
6
Coordinates from ORCA-job B6_random_3d_seed1001_d3.50_q0_m1_R2SCAN-3C E -147.990036740874
  B       0.088353     -2.211652     -0.591797
  B       0.033184      1.976050      0.603124
  B       0.442973      0.868549     -1.857392
  B      -0.530128     -1.049275      1.992825
  B       2.065564      0.189393      0.702868
  B      -2.099946      0.226935     -0.849628
6
Coordinates from ORCA-job B6_random_3d_seed1001_d3.50_q0_m1_R2SCAN-3C E -148.017144894634
  B       0.072555     -2.183824     -0.564872
  B       0.060308      1.928462      0.568747
  B       0.411135      0.870686     -1.802328
  B      -0.506800     -1.051737      1.955344
  B       2.017037      0.207791      0.700855
  B      -2.054235      0.228623     -0.857745
6
Coordinates from ORCA-job B6_random_3d_seed1001_d3.50_q0_m1_R2SCAN-3C E -148.061301491802
  B       0.050615     -2.142821     -0.525911
  B       0.099398      1.858474      0.522371
  B       0.364563      0.871305     -1.723989
  B      -0.473257     -1.053970      1.900567
  B       1.942559      0.235004      0.695559
  B      -1.983878      0.232007     -0.868596
6
Coordinates from ORCA-job B6_random_3d_seed1001_d3.50_q0_m1_R2SCAN-3C E -148.110616722503
  B       0.030973     -2.103031     -0.488263
  B       0.137750      1.787991      0.477655
  B       0.318183      0.871132     -1.645711
  B      -0.441569     -1.054712      1.847720
  B       1.867146      0.261953      0.687572
  B      -1.912483      0.236668     -0.878973
6
Coordinates from ORCA-job B6_random_3d_seed1001_d3.50_q0_m1_R2SCAN-3C E -148.147062222331
  B       0.019632     -2.077298     -0.463777
  B       0.163125      1.738877      0.446089
  B       0.287296      0.871475     -1.590292
  B      -0.421897     -1.054417      1.813729
  B       1.816547      0.280236      0.680046
  B      -1.864703      0.241127     -0.885796
6
Coordinates from ORCA-job B6_random_3d_seed1001_d3.50_q0_m1_R2SCAN-3C E -148.172328154821
  B       0.013011     -2.060357     -0.447807
  B       0.179184      1.705901      0.425879
  B       0.267043      0.870792     -1.553353
  B      -0.409410     -1.053733      1.791524
  B       1.782610      0.292340      0.673762
  B      -1.832438      0.245056     -0.890005
6
Coordinates from ORCA-job B6_random_3d_seed1001_d3.50_q0_m1_R2SCAN-3C E -148.211604977753
  B       0.004224     -2.034500     -0.424303
  B       0.201518      1.656254      0.396982
  B       0.237863      0.868156     -1.498369
  B      -0.391357     -1.051742      1.758241
  B       1.731050      0.309932      0.662509
  B      -1.783298      0.251900     -0.895061
6
Coordinates from ORCA-job B6_random_3d_seed1001_d3.50_q0_m1_R2SCAN-3C E -148.270974762350
  B      -0.006286     -1.994722     -0.390077
  B       0.229572      1.583702      0.358968
  B       0.196600      0.859488     -1.419556
  B      -0.365687     -1.046585      1.708332
  B       1.653686      0.333631      0.642094
  B      -1.707885      0.264486     -0.899760
6
Coordinates from ORCA-job B6_random_3d_seed1001_d3.50_q0_m1_R2SCAN-3C E -148.329207931511
  B      -0.013331     -1.952249     -0.355418
  B       0.252115      1.510568      0.324193
  B       0.158257      0.846128     -1.341573
  B      -0.341018     -1.038847      1.656397
  B       1.574338      0.354303      0.617195
  B      -1.630361      0.280097     -0.900793
6
Coordinates from ORCA-job B6_random_3d_seed1001_d3.50_q0_m1_R2SCAN-3C E -148.365472177622
  B      -0.017726     -1.920138     -0.328764
  B       0.263383      1.465035      0.303146
  B       0.127963      0.834127     -1.290918
  B      -0.320460     -1.032366      1.616970
  B       1.522075      0.361303      0.603074
  B      -1.575237      0.292038     -0.903509
6
Coordinates from ORCA-job B6_random_3d_seed1001_d3.50_q0_m1_R2SCAN-3C E -148.409929748938
  B      -0.021554     -1.859464     -0.282312
  B       0.265130      1.406847      0.279029
  B       0.086391      0.809399     -1.225008
  B      -0.284155     -1.016095      1.543995
  B       1.449260      0.351308      0.586647
  B      -1.495072      0.308004     -0.902351
6
Coordinates from ORCA-job B6_random_3d_seed1001_d3.50_q0_m1_R2SCAN-3C E -148.443952077871
  B      -0.022063     -1.781069     -0.232767
  B       0.253448      1.363488      0.268272
  B       0.068752      0.780903     -1.179819
  B      -0.240987     -0.985970      1.452744
  B       1.383542      0.313545      0.581309
  B      -1.442692      0.309104     -0.889740
6
Coordinates from ORCA-job B6_random_3d_seed1001_d3.50_q0_m1_R2SCAN-3C E -148.472019383351
  B      -0.020483     -1.696809     -0.192868
  B       0.243449      1.331524      0.273892
  B       0.076877      0.750191     -1.154822
  B      -0.197970     -0.944880      1.360706
  B       1.322157      0.265976      0.582787
  B      -1.424030      0.293999     -0.869695
6
Coordinates from ORCA-job B6_random_3d_seed1001_d3.50_q0_m1_R2SCAN-3C E -148.497588779376
  B      -0.015355     -1.618829     -0.188488
  B       0.225424      1.310392      0.287278
  B       0.085985      0.709762     -1.138620
  B      -0.152158     -0.880634      1.296086
  B       1.263560      0.203281      0.591443
  B      -1.407457      0.276028     -0.847699
6
Coordinates from ORCA-job B6_random_3d_seed1001_d3.50_q0_m1_R2SCAN-3C E -148.515411107434
  B      -0.011876     -1.572664     -0.200599
  B       0.213494      1.302153      0.299682
  B       0.107353      0.680127     -1.130120
  B      -0.116809     -0.826027      1.259781
  B       1.218477      0.157466      0.600024
  B      -1.410639      0.258945     -0.828769
6
Coordinates from ORCA-job B6_random_3d_seed1001_d3.50_q0_m1_R2SCAN-3C E -148.525630662196
  B      -0.010084     -1.544011     -0.216476
  B       0.203048      1.306909      0.312238
  B       0.123599      0.654309     -1.129988
  B      -0.095462     -0.790721      1.242630
  B       1.193105      0.126195      0.606331
  B      -1.414206      0.247319     -0.814735
6
Coordinates from ORCA-job B6_random_3d_seed1001_d3.50_q0_m1_R2SCAN-3C E -148.537182715802
  B      -0.009778     -1.485858     -0.240918
  B       0.190940      1.308779      0.322195
  B       0.159202      0.609861     -1.111741
  B      -0.079178     -0.750960      1.217217
  B       1.156720      0.095457      0.598959
  B      -1.417906      0.222722     -0.785712
6
Coordinates from ORCA-job B6_random_3d_seed1001_d3.50_q0_m1_R2SCAN-3C E -148.551626586112
  B      -0.014176     -1.393562     -0.276098
  B       0.171128      1.331812      0.339161
  B       0.199188      0.537831     -1.089487
  B      -0.081651     -0.723893      1.197944
  B       1.127113      0.063605      0.571622
  B      -1.401602      0.184207     -0.743142
6
Coordinates from ORCA-job B6_random_3d_seed1001_d3.50_q0_m1_R2SCAN-3C E -148.566163319537
  B      -0.021315     -1.296170     -0.309839
  B       0.153857      1.355901      0.345814
  B       0.240548      0.470610     -1.055555
  B      -0.091713     -0.711908      1.189201
  B       1.102414      0.038677      0.534139
  B      -1.383791      0.142890     -0.703759
6
Coordinates from ORCA-job B6_random_3d_seed1001_d3.50_q0_m1_R2SCAN-3C E -148.576612481797
  B      -0.030514     -1.224895     -0.333189
  B       0.144978      1.377878      0.343468
  B       0.258741      0.424944     -1.028917
  B      -0.100596     -0.723515      1.200310
  B       1.094068      0.028687      0.506509
  B      -1.366676      0.116900     -0.688182
6
Coordinates from ORCA-job B6_random_3d_seed1001_d3.50_q0_m1_R2SCAN-3C E -148.583324780669
  B      -0.043475     -1.183836     -0.341386
  B       0.145387      1.397038      0.331058
  B       0.264433      0.406674     -1.008545
  B      -0.102471     -0.752521      1.218478
  B       1.092417      0.030304      0.491052
  B      -1.356291      0.102342     -0.690657
6
Coordinates from ORCA-job B6_random_3d_seed1001_d3.50_q0_m1_R2SCAN-3C E -148.591944762967
  B      -0.069269     -1.132138     -0.344904
  B       0.155588      1.433259      0.311226
  B       0.269734      0.389850     -0.982681
  B      -0.090416     -0.803999      1.243715
  B       1.078457      0.033671      0.477612
  B      -1.344094      0.079357     -0.704967
6
Coordinates from ORCA-job B6_random_3d_seed1001_d3.50_q0_m1_R2SCAN-3C E -148.602157618843
  B      -0.110391     -1.078168     -0.335786
  B       0.183494      1.490943      0.280003
  B       0.275880      0.388381     -0.956224
  B      -0.067561     -0.894196      1.286636
  B       1.057365      0.046229      0.465282
  B      -1.338788      0.046811     -0.739912
6
Coordinates from ORCA-job B6_random_3d_seed1001_d3.50_q0_m1_R2SCAN-3C E -148.610499923788
  B      -0.138077     -1.029894     -0.315236
  B       0.217203      1.548083      0.251755
  B       0.265773      0.388585     -0.940055
  B      -0.020600     -0.975722      1.323294
  B       1.022826      0.041735      0.475285
  B      -1.347124      0.027214     -0.795044
6
Coordinates from ORCA-job B6_random_3d_seed1001_d3.50_q0_m1_R2SCAN-3C E -148.616154436894
  B      -0.154013     -1.025409     -0.286917
  B       0.250445      1.585561      0.235166
  B       0.262740      0.408663     -0.933557
  B       0.010618     -1.030113      1.341737
  B       0.999734      0.046113      0.484212
  B      -1.369524      0.015185     -0.840640
6
Coordinates from ORCA-job B6_random_3d_seed1001_d3.50_q0_m1_R2SCAN-3C E -148.619640782729
  B      -0.167061     -1.016787     -0.278294
  B       0.281226      1.601864      0.238203
  B       0.246519      0.412355     -0.931780
  B       0.040854     -1.044471      1.347733
  B       0.979452      0.046197      0.501067
  B      -1.380990      0.000842     -0.876929
6
Coordinates from ORCA-job B6_random_3d_seed1001_d3.50_q0_m1_R2SCAN-3C E -148.623724623767
  B      -0.183186     -1.005933     -0.260653
  B       0.331251      1.627310      0.238742
  B       0.229420      0.423472     -0.915368
  B       0.077335     -1.073169      1.356988
  B       0.945309      0.053408      0.509115
  B      -1.400128     -0.025088     -0.928824
6
Coordinates from ORCA-job B6_random_3d_seed1001_d3.50_q0_m1_R2SCAN-3C E -148.628089095342
  B      -0.208265     -0.987727     -0.237864
  B       0.407358      1.665505      0.235433
  B       0.185254      0.448557     -0.899645
  B       0.123062     -1.127271      1.383983
  B       0.907424      0.066377      0.523631
  B      -1.414833     -0.065441     -1.005539
6
Coordinates from ORCA-job B6_random_3d_seed1001_d3.50_q0_m1_R2SCAN-3C E -148.630731833608
  B      -0.224585     -0.966162     -0.209486
  B       0.482577      1.708280      0.227062
  B       0.148627      0.475578     -0.867422
  B       0.164539     -1.166114      1.388812
  B       0.857804      0.061373      0.533190
  B      -1.428961     -0.112955     -1.072156
6
Coordinates from ORCA-job B6_random_3d_seed1001_d3.50_q0_m1_R2SCAN-3C E -148.631963412056
  B      -0.254979     -0.951420     -0.199185
  B       0.557911      1.727793      0.232236
  B       0.101072      0.498156     -0.843754
  B       0.190800     -1.200211      1.398124
  B       0.835605      0.090793      0.540378
  B      -1.430409     -0.165112     -1.127798
6
Coordinates from ORCA-job B6_random_3d_seed1001_d3.50_q0_m1_R2SCAN-3C E -148.632556394162
  B      -0.257642     -0.938048     -0.184651
  B       0.591333      1.734593      0.220961
  B       0.067613      0.521256     -0.830751
  B       0.210583     -1.219919      1.408409
  B       0.814487      0.084007      0.547864
  B      -1.426373     -0.181888     -1.161833
6
Coordinates from ORCA-job B6_random_3d_seed1001_d3.50_q0_m1_R2SCAN-3C E -148.632817402469
  B      -0.262192     -0.930996     -0.180310
  B       0.620202      1.740388      0.220296
  B       0.047683      0.535041     -0.814286
  B       0.215797     -1.224039      1.404804
  B       0.802010      0.085006      0.547204
  B      -1.423501     -0.205400     -1.177707
6
Coordinates from ORCA-job B6_random_3d_seed1001_d3.50_q0_m1_R2SCAN-3C E -148.632973100273
  B      -0.260681     -0.925069     -0.177462
  B       0.644607      1.740942      0.223287
  B       0.025167      0.544848     -0.802262
  B       0.217028     -1.226330      1.405780
  B       0.796100      0.088627      0.543482
  B      -1.422222     -0.223019     -1.192825
6
Coordinates from ORCA-job B6_random_3d_seed1001_d3.50_q0_m1_R2SCAN-3C E -148.633065887602
  B      -0.256922     -0.922499     -0.181134
  B       0.655467      1.740994      0.224913
  B       0.013207      0.554023     -0.794483
  B       0.211489     -1.224487      1.407921
  B       0.796578      0.086743      0.537665
  B      -1.419819     -0.234773     -1.194881
6
Coordinates from ORCA-job B6_random_3d_seed1001_d3.50_q0_m1_R2SCAN-3C E -148.633166190596
  B      -0.246654     -0.922964     -0.188808
  B       0.658804      1.738149      0.230500
  B       0.004722      0.560799     -0.791638
  B       0.199419     -1.216890      1.412204
  B       0.804722      0.083018      0.528962
  B      -1.421015     -0.242112     -1.191220
6
Coordinates from ORCA-job B6_random_3d_seed1001_d3.50_q0_m1_R2SCAN-3C E -148.633260719470
  B      -0.231359     -0.928271     -0.201779
  B       0.648325      1.732012      0.239091
  B       0.006459      0.563958     -0.796097
  B       0.179486     -1.201597      1.415757
  B       0.821699      0.076229      0.518359
  B      -1.424610     -0.242331     -1.175330
6
Coordinates from ORCA-job B6_random_3d_seed1001_d3.50_q0_m1_R2SCAN-3C E -148.633282660499
  B      -0.223987     -0.933322     -0.207542
  B       0.637399      1.727862      0.243987
  B       0.012719      0.561999     -0.802539
  B       0.169651     -1.192040      1.415047
  B       0.831695      0.073176      0.515078
  B      -1.427477     -0.237675     -1.164030
6
Coordinates from ORCA-job B6_random_3d_seed1001_d3.50_q0_m1_R2SCAN-3C E -148.633284252813
  B      -0.224795     -0.933354     -0.206372
  B       0.637504      1.728084      0.243737
  B       0.013271      0.561358     -0.802798
  B       0.170841     -1.192420      1.414050
  B       0.830642      0.073556      0.515940
  B      -1.427462     -0.237223     -1.164557
6
Coordinates from ORCA-job B6_random_3d_seed1001_d3.50_q0_m1_R2SCAN-3C E -148.633284614536
  B      -0.224848     -0.933364     -0.206105
  B       0.637402      1.727968      0.243850
  B       0.013440      0.561324     -0.803015
  B       0.170799     -1.192285      1.413678
  B       0.830628      0.073595      0.515979
  B      -1.427421     -0.237239     -1.164387
6
Coordinates from ORCA-job B6_random_3d_seed1001_d3.50_q0_m1_R2SCAN-3C E -148.633285002395
  B      -0.225309     -0.932999     -0.205475
  B       0.637719      1.727953      0.243886
  B       0.013384      0.561429     -0.803185
  B       0.171121     -1.192630      1.413351
  B       0.830374      0.073820      0.516123
  B      -1.427289     -0.237572     -1.164700
6
Coordinates from ORCA-job B6_random_3d_seed1001_d3.50_q0_m1_R2SCAN-3C E -148.633285295709
  B      -0.225352     -0.932638     -0.205313
  B       0.637664      1.727731      0.244103
  B       0.013389      0.561659     -0.803444
  B       0.170916     -1.192642      1.413367
  B       0.830663      0.073785      0.515920
  B      -1.427279     -0.237896     -1.164633
6
Coordinates from ORCA-job B6_random_3d_seed1001_d3.50_q0_m1_R2SCAN-3C E -148.633285468434
  B      -0.225486     -0.932041     -0.205193
  B       0.637748      1.727554      0.244398
  B       0.013318      0.562018     -0.803657
  B       0.170693     -1.192747      1.413546
  B       0.831046      0.073712      0.515611
  B      -1.427320     -0.238496     -1.164706
6
Coordinates from ORCA-job B6_random_3d_seed1001_d3.50_q0_m1_R2SCAN-3C E -148.633285496676
  B      -0.225495     -0.932079     -0.205245
  B       0.637609      1.727538      0.244310
  B       0.013420      0.561922     -0.803649
  B       0.170806     -1.192789      1.413656
  B       0.831012      0.073704      0.515666
  B      -1.427352     -0.238294     -1.164738
