6
Coordinates from ORCA-job B6_random_3d_seed1001_d3.50_q0_m1_R2SCAN-3C E -148.633285496676
  B          -0.22549527761968     -0.93207901668303     -0.20524527338473
  B           0.63760891986094      1.72753755121154      0.24431041287682
  B           0.01341975979358      0.56192159014184     -0.80364901686731
  B           0.17080639751149     -1.19278943035773      1.41365592443490
  B           0.83101204592524      0.07370373302960      0.51566552918051
  B          -1.42735184547156     -0.23829441734222     -1.16473759624019
