6
Coordinates from ORCA-job FINAL_rank04_B6_random_3d_seed1002_d3.50_q0_m3_R2SCAN-3C_PBE0_def2-TZVP_OptFreq E -148.631666843384
  B       0.320379      0.424578     -0.780097
  B       1.829343      0.805224     -0.410709
  B      -1.175671     -0.103735     -0.768785
  B      -0.320327     -0.424689      0.780052
  B       1.175734      0.103589      0.768751
  B      -1.829458     -0.804967      0.410787
6
Coordinates from ORCA-job FINAL_rank04_B6_random_3d_seed1002_d3.50_q0_m3_R2SCAN-3C_PBE0_def2-TZVP_OptFreq E -148.631701753641
  B       0.320195      0.424964     -0.781197
  B       1.826790      0.804058     -0.410207
  B      -1.175387     -0.103455     -0.769082
  B      -0.320152     -0.425057      0.781155
  B       1.175415      0.103405      0.769080
  B      -1.826861     -0.803915      0.410250
6
Coordinates from ORCA-job FINAL_rank04_B6_random_3d_seed1002_d3.50_q0_m3_R2SCAN-3C_PBE0_def2-TZVP_OptFreq E -148.631757761912
  B       0.319932      0.426577     -0.785390
  B       1.820627      0.801356     -0.409185
  B      -1.174577     -0.102555     -0.770344
  B      -0.319914     -0.426622      0.785355
  B       1.174538      0.102676      0.770395
  B      -1.820606     -0.801432      0.409167
6
Coordinates from ORCA-job FINAL_rank04_B6_random_3d_seed1002_d3.50_q0_m3_R2SCAN-3C_PBE0_def2-TZVP_OptFreq E -148.631769680081
  B       0.320032      0.427535     -0.787674
  B       1.819494      0.800927     -0.409109
  B      -1.174230     -0.102195     -0.770953
  B      -0.320021     -0.427564      0.787645
  B       1.174191      0.102305      0.770999
  B      -1.819466     -0.801007      0.409092
6
Coordinates from ORCA-job FINAL_rank04_B6_random_3d_seed1002_d3.50_q0_m3_R2SCAN-3C_PBE0_def2-TZVP_OptFreq E -148.631792502696
  B       0.320529      0.430062     -0.793521
  B       1.818609      0.800715     -0.409237
  B      -1.173201     -0.101438     -0.772084
  B      -0.320528     -0.430067      0.793506
  B       1.173189      0.101451      0.772092
  B      -1.818597     -0.800723      0.409243
6
Coordinates from ORCA-job FINAL_rank04_B6_random_3d_seed1002_d3.50_q0_m3_R2SCAN-3C_PBE0_def2-TZVP_OptFreq E -148.631796252665
  B       0.320830      0.430761     -0.794997
  B       1.819316      0.801022     -0.409328
  B      -1.172675     -0.101371     -0.771850
  B      -0.320830     -0.430762      0.794989
  B       1.172679      0.101347      0.771843
  B      -1.819320     -0.800995      0.409342
6
Coordinates from ORCA-job FINAL_rank04_B6_random_3d_seed1002_d3.50_q0_m3_R2SCAN-3C_PBE0_def2-TZVP_OptFreq E -148.631799922837
  B       0.321213      0.431235     -0.795845
  B       1.820232      0.801348     -0.409337
  B      -1.171981     -0.101448     -0.771058
  B      -0.321213     -0.431234      0.795844
  B       1.171992      0.101420      0.771049
  B      -1.820242     -0.801320      0.409345
6
Coordinates from ORCA-job FINAL_rank04_B6_random_3d_seed1002_d3.50_q0_m3_R2SCAN-3C_PBE0_def2-TZVP_OptFreq E -148.631800682172
  B       0.321596      0.431539     -0.796265
  B       1.820728      0.801486     -0.409259
  B      -1.171298     -0.101564     -0.770166
  B      -0.321596     -0.431536      0.796269
  B       1.171311      0.101540      0.770158
  B      -1.820741     -0.801466      0.409262
6
Coordinates from ORCA-job FINAL_rank04_B6_random_3d_seed1002_d3.50_q0_m3_R2SCAN-3C_PBE0_def2-TZVP_OptFreq E -148.631800293174
  B       0.321878      0.431696     -0.796410
  B       1.820753      0.801451     -0.409183
  B      -1.170868     -0.101629     -0.769592
  B      -0.321879     -0.431691      0.796414
  B       1.170873      0.101626      0.769592
  B      -1.820758     -0.801452      0.409178
6
Coordinates from ORCA-job FINAL_rank04_B6_random_3d_seed1002_d3.50_q0_m3_R2SCAN-3C_PBE0_def2-TZVP_OptFreq E -148.631802525579
  B       0.321965      0.431708     -0.796362
  B       1.820627      0.801395     -0.409181
  B      -1.170799     -0.101630     -0.769507
  B      -0.321967     -0.431703      0.796365
  B       1.170796      0.101641      0.769513
  B      -1.820622     -0.801412      0.409171
6
Coordinates from ORCA-job FINAL_rank04_B6_random_3d_seed1002_d3.50_q0_m3_R2SCAN-3C_PBE0_def2-TZVP_OptFreq E -148.631801505515
  B       0.322010      0.431719     -0.796350
  B       1.820567      0.801380     -0.409203
  B      -1.170793     -0.101618     -0.769523
  B      -0.322010     -0.431714      0.796354
  B       1.170790      0.101636      0.769530
  B      -1.820565     -0.801403      0.409191
