6
Coordinates from ORCA-job FINAL_rank04_B6_random_3d_seed1002_d3.50_q0_m3_R2SCAN-3C_PBE0_def2-TZVP_OptFreq E -148.631801505515
  B           0.32201005428592      0.43171940945098     -0.79634966795396
  B           1.82056671151067      0.80137961666756     -0.40920261767534
  B          -1.17079259498653     -0.10161832563293     -0.76952290232313
  B          -0.32200996999053     -0.43171419935495      0.79635367576432
  B           1.17079034837349      0.10163618558022      0.76952951335357
  B          -1.82056454919302     -0.80140268671088      0.40919099883454
