6
Coordinates from ORCA-job B6_random_3d_seed1003_d3.50_q0_m1_R2SCAN-3C E -147.850144025572
  B       0.324351      1.572447     -2.066432
  B      -0.266872     -1.525942      1.900746
  B      -2.522376      0.363074     -0.073189
  B       2.654865     -0.286495      0.181103
  B       0.192219      1.822967      1.602195
  B      -0.382187     -1.946051     -1.544423
6
Coordinates from ORCA-job B6_random_3d_seed1003_d3.50_q0_m1_R2SCAN-3C E -147.859392911002
  B       0.324053      1.548292     -2.051802
  B      -0.267040     -1.498056      1.873436
  B      -2.497856      0.353189     -0.067180
  B       2.635541     -0.271386      0.189262
  B       0.194192      1.784102      1.583754
  B      -0.388890     -1.916141     -1.527471
6
Coordinates from ORCA-job B6_random_3d_seed1003_d3.50_q0_m1_R2SCAN-3C E -147.869139172663
  B       0.324743      1.524260     -2.037726
  B      -0.268078     -1.469177      1.846603
  B      -2.472704      0.342393     -0.060407
  B       2.615610     -0.255829      0.196666
  B       0.196144      1.745121      1.566293
  B      -0.395715     -1.886767     -1.511428
6
Coordinates from ORCA-job B6_random_3d_seed1003_d3.50_q0_m1_R2SCAN-3C E -147.884740043002
  B       0.326559      1.488577     -2.016955
  B      -0.270396     -1.424773      1.807220
  B      -2.433282      0.325192     -0.049803
  B       2.583868     -0.232466      0.206552
  B       0.199011      1.687178      1.541604
  B      -0.405760     -1.843708     -1.488618
6
Coordinates from ORCA-job B6_random_3d_seed1003_d3.50_q0_m1_R2SCAN-3C E -147.910552502571
  B       0.329925      1.435941     -1.986292
  B      -0.274684     -1.355905      1.749854
  B      -2.371554      0.297771     -0.033869
  B       2.533333     -0.197876      0.219637
  B       0.203451      1.600820      1.507194
  B      -0.420471     -1.780752     -1.456524
6
Coordinates from ORCA-job B6_random_3d_seed1003_d3.50_q0_m1_R2SCAN-3C E -147.940422816307
  B       0.333777      1.383005     -1.956335
  B      -0.280480     -1.283040      1.692561
  B      -2.306358      0.267001     -0.017341
  B       2.479711     -0.162162      0.232874
  B       0.209609      1.512606      1.474367
  B      -0.436260     -1.717410     -1.426127
6
Coordinates from ORCA-job B6_random_3d_seed1003_d3.50_q0_m1_R2SCAN-3C E -147.974062570054
  B       0.337481      1.332347     -1.927992
  B      -0.287280     -1.208144      1.637160
  B      -2.240369      0.233755     -0.001258
  B       2.425427     -0.127072      0.246361
  B       0.217512      1.425014      1.443733
  B      -0.452771     -1.655899     -1.398004
6
Coordinates from ORCA-job B6_random_3d_seed1003_d3.50_q0_m1_R2SCAN-3C E -148.011967865967
  B       0.340579      1.284475     -1.900929
  B      -0.294517     -1.131562      1.583452
  B      -2.173451      0.198431      0.014050
  B       2.370692     -0.093334      0.260329
  B       0.226651      1.338263      1.414625
  B      -0.469954     -1.596272     -1.371528
6
Coordinates from ORCA-job B6_random_3d_seed1003_d3.50_q0_m1_R2SCAN-3C E -148.040973008645
  B       0.342181      1.254368     -1.883922
  B      -0.298371     -1.073561      1.548297
  B      -2.129260      0.173278      0.023551
  B       2.335429     -0.071943      0.270207
  B       0.232197      1.275138      1.396551
  B      -0.482177     -1.557279     -1.354683
6
Coordinates from ORCA-job B6_random_3d_seed1003_d3.50_q0_m1_R2SCAN-3C E -148.061702337185
  B       0.342880      1.235483     -1.873066
  B      -0.300591     -1.033979      1.525088
  B      -2.099601      0.156138      0.029720
  B       2.312136     -0.058464      0.277300
  B       0.235761      1.232857      1.384669
  B      -0.490586     -1.532035     -1.343710
6
Coordinates from ORCA-job B6_random_3d_seed1003_d3.50_q0_m1_R2SCAN-3C E -148.094886622444
  B       0.343293      1.208379     -1.856722
  B      -0.303075     -0.974761      1.490270
  B      -2.053981      0.130698      0.038674
  B       2.276360     -0.039489      0.288276
  B       0.240461      1.170103      1.366458
  B      -0.503056     -1.494929     -1.326957
6
Coordinates from ORCA-job B6_random_3d_seed1003_d3.50_q0_m1_R2SCAN-3C E -148.146151599046
  B       0.342528      1.170789     -1.832282
  B      -0.307366     -0.896997      1.438283
  B      -1.981573      0.093630      0.051886
  B       2.219524     -0.013625      0.305793
  B       0.248459      1.087914      1.337484
  B      -0.521572     -1.441712     -1.301164
6
Coordinates from ORCA-job B6_random_3d_seed1003_d3.50_q0_m1_R2SCAN-3C E -148.201428510193
  B       0.339664      1.136032     -1.807674
  B      -0.309813     -0.822005      1.385164
  B      -1.904670      0.057186      0.064093
  B       2.160058      0.009510      0.325282
  B       0.255352      1.008851      1.306338
  B      -0.540592     -1.389573     -1.273204
6
Coordinates from ORCA-job B6_random_3d_seed1003_d3.50_q0_m1_R2SCAN-3C E -148.240700343910
  B       0.336197      1.114668     -1.791439
  B      -0.310184     -0.770806      1.347920
  B      -1.849544      0.032910      0.072309
  B       2.118858      0.023209      0.340071
  B       0.258398      0.955242      1.283920
  B      -0.553725     -1.355223     -1.252781
6
Coordinates from ORCA-job B6_random_3d_seed1003_d3.50_q0_m1_R2SCAN-3C E -148.266612029520
  B       0.333077      1.101038     -1.780464
  B      -0.311230     -0.740701      1.322110
  B      -1.809998      0.016737      0.077645
  B       2.089455      0.031887      0.351008
  B       0.261591      0.923317      1.267707
  B      -0.562896     -1.332278     -1.238005
6
Coordinates from ORCA-job B6_random_3d_seed1003_d3.50_q0_m1_R2SCAN-3C E -148.305946498285
  B       0.328796      1.079995     -1.764456
  B      -0.317340     -0.700288      1.281748
  B      -1.746861     -0.011328      0.085585
  B       2.043132      0.047307      0.369428
  B       0.272185      0.880415      1.242896
  B      -0.579912     -1.296101     -1.215201
6
Coordinates from ORCA-job B6_random_3d_seed1003_d3.50_q0_m1_R2SCAN-3C E -148.361934308896
  B       0.320508      1.048597     -1.739313
  B      -0.329513     -0.651766      1.218850
  B      -1.648677     -0.052809      0.095693
  B       1.971117      0.069349      0.397870
  B       0.291715      0.827051      1.203723
  B      -0.605150     -1.240422     -1.176823
6
Coordinates from ORCA-job B6_random_3d_seed1003_d3.50_q0_m1_R2SCAN-3C E -148.412067192715
  B       0.308054      1.013093     -1.710222
  B      -0.342269     -0.618910      1.154721
  B      -1.552678     -0.090767      0.099717
  B       1.893262      0.091291      0.427544
  B       0.320400      0.785793      1.162237
  B      -0.626770     -1.180500     -1.133997
6
Coordinates from ORCA-job B6_random_3d_seed1003_d3.50_q0_m1_R2SCAN-3C E -148.450326884897
  B       0.287058      0.966456     -1.673831
  B      -0.346331     -0.602971      1.097581
  B      -1.471039     -0.122354      0.084041
  B       1.812281      0.111294      0.455329
  B       0.358241      0.755649      1.121761
  B      -0.640210     -1.108074     -1.084880
6
Coordinates from ORCA-job B6_random_3d_seed1003_d3.50_q0_m1_R2SCAN-3C E -148.473283905405
  B       0.251659      0.897587     -1.622323
  B      -0.334384     -0.601810      1.061490
  B      -1.417717     -0.132064      0.050677
  B       1.742832      0.116224      0.462384
  B       0.380670      0.741263      1.091313
  B      -0.623060     -1.021201     -1.043541
6
Coordinates from ORCA-job B6_random_3d_seed1003_d3.50_q0_m1_R2SCAN-3C E -148.491509039018
  B       0.215286      0.821368     -1.567677
  B      -0.335941     -0.609093      1.037076
  B      -1.380307     -0.114969      0.054229
  B       1.700263      0.102509      0.440094
  B       0.367593      0.747396      1.072876
  B      -0.566894     -0.947211     -1.036598
6
Coordinates from ORCA-job B6_random_3d_seed1003_d3.50_q0_m1_R2SCAN-3C E -148.506811148279
  B       0.183860      0.755737     -1.528082
  B      -0.328218     -0.622942      1.029882
  B      -1.367788     -0.097839      0.046996
  B       1.676888      0.091481      0.424132
  B       0.358571      0.759270      1.066248
  B      -0.523313     -0.885707     -1.039175
6
Coordinates from ORCA-job B6_random_3d_seed1003_d3.50_q0_m1_R2SCAN-3C E -148.516060323408
  B       0.167482      0.715286     -1.506188
  B      -0.321789     -0.641881      1.034209
  B      -1.373675     -0.081121      0.045069
  B       1.671684      0.081546      0.408726
  B       0.346894      0.775317      1.064724
  B      -0.490596     -0.849147     -1.046541
6
Coordinates from ORCA-job B6_random_3d_seed1003_d3.50_q0_m1_R2SCAN-3C E -148.524905766370
  B       0.152244      0.666813     -1.461505
  B      -0.306636     -0.660093      1.027724
  B      -1.357536     -0.058068      0.044003
  B       1.636701      0.066838      0.383102
  B       0.322603      0.783449      1.040977
  B      -0.447376     -0.798940     -1.034301
6
Coordinates from ORCA-job B6_random_3d_seed1003_d3.50_q0_m1_R2SCAN-3C E -148.536063983599
  B       0.175924      0.655874     -1.382862
  B      -0.280539     -0.700953      1.023314
  B      -1.353324     -0.016264      0.043963
  B       1.579335      0.042086      0.315184
  B       0.273443      0.804153      0.988873
  B      -0.394839     -0.784897     -0.988473
6
Coordinates from ORCA-job B6_random_3d_seed1003_d3.50_q0_m1_R2SCAN-3C E -148.547299584993
  B       0.205430      0.656848     -1.307773
  B      -0.251035     -0.737636      1.019518
  B      -1.337764      0.029197      0.049557
  B       1.500441      0.025856      0.255608
  B       0.233829      0.816134      0.933737
  B      -0.350901     -0.790399     -0.950647
6
Coordinates from ORCA-job B6_random_3d_seed1003_d3.50_q0_m1_R2SCAN-3C E -148.557254987913
  B       0.241890      0.664867     -1.232000
  B      -0.216438     -0.768934      1.023660
  B      -1.307737      0.067335      0.046626
  B       1.414356      0.012787      0.196990
  B       0.195911      0.830694      0.887465
  B      -0.327982     -0.806750     -0.922742
6
Coordinates from ORCA-job B6_random_3d_seed1003_d3.50_q0_m1_R2SCAN-3C E -148.568860701726
  B       0.265169      0.652916     -1.181757
  B      -0.180340     -0.779862      1.029024
  B      -1.283857      0.089668      0.050017
  B       1.346866      0.002287      0.168111
  B       0.168689      0.839888      0.860303
  B      -0.316527     -0.804898     -0.925698
6
Coordinates from ORCA-job B6_random_3d_seed1003_d3.50_q0_m1_R2SCAN-3C E -148.585885012263
  B       0.261726      0.650398     -1.174391
  B      -0.155375     -0.780114      1.021606
  B      -1.249983      0.111522      0.063159
  B       1.304759     -0.018174      0.168250
  B       0.139533      0.841206      0.847551
  B      -0.300661     -0.804838     -0.926174
6
Coordinates from ORCA-job B6_random_3d_seed1003_d3.50_q0_m1_R2SCAN-3C E -148.597634450102
  B       0.260023      0.651856     -1.167688
  B      -0.140204     -0.781156      1.014153
  B      -1.227190      0.125597      0.071389
  B       1.277174     -0.031926      0.167282
  B       0.120912      0.843938      0.838425
  B      -0.290715     -0.808308     -0.923561
6
Coordinates from ORCA-job B6_random_3d_seed1003_d3.50_q0_m1_R2SCAN-3C E -148.614202823395
  B       0.256991      0.657977     -1.156323
  B      -0.118605     -0.782457      0.999241
  B      -1.193269      0.145198      0.082446
  B       1.236075     -0.054611      0.165089
  B       0.094553      0.851533      0.825903
  B      -0.275746     -0.817640     -0.916357
6
Coordinates from ORCA-job B6_random_3d_seed1003_d3.50_q0_m1_R2SCAN-3C E -148.632900134107
  B       0.252211      0.665873     -1.129150
  B      -0.085545     -0.784221      0.972122
  B      -1.150211      0.170726      0.090798
  B       1.171851     -0.089339      0.156647
  B       0.063329      0.868928      0.809266
  B      -0.251636     -0.831967     -0.899683
6
Coordinates from ORCA-job B6_random_3d_seed1003_d3.50_q0_m1_R2SCAN-3C E -148.644691014643
  B       0.244808      0.671483     -1.063830
  B      -0.048225     -0.783547      0.939940
  B      -1.113254      0.191371      0.075956
  B       1.089908     -0.138196      0.117182
  B       0.040046      0.908465      0.800016
  B      -0.213284     -0.849576     -0.869265
6
Coordinates from ORCA-job B6_random_3d_seed1003_d3.50_q0_m1_R2SCAN-3C E -148.649796684540
  B       0.219005      0.703061     -1.024969
  B      -0.064485     -0.788549      0.960315
  B      -1.067327      0.195669      0.046912
  B       1.081570     -0.161441      0.077026
  B       0.030958      0.932532      0.802552
  B      -0.199720     -0.881273     -0.861837
6
Coordinates from ORCA-job B6_random_3d_seed1003_d3.50_q0_m1_R2SCAN-3C E -148.655079183920
  B       0.191159      0.724559     -0.957857
  B      -0.075707     -0.784966      0.978587
  B      -1.064430      0.184717     -0.007029
  B       1.052303     -0.178590      0.031912
  B       0.067537      0.959526      0.805001
  B      -0.170862     -0.905247     -0.850613
6
Coordinates from ORCA-job B6_random_3d_seed1003_d3.50_q0_m1_R2SCAN-3C E -148.655899835285
  B       0.144611      0.789393     -0.961050
  B      -0.096306     -0.757390      0.962847
  B      -1.064321      0.156697     -0.032797
  B       1.068983     -0.216504      0.051295
  B       0.106982      0.970836      0.819059
  B      -0.159949     -0.943033     -0.839354
6
Coordinates from ORCA-job B6_random_3d_seed1003_d3.50_q0_m1_R2SCAN-3C E -148.659198103832
  B       0.151291      0.791989     -0.920919
  B      -0.139902     -0.752728      0.963659
  B      -1.079149      0.136192     -0.027398
  B       1.086941     -0.199033      0.017808
  B       0.125642      0.951472      0.779199
  B      -0.144823     -0.927893     -0.812349
6
Coordinates from ORCA-job B6_random_3d_seed1003_d3.50_q0_m1_R2SCAN-3C E -148.659550539499
  B       0.151228      0.796121     -0.927552
  B      -0.140750     -0.760056      0.975338
  B      -1.076832      0.150023     -0.022287
  B       1.058948     -0.192140      0.013734
  B       0.133207      0.948769      0.782234
  B      -0.125801     -0.942717     -0.821468
6
Coordinates from ORCA-job B6_random_3d_seed1003_d3.50_q0_m1_R2SCAN-3C E -148.659694832568
  B       0.143436      0.794632     -0.927603
  B      -0.139202     -0.758842      0.969839
  B      -1.069266      0.150682     -0.029870
  B       1.064306     -0.193652      0.017210
  B       0.131890      0.946364      0.784624
  B      -0.131163     -0.939185     -0.814199
6
Coordinates from ORCA-job B6_random_3d_seed1003_d3.50_q0_m1_R2SCAN-3C E -148.659689696030
  B       0.150622      0.792836     -0.939761
  B      -0.138906     -0.761634      0.966606
  B      -1.075254      0.147705     -0.026305
  B       1.071005     -0.187407      0.020892
  B       0.131030      0.944743      0.790202
  B      -0.138497     -0.936242     -0.811634
6
Coordinates from ORCA-job B6_random_3d_seed1003_d3.50_q0_m1_R2SCAN-3C E -148.659771464192
  B       0.147309      0.793281     -0.935017
  B      -0.140284     -0.762884      0.966521
  B      -1.073288      0.152141     -0.027443
  B       1.067625     -0.187154      0.018456
  B       0.132325      0.943956      0.787557
  B      -0.133687     -0.939340     -0.810074
6
Coordinates from ORCA-job B6_random_3d_seed1003_d3.50_q0_m1_R2SCAN-3C E -148.659795304991
  B       0.146102      0.792291     -0.937032
  B      -0.141390     -0.765410      0.963725
  B      -1.072059      0.155766     -0.027807
  B       1.067178     -0.184818      0.017236
  B       0.132369      0.942681      0.789506
  B      -0.132200     -0.940510     -0.805627
6
Coordinates from ORCA-job B6_random_3d_seed1003_d3.50_q0_m1_R2SCAN-3C E -148.659824268323
  B       0.143669      0.787758     -0.943317
  B      -0.143116     -0.776425      0.955190
  B      -1.069768      0.169530     -0.029122
  B       1.069161     -0.171762      0.017754
  B       0.132727      0.937407      0.793530
  B      -0.132673     -0.946509     -0.794035
6
Coordinates from ORCA-job B6_random_3d_seed1003_d3.50_q0_m1_R2SCAN-3C E -148.659840634231
  B       0.144791      0.786398     -0.948471
  B      -0.143799     -0.777799      0.952126
  B      -1.069744      0.170204     -0.027742
  B       1.069539     -0.170686      0.016920
  B       0.131742      0.937382      0.797624
  B      -0.132529     -0.945498     -0.790458
6
Coordinates from ORCA-job B6_random_3d_seed1003_d3.50_q0_m1_R2SCAN-3C E -148.659843572460
  B       0.145294      0.786111     -0.948727
  B      -0.143372     -0.777620      0.953056
  B      -1.069952      0.169480     -0.027420
  B       1.069855     -0.170607      0.017789
  B       0.131667      0.937845      0.797551
  B      -0.133492     -0.945210     -0.792248
6
Coordinates from ORCA-job B6_random_3d_seed1003_d3.50_q0_m1_R2SCAN-3C E -148.659844274269
  B       0.145274      0.785415     -0.949387
  B      -0.143415     -0.778411      0.952282
  B      -1.069947      0.170165     -0.027163
  B       1.070206     -0.169665      0.018293
  B       0.131692      0.937756      0.797798
  B      -0.133809     -0.945259     -0.791824
6
Coordinates from ORCA-job B6_random_3d_seed1003_d3.50_q0_m1_R2SCAN-3C E -148.659845051440
  B       0.145161      0.784551     -0.949956
  B      -0.143512     -0.779186      0.951528
  B      -1.069938      0.170682     -0.026646
  B       1.070416     -0.169010      0.018950
  B       0.131794      0.938066      0.797921
  B      -0.133920     -0.945103     -0.791796
6
Coordinates from ORCA-job B6_random_3d_seed1003_d3.50_q0_m1_R2SCAN-3C E -148.659846593683
  B       0.144803      0.782644     -0.950942
  B      -0.143817     -0.780807      0.950163
  B      -1.069918      0.171372     -0.025160
  B       1.070568     -0.168150      0.020594
  B       0.132168      0.939204      0.797659
  B      -0.133804     -0.944264     -0.792314
6
Coordinates from ORCA-job B6_random_3d_seed1003_d3.50_q0_m1_R2SCAN-3C E -148.659847767022
  B       0.144414      0.781514     -0.951102
  B      -0.144133     -0.781699      0.949684
  B      -1.069935      0.171134     -0.023745
  B       1.070454     -0.168430      0.022003
  B       0.132588      0.940633      0.796687
  B      -0.133387     -0.943153     -0.793526
6
Coordinates from ORCA-job B6_random_3d_seed1003_d3.50_q0_m1_R2SCAN-3C E -148.659848433091
  B       0.144203      0.781334     -0.950763
  B      -0.144349     -0.782012      0.950013
  B      -1.069986      0.170347     -0.022745
  B       1.070081     -0.169378      0.022846
  B       0.132909      0.941800      0.795389
  B      -0.132858     -0.942092     -0.794741
6
Coordinates from ORCA-job B6_random_3d_seed1003_d3.50_q0_m1_R2SCAN-3C E -148.659848559866
  B       0.144230      0.781718     -0.950597
  B      -0.144361     -0.781942      0.950392
  B      -1.069955      0.170026     -0.022718
  B       1.069941     -0.169804      0.022784
  B       0.132880      0.941886      0.795002
  B      -0.132735     -0.941883     -0.794863
