6
Coordinates from ORCA-job B6_random_3d_seed1003_d3.50_q0_m1_R2SCAN-3C E -148.659848559866
  B           0.14422990288807      0.78171796263437     -0.95059684889662
  B          -0.14436058238053     -0.78194208506909      0.95039166221478
  B          -1.06995495691748      0.17002577147328     -0.02271797566145
  B           1.06994072800450     -0.16980400911865      0.02278445771298
  B           0.13288015112720      0.94188552978940      0.79500212573418
  B          -0.13273524272177     -0.94188315970931     -0.79486343110387
