6
Coordinates from ORCA-job B6_compact_planar_triangle_d3.50_q0_m3_R2SCAN-3C
  B          -3.44149576141902     -1.98553335463680      0.00000000011457
  B          -0.00010208674145     -2.00248659085498      0.00000000060278
  B           3.44158585286343     -1.98548622247335     -0.00000000026464
  B          -1.72289844025778      0.98914636159784     -0.00000000083193
  B           1.72287398783393      0.98913600303917     -0.00000000007351
  B           0.00003644772089      3.99522380332812      0.00000000045272
