6
Coordinates from ORCA-job B6_random_3d_seed1000_d2.50_q0_m5_R2SCAN-3C E -148.696357682434
  B           0.99320179117094     -0.29896841298242      0.95555936020339
  B           1.55011850933245     -1.54004597934482      0.24267725777958
  B           0.21573237135273     -0.65634432196838     -0.48088739121484
  B          -0.21569835092219      0.65639030258180      0.48087716641942
  B          -1.55015217753717      1.53999874380259     -0.24265357215098
  B          -0.99320213339676      0.29896966791123     -0.95557282103657
