6
Coordinates from ORCA-job B6_random_3d_seed1000_d2.50_q0_m5_R2SCAN-3C E -148.175717730708
  B       0.769497     -0.791239      1.567437
  B       1.974748     -0.208730     -0.572847
  B      -0.037640     -1.822347     -0.676393
  B      -0.858908      0.904332      1.333443
  B      -0.103949      1.877160     -0.845414
  B      -1.743748      0.040824     -0.806226
6
Coordinates from ORCA-job B6_random_3d_seed1000_d2.50_q0_m5_R2SCAN-3C E -148.200896274062
  B       0.752519     -0.770531      1.534026
  B       1.943450     -0.216085     -0.556786
  B      -0.036088     -1.786154     -0.663543
  B      -0.837709      0.881574      1.302267
  B      -0.115744      1.846294     -0.828139
  B      -1.706427      0.044903     -0.787825
6
Coordinates from ORCA-job B6_random_3d_seed1000_d2.50_q0_m5_R2SCAN-3C E -148.227276415528
  B       0.735888     -0.750049      1.500437
  B       1.912476     -0.223895     -0.540416
  B      -0.034225     -1.750205     -0.650598
  B      -0.816624      0.859026      1.270795
  B      -0.128209      1.815552     -0.810791
  B      -1.669305      0.049571     -0.769426
6
Coordinates from ORCA-job B6_random_3d_seed1000_d2.50_q0_m5_R2SCAN-3C E -148.268899391139
  B       0.712057     -0.720479      1.449410
  B       1.866078     -0.236196     -0.515438
  B      -0.030526     -1.696410     -0.630750
  B      -0.785972      0.826416      1.223186
  B      -0.147540      1.769187     -0.784536
  B      -1.614097      0.057483     -0.741873
6
Coordinates from ORCA-job B6_random_3d_seed1000_d2.50_q0_m5_R2SCAN-3C E -148.335450781625
  B       0.680127     -0.680029      1.371288
  B       1.796250     -0.256290     -0.476625
  B      -0.022573     -1.615752     -0.599565
  B      -0.742898      0.781106      1.150968
  B      -0.178413      1.699162     -0.744896
  B      -1.532493      0.071802     -0.701171
6
Coordinates from ORCA-job B6_random_3d_seed1000_d2.50_q0_m5_R2SCAN-3C E -148.408424866838
  B       0.651849     -0.642467      1.287965
  B       1.725964     -0.278921     -0.433123
  B      -0.012588     -1.534121     -0.564886
  B      -0.700483      0.736196      1.074137
  B      -0.214761      1.627402     -0.704547
  B      -1.449982      0.091911     -0.659545
6
Coordinates from ORCA-job B6_random_3d_seed1000_d2.50_q0_m5_R2SCAN-3C E -148.480850833318
  B       0.632021     -0.612387      1.200690
  B       1.657290     -0.301985     -0.383819
  B      -0.003010     -1.452354     -0.525912
  B      -0.660696      0.693316      0.997713
  B      -0.255426      1.556389     -0.667584
  B      -1.370180      0.117022     -0.621088
6
Coordinates from ORCA-job B6_random_3d_seed1000_d2.50_q0_m5_R2SCAN-3C E -148.542006680970
  B       0.626171     -0.593390      1.109017
  B       1.596366     -0.321384     -0.323544
  B      -0.005062     -1.363428     -0.476840
  B      -0.620171      0.641465      0.928621
  B      -0.300182      1.491670     -0.644823
  B      -1.297122      0.145067     -0.592431
6
Coordinates from ORCA-job B6_random_3d_seed1000_d2.50_q0_m5_R2SCAN-3C E -148.581069029847
  B       0.631558     -0.577642      1.021064
  B       1.538176     -0.331689     -0.259760
  B      -0.032722     -1.248025     -0.416846
  B      -0.573630      0.565850      0.878010
  B      -0.329652      1.441433     -0.640807
  B      -1.233729      0.150073     -0.581661
6
Coordinates from ORCA-job B6_random_3d_seed1000_d2.50_q0_m5_R2SCAN-3C E -148.596180035539
  B       0.640803     -0.571865      1.002009
  B       1.521405     -0.329799     -0.241737
  B      -0.085344     -1.140319     -0.375928
  B      -0.545171      0.496796      0.858882
  B      -0.337359      1.416008     -0.649865
  B      -1.194334      0.129179     -0.593361
6
Coordinates from ORCA-job B6_random_3d_seed1000_d2.50_q0_m5_R2SCAN-3C E -148.606223308334
  B       0.680105     -0.592587      1.012018
  B       1.524726     -0.339350     -0.225814
  B      -0.111450     -1.071160     -0.346870
  B      -0.537378      0.460883      0.837389
  B      -0.356863      1.407157     -0.660683
  B      -1.199139      0.135057     -0.616040
6
Coordinates from ORCA-job B6_random_3d_seed1000_d2.50_q0_m5_R2SCAN-3C E -148.621846633193
  B       0.728743     -0.625972      1.041876
  B       1.534162     -0.346885     -0.206088
  B      -0.147377     -0.968338     -0.306720
  B      -0.510222      0.399905      0.805200
  B      -0.379550      1.401498     -0.682686
  B      -1.225756      0.139793     -0.651581
6
Coordinates from ORCA-job B6_random_3d_seed1000_d2.50_q0_m5_R2SCAN-3C E -148.629960566694
  B       0.810257     -0.684112      1.111923
  B       1.558572     -0.366447     -0.174127
  B      -0.177919     -0.850451     -0.260759
  B      -0.456469      0.326850      0.766512
  B      -0.428007      1.407594     -0.716722
  B      -1.306434      0.166567     -0.726827
6
Coordinates from ORCA-job B6_random_3d_seed1000_d2.50_q0_m5_R2SCAN-3C E -148.632406965907
  B       0.791257     -0.671373      1.128823
  B       1.561310     -0.388080     -0.208509
  B      -0.156821     -0.894069     -0.291267
  B      -0.470481      0.382152      0.800443
  B      -0.423222      1.446493     -0.689566
  B      -1.302043      0.124876     -0.739924
6
Coordinates from ORCA-job B6_random_3d_seed1000_d2.50_q0_m5_R2SCAN-3C E -148.636116572733
  B       0.772876     -0.629387      1.115271
  B       1.560751     -0.457024     -0.189829
  B      -0.132798     -0.889162     -0.318323
  B      -0.437724      0.403193      0.796684
  B      -0.501338      1.426055     -0.653554
  B      -1.261766      0.146325     -0.750249
6
Coordinates from ORCA-job B6_random_3d_seed1000_d2.50_q0_m5_R2SCAN-3C E -148.639822486798
  B       0.776299     -0.620835      1.102410
  B       1.571632     -0.497403     -0.160915
  B      -0.128340     -0.865549     -0.312445
  B      -0.413957      0.402923      0.758671
  B      -0.528829      1.461852     -0.630197
  B      -1.276805      0.119012     -0.757524
6
Coordinates from ORCA-job B6_random_3d_seed1000_d2.50_q0_m5_R2SCAN-3C E -148.643242136051
  B       0.766446     -0.625786      1.133085
  B       1.616121     -0.534211     -0.173970
  B      -0.120530     -0.848003     -0.303072
  B      -0.406973      0.399988      0.731896
  B      -0.568954      1.485476     -0.625225
  B      -1.286111      0.122536     -0.762715
6
Coordinates from ORCA-job B6_random_3d_seed1000_d2.50_q0_m5_R2SCAN-3C E -148.647886412528
  B       0.780069     -0.618255      1.138189
  B       1.638023     -0.614580     -0.149442
  B      -0.079355     -0.846444     -0.311056
  B      -0.394923      0.420222      0.710298
  B      -0.648620      1.525089     -0.609423
  B      -1.295194      0.133968     -0.778567
6
Coordinates from ORCA-job B6_random_3d_seed1000_d2.50_q0_m5_R2SCAN-3C E -148.653218960851
  B       0.785752     -0.590412      1.138737
  B       1.658356     -0.701807     -0.120574
  B      -0.059529     -0.838148     -0.339204
  B      -0.372829      0.442159      0.689549
  B      -0.732508      1.554372     -0.580420
  B      -1.279242      0.133836     -0.788088
6
Coordinates from ORCA-job B6_random_3d_seed1000_d2.50_q0_m5_R2SCAN-3C E -148.658673977914
  B       0.784759     -0.562279      1.128822
  B       1.677141     -0.789462     -0.095703
  B      -0.033330     -0.832433     -0.355635
  B      -0.358418      0.460148      0.666699
  B      -0.817970      1.588614     -0.554633
  B      -1.252182      0.135412     -0.789550
6
Coordinates from ORCA-job B6_random_3d_seed1000_d2.50_q0_m5_R2SCAN-3C E -148.664237227594
  B       0.785743     -0.535674      1.113705
  B       1.696708     -0.876337     -0.069364
  B      -0.011081     -0.825810     -0.368855
  B      -0.348184      0.476867      0.643377
  B      -0.904825      1.621004     -0.531112
  B      -1.218360      0.139949     -0.787750
6
Coordinates from ORCA-job B6_random_3d_seed1000_d2.50_q0_m5_R2SCAN-3C E -148.669672928030
  B       0.790910     -0.509010      1.096399
  B       1.712064     -0.963789     -0.040117
  B       0.014197     -0.818408     -0.379471
  B      -0.336519      0.492444      0.620551
  B      -0.993064      1.648859     -0.506880
  B      -1.187589      0.149904     -0.790483
6
Coordinates from ORCA-job B6_random_3d_seed1000_d2.50_q0_m5_R2SCAN-3C E -148.676211316286
  B       0.805001     -0.467463      1.069192
  B       1.716600     -1.078654      0.003692
  B       0.043135     -0.799984     -0.395955
  B      -0.318294      0.512784      0.590073
  B      -1.107668      1.666931     -0.467559
  B      -1.138774      0.166386     -0.799442
6
Coordinates from ORCA-job B6_random_3d_seed1000_d2.50_q0_m5_R2SCAN-3C E -148.681721334034
  B       0.822102     -0.430274      1.055776
  B       1.708493     -1.186268      0.043602
  B       0.089407     -0.783347     -0.412362
  B      -0.296703      0.541835      0.553830
  B      -1.209754      1.677344     -0.419919
  B      -1.113545      0.180710     -0.820927
6
Coordinates from ORCA-job B6_random_3d_seed1000_d2.50_q0_m5_R2SCAN-3C E -148.685705568132
  B       0.849588     -0.408155      1.046036
  B       1.702251     -1.257403      0.078432
  B       0.103064     -0.763568     -0.427608
  B      -0.281001      0.553136      0.535943
  B      -1.282716      1.677825     -0.395034
  B      -1.091185      0.198165     -0.837770
6
Coordinates from ORCA-job B6_random_3d_seed1000_d2.50_q0_m5_R2SCAN-3C E -148.688648364511
  B       0.875666     -0.397774      1.041122
  B       1.696667     -1.299533      0.104321
  B       0.116710     -0.754660     -0.436066
  B      -0.278135      0.565813      0.521413
  B      -1.320042      1.669420     -0.374738
  B      -1.090867      0.216733     -0.856052
6
Coordinates from ORCA-job B6_random_3d_seed1000_d2.50_q0_m5_R2SCAN-3C E -148.691677538939
  B       0.908461     -0.371759      1.020400
  B       1.679872     -1.358616      0.135174
  B       0.133586     -0.741148     -0.441249
  B      -0.276808      0.574242      0.516482
  B      -1.372786      1.655741     -0.351300
  B      -1.072325      0.241541     -0.879507
6
Coordinates from ORCA-job B6_random_3d_seed1000_d2.50_q0_m5_R2SCAN-3C E -148.694378890097
  B       0.952575     -0.333068      0.991339
  B       1.645640     -1.441890      0.170072
  B       0.161841     -0.715742     -0.442951
  B      -0.279745      0.590777      0.508806
  B      -1.444003      1.632392     -0.316087
  B      -1.036308      0.267531     -0.911180
6
Coordinates from ORCA-job B6_random_3d_seed1000_d2.50_q0_m5_R2SCAN-3C E -148.694935555586
  B       0.995222     -0.305643      0.980996
  B       1.608990     -1.477209      0.195188
  B       0.166837     -0.695287     -0.449345
  B      -0.270571      0.591412      0.523134
  B      -1.471290      1.600411     -0.293197
  B      -1.029188      0.286315     -0.956776
6
Coordinates from ORCA-job B6_random_3d_seed1000_d2.50_q0_m5_R2SCAN-3C E -148.695173098375
  B       1.000791     -0.284586      0.937121
  B       1.586350     -1.508058      0.215304
  B       0.176944     -0.684593     -0.439726
  B      -0.275127      0.591108      0.512858
  B      -1.504282      1.581947     -0.277925
  B      -0.984677      0.304182     -0.947632
6
Coordinates from ORCA-job B6_random_3d_seed1000_d2.50_q0_m5_R2SCAN-3C E -148.695491198149
  B       0.997003     -0.291533      0.958631
  B       1.595215     -1.499939      0.206471
  B       0.179178     -0.692162     -0.444186
  B      -0.280018      0.603333      0.508254
  B      -1.487450      1.587534     -0.271924
  B      -1.003927      0.292767     -0.957246
6
Coordinates from ORCA-job B6_random_3d_seed1000_d2.50_q0_m5_R2SCAN-3C E -148.695538073396
  B       0.997019     -0.291698      0.960398
  B       1.591876     -1.493680      0.205225
  B       0.175296     -0.691388     -0.445565
  B      -0.272945      0.597160      0.513584
  B      -1.487158      1.587556     -0.276467
  B      -1.004088      0.292049     -0.957176
6
Coordinates from ORCA-job B6_random_3d_seed1000_d2.50_q0_m5_R2SCAN-3C E -148.695570159147
  B       0.996311     -0.291182      0.958035
  B       1.591482     -1.495958      0.206987
  B       0.176544     -0.690943     -0.444914
  B      -0.273734      0.598986      0.510045
  B      -1.488530      1.585707     -0.273779
  B      -1.002072      0.293390     -0.956374
6
Coordinates from ORCA-job B6_random_3d_seed1000_d2.50_q0_m5_R2SCAN-3C E -148.695601150550
  B       0.996696     -0.290241      0.957478
  B       1.589488     -1.498698      0.208674
  B       0.178050     -0.690480     -0.445182
  B      -0.272526      0.601243      0.506442
  B      -1.491780      1.583517     -0.270532
  B      -0.999928      0.294659     -0.956880
6
Coordinates from ORCA-job B6_random_3d_seed1000_d2.50_q0_m5_R2SCAN-3C E -148.695669260183
  B       0.997031     -0.288971      0.957970
  B       1.585126     -1.502083      0.212520
  B       0.179615     -0.690699     -0.447389
  B      -0.267575      0.605724      0.498493
  B      -1.498128      1.578130     -0.263795
  B      -0.996070      0.297899     -0.957799
6
Coordinates from ORCA-job B6_random_3d_seed1000_d2.50_q0_m5_R2SCAN-3C E -148.695733347914
  B       0.998295     -0.288044      0.960315
  B       1.579908     -1.504449      0.215343
  B       0.181323     -0.691840     -0.450472
  B      -0.260853      0.609158      0.492305
  B      -1.506115      1.574337     -0.259024
  B      -0.992558      0.300837     -0.958466
6
Coordinates from ORCA-job B6_random_3d_seed1000_d2.50_q0_m5_R2SCAN-3C E -148.695797231550
  B       0.999250     -0.288049      0.962703
  B       1.576510     -1.504258      0.217297
  B       0.180890     -0.693914     -0.454775
  B      -0.254993      0.611547      0.490340
  B      -1.511208      1.571359     -0.257601
  B      -0.990448      0.303315     -0.957964
6
Coordinates from ORCA-job B6_random_3d_seed1000_d2.50_q0_m5_R2SCAN-3C E -148.695869855000
  B       1.001193     -0.288270      0.964057
  B       1.572761     -1.506409      0.218729
  B       0.182331     -0.693835     -0.458292
  B      -0.249317      0.614486      0.491730
  B      -1.517947      1.569244     -0.258142
  B      -0.989021      0.304785     -0.958081
6
Coordinates from ORCA-job B6_random_3d_seed1000_d2.50_q0_m5_R2SCAN-3C E -148.695976843322
  B       1.001334     -0.291041      0.963915
  B       1.570588     -1.508625      0.219671
  B       0.183991     -0.691247     -0.462038
  B      -0.244052      0.620292      0.496376
  B      -1.522767      1.566233     -0.261215
  B      -0.989095      0.304386     -0.956707
6
Coordinates from ORCA-job B6_random_3d_seed1000_d2.50_q0_m5_R2SCAN-3C E -148.696095659277
  B       0.999809     -0.294593      0.961586
  B       1.569765     -1.513914      0.220290
  B       0.188198     -0.684432     -0.462045
  B      -0.240311      0.627590      0.500170
  B      -1.526778      1.563405     -0.263201
  B      -0.990683      0.301944     -0.956801
6
Coordinates from ORCA-job B6_random_3d_seed1000_d2.50_q0_m5_R2SCAN-3C E -148.696198141488
  B       0.994862     -0.299101      0.957686
  B       1.571512     -1.518543      0.222130
  B       0.191967     -0.676577     -0.460756
  B      -0.237764      0.635484      0.499944
  B      -1.527316      1.559942     -0.262212
  B      -0.993260      0.298795     -0.956792
6
Coordinates from ORCA-job B6_random_3d_seed1000_d2.50_q0_m5_R2SCAN-3C E -148.696264286084
  B       0.991729     -0.301494      0.956601
  B       1.568745     -1.524878      0.226437
  B       0.196709     -0.669604     -0.462044
  B      -0.230393      0.643740      0.493517
  B      -1.533747      1.554044     -0.256323
  B      -0.993042      0.298191     -0.958188
6
Coordinates from ORCA-job B6_random_3d_seed1000_d2.50_q0_m5_R2SCAN-3C E -148.696302811158
  B       0.988559     -0.303662      0.956221
  B       1.565403     -1.528091      0.231590
  B       0.199860     -0.667393     -0.467040
  B      -0.222336      0.651910      0.487345
  B      -1.540074      1.547652     -0.250768
  B      -0.991413      0.299585     -0.957348
6
Coordinates from ORCA-job B6_random_3d_seed1000_d2.50_q0_m5_R2SCAN-3C E -148.696314400548
  B       0.990582     -0.302158      0.957690
  B       1.559397     -1.533093      0.235164
  B       0.203755     -0.665237     -0.469512
  B      -0.216716      0.655779      0.481408
  B      -1.547685      1.542660     -0.245024
  B      -0.989334      0.302050     -0.959725
6
Coordinates from ORCA-job B6_random_3d_seed1000_d2.50_q0_m5_R2SCAN-3C E -148.696316055896
  B       0.990036     -0.302344      0.958315
  B       1.559018     -1.532082      0.235528
  B       0.203876     -0.666564     -0.471170
  B      -0.215852      0.656217      0.480973
  B      -1.547734      1.542325     -0.244870
  B      -0.989343      0.302448     -0.958776
6
Coordinates from ORCA-job B6_random_3d_seed1000_d2.50_q0_m5_R2SCAN-3C E -148.696316537881
  B       0.990200     -0.302286      0.958489
  B       1.558714     -1.532270      0.235192
  B       0.203959     -0.666125     -0.470909
  B      -0.215943      0.656365      0.481019
  B      -1.547703      1.542125     -0.244955
  B      -0.989227      0.302191     -0.958837
6
Coordinates from ORCA-job B6_random_3d_seed1000_d2.50_q0_m5_R2SCAN-3C E -148.696317367295
  B       0.990405     -0.302131      0.958684
  B       1.558225     -1.532543      0.234874
  B       0.204247     -0.665657     -0.470702
  B      -0.215982      0.656475      0.481003
  B      -1.547775      1.541883     -0.245013
  B      -0.989120      0.301973     -0.958846
6
Coordinates from ORCA-job B6_random_3d_seed1000_d2.50_q0_m5_R2SCAN-3C E -148.696319752731
  B       0.990710     -0.301809      0.958833
  B       1.557431     -1.533148      0.234483
  B       0.204920     -0.664669     -0.470485
  B      -0.216189      0.656616      0.481098
  B      -1.547734      1.541498     -0.245131
  B      -0.989137      0.301512     -0.958798
6
Coordinates from ORCA-job B6_random_3d_seed1000_d2.50_q0_m5_R2SCAN-3C E -148.696325144111
  B       0.991424     -0.301192      0.959025
  B       1.555734     -1.534351      0.234308
  B       0.206481     -0.662912     -0.470864
  B      -0.216406      0.656820      0.481169
  B      -1.548004      1.540871     -0.245248
  B      -0.989229      0.300764     -0.958390
6
Coordinates from ORCA-job B6_random_3d_seed1000_d2.50_q0_m5_R2SCAN-3C E -148.696335241781
  B       0.992382     -0.300216      0.958627
  B       1.553450     -1.536341      0.235175
  B       0.209250     -0.660270     -0.472381
  B      -0.216722      0.656767      0.481368
  B      -1.548411      1.540258     -0.245176
  B      -0.989950      0.299803     -0.957613
6
Coordinates from ORCA-job B6_random_3d_seed1000_d2.50_q0_m5_R2SCAN-3C E -148.696349675569
  B       0.993557     -0.299066      0.957435
  B       1.550532     -1.539014      0.238120
  B       0.213452     -0.657093     -0.476300
  B      -0.216658      0.656494      0.481446
  B      -1.549462      1.539801     -0.244578
  B      -0.991421      0.298878     -0.956123
6
Coordinates from ORCA-job B6_random_3d_seed1000_d2.50_q0_m5_R2SCAN-3C E -148.696356828539
  B       0.993818     -0.298694      0.955833
  B       1.549108     -1.540731      0.241981
  B       0.216561     -0.655394     -0.480439
  B      -0.215910      0.656475      0.481098
  B      -1.550483      1.539650     -0.243248
  B      -0.993093      0.298694     -0.955226
6
Coordinates from ORCA-job B6_random_3d_seed1000_d2.50_q0_m5_R2SCAN-3C E -148.696357594570
  B       0.993405     -0.298895      0.955567
  B       1.549774     -1.540319      0.242557
  B       0.216089     -0.655981     -0.480839
  B      -0.215763      0.656449      0.481001
  B      -1.550276      1.539892     -0.242832
  B      -0.993229      0.298854     -0.955454
6
Coordinates from ORCA-job B6_random_3d_seed1000_d2.50_q0_m5_R2SCAN-3C E -148.696357681423
  B       0.993207     -0.298972      0.955596
  B       1.550083     -1.540047      0.242679
  B       0.215753     -0.656342     -0.480932
  B      -0.215670      0.656412      0.480850
  B      -1.550181      1.539988     -0.242646
  B      -0.993194      0.298961     -0.955549
6
Coordinates from ORCA-job B6_random_3d_seed1000_d2.50_q0_m5_R2SCAN-3C E -148.696357682434
  B       0.993202     -0.298968      0.955559
  B       1.550119     -1.540046      0.242677
  B       0.215732     -0.656344     -0.480887
  B      -0.215698      0.656390      0.480877
  B      -1.550152      1.539999     -0.242654
  B      -0.993202      0.298970     -0.955573
