6
Coordinates from ORCA-job B6_random_3d_seed1000_d1.60_q0_m5_R2SCAN-3C E -148.669771208905
  B           0.74682561410648     -0.00763145965001      0.98320869344788
  B           1.44136258350847     -0.55997216816974     -0.35248882299571
  B          -0.11370306933985     -0.76197401011296     -0.66679617692642
  B          -0.80028483590221      0.30428854750475      0.88937207916911
  B           0.22103472496941      0.99368581793681     -0.32390973028783
  B          -1.49523501734230      0.03160326249115     -0.52938604240703
