6
Coordinates from ORCA-job B6_random_3d_seed1000_d1.60_q0_m5_R2SCAN-3C E -148.564805936176
  B       0.489294     -0.507228      1.005028
  B       1.276664     -0.143065     -0.361258
  B      -0.026985     -1.166601     -0.439514
  B      -0.544866      0.571787      0.853310
  B      -0.077705      1.213510     -0.540405
  B      -1.116401      0.031596     -0.517161
6
Coordinates from ORCA-job B6_random_3d_seed1000_d1.60_q0_m5_R2SCAN-3C E -148.581143432750
  B       0.509572     -0.534646      1.029056
  B       1.286397     -0.170336     -0.346254
  B       0.002625     -1.169861     -0.466088
  B      -0.548483      0.603311      0.874391
  B      -0.103262      1.227525     -0.566655
  B      -1.146849      0.044008     -0.524451
6
Coordinates from ORCA-job B6_random_3d_seed1000_d1.60_q0_m5_R2SCAN-3C E -148.590246855781
  B       0.529536     -0.559124      1.062987
  B       1.292731     -0.200783     -0.335836
  B       0.035703     -1.159368     -0.495051
  B      -0.548860      0.630181      0.901219
  B      -0.127721      1.231615     -0.595147
  B      -1.181390      0.057478     -0.538172
6
Coordinates from ORCA-job B6_random_3d_seed1000_d1.60_q0_m5_R2SCAN-3C E -148.594694008982
  B       0.534444     -0.578735      1.091070
  B       1.304941     -0.216436     -0.318882
  B       0.059975     -1.129368     -0.527182
  B      -0.538325      0.644706      0.919904
  B      -0.141343      1.213494     -0.628736
  B      -1.219692      0.066339     -0.536174
6
Coordinates from ORCA-job B6_random_3d_seed1000_d1.60_q0_m5_R2SCAN-3C E -148.601436593078
  B       0.538274     -0.601067      1.126546
  B       1.329048     -0.228040     -0.289128
  B       0.082337     -1.066510     -0.571907
  B      -0.519190      0.652206      0.938863
  B      -0.149622      1.165703     -0.677637
  B      -1.280847      0.077708     -0.526737
6
Coordinates from ORCA-job B6_random_3d_seed1000_d1.60_q0_m5_R2SCAN-3C E -148.609804872108
  B       0.548052     -0.613243      1.162235
  B       1.355454     -0.234665     -0.262171
  B       0.091041     -0.985892     -0.608880
  B      -0.501951      0.642859      0.953628
  B      -0.146617      1.099549     -0.721188
  B      -1.345979      0.091392     -0.523625
6
Coordinates from ORCA-job B6_random_3d_seed1000_d1.60_q0_m5_R2SCAN-3C E -148.624702250744
  B       0.576212     -0.594284      1.210323
  B       1.395817     -0.231777     -0.239289
  B       0.062944     -0.844220     -0.635441
  B      -0.485082      0.581290      0.964961
  B      -0.111665      0.971544     -0.759419
  B      -1.438225      0.117447     -0.541135
6
Coordinates from ORCA-job B6_random_3d_seed1000_d1.60_q0_m5_R2SCAN-3C E -148.632580006570
  B       0.586820     -0.549283      1.207965
  B       1.406791     -0.211914     -0.240780
  B       0.007393     -0.791035     -0.626180
  B      -0.485225      0.520658      0.952076
  B      -0.058478      0.910036     -0.742336
  B      -1.457300      0.121537     -0.550745
6
Coordinates from ORCA-job B6_random_3d_seed1000_d1.60_q0_m5_R2SCAN-3C E -148.638656688253
  B       0.583633     -0.523781      1.171980
  B       1.392516     -0.191061     -0.244132
  B      -0.031549     -0.816582     -0.611859
  B      -0.500084      0.505912      0.927498
  B      -0.014079      0.918195     -0.707919
  B      -1.430437      0.107318     -0.535569
6
Coordinates from ORCA-job B6_random_3d_seed1000_d1.60_q0_m5_R2SCAN-3C E -148.644930910516
  B       0.597749     -0.516502      1.136092
  B       1.373820     -0.168260     -0.222168
  B      -0.056446     -0.799675     -0.627100
  B      -0.528179      0.512883      0.899639
  B       0.041825      0.879109     -0.688620
  B      -1.428769      0.092444     -0.497842
6
Coordinates from ORCA-job B6_random_3d_seed1000_d1.60_q0_m5_R2SCAN-3C E -148.646659097246
  B       0.605816     -0.522654      1.123602
  B       1.371635     -0.168548     -0.212879
  B      -0.048473     -0.807558     -0.641345
  B      -0.551966      0.530167      0.893740
  B       0.054131      0.876900     -0.688556
  B      -1.431143      0.091693     -0.474562
6
Coordinates from ORCA-job B6_random_3d_seed1000_d1.60_q0_m5_R2SCAN-3C E -148.647488566898
  B       0.613959     -0.514464      1.124382
  B       1.378754     -0.171620     -0.216879
  B      -0.045996     -0.802275     -0.648878
  B      -0.574285      0.525520      0.895261
  B       0.068435      0.864157     -0.688849
  B      -1.440866      0.098683     -0.465037
6
Coordinates from ORCA-job B6_random_3d_seed1000_d1.60_q0_m5_R2SCAN-3C E -148.648661314871
  B       0.626194     -0.486807      1.126143
  B       1.398022     -0.183122     -0.236656
  B      -0.044643     -0.806495     -0.654173
  B      -0.621348      0.504815      0.901445
  B       0.094114      0.854263     -0.683293
  B      -1.452340      0.117346     -0.453466
6
Coordinates from ORCA-job B6_random_3d_seed1000_d1.60_q0_m5_R2SCAN-3C E -148.649511224697
  B       0.635148     -0.451517      1.127204
  B       1.416453     -0.196220     -0.257789
  B      -0.050925     -0.807730     -0.651353
  B      -0.656333      0.473991      0.909198
  B       0.114730      0.846393     -0.673672
  B      -1.459072      0.135083     -0.453588
6
Coordinates from ORCA-job B6_random_3d_seed1000_d1.60_q0_m5_R2SCAN-3C E -148.650588261187
  B       0.642595     -0.399649      1.124577
  B       1.439591     -0.218776     -0.284054
  B      -0.062263     -0.810959     -0.642410
  B      -0.691634      0.428897      0.923290
  B       0.132440      0.844023     -0.658636
  B      -1.460729      0.156463     -0.462767
6
Coordinates from ORCA-job B6_random_3d_seed1000_d1.60_q0_m5_R2SCAN-3C E -148.651558810017
  B       0.648835     -0.343000      1.111146
  B       1.457570     -0.243036     -0.303247
  B      -0.077080     -0.811491     -0.634762
  B      -0.723671      0.384013      0.937046
  B       0.149742      0.840107     -0.639412
  B      -1.455396      0.173406     -0.470770
6
Coordinates from ORCA-job B6_random_3d_seed1000_d1.60_q0_m5_R2SCAN-3C E -148.652660906618
  B       0.655957     -0.282948      1.088438
  B       1.472874     -0.273911     -0.314800
  B      -0.090118     -0.811066     -0.632425
  B      -0.755859      0.342707      0.956310
  B       0.161117      0.838119     -0.618945
  B      -1.443971      0.187099     -0.478578
6
Coordinates from ORCA-job B6_random_3d_seed1000_d1.60_q0_m5_R2SCAN-3C E -148.653740349623
  B       0.665402     -0.221224      1.058079
  B       1.482071     -0.308284     -0.318150
  B      -0.099856     -0.807972     -0.639683
  B      -0.789924      0.307664      0.978407
  B       0.171799      0.833922     -0.596784
  B      -1.429493      0.195894     -0.481870
6
Coordinates from ORCA-job B6_random_3d_seed1000_d1.60_q0_m5_R2SCAN-3C E -148.654530800025
  B       0.673377     -0.175933      1.038487
  B       1.482965     -0.339263     -0.318694
  B      -0.101096     -0.804139     -0.653026
  B      -0.812606      0.287691      0.997117
  B       0.177033      0.834712     -0.579733
  B      -1.419673      0.196931     -0.484151
6
Coordinates from ORCA-job B6_random_3d_seed1000_d1.60_q0_m5_R2SCAN-3C E -148.656024854915
  B       0.685486     -0.112487      1.014860
  B       1.473208     -0.388306     -0.318701
  B      -0.098059     -0.796640     -0.679021
  B      -0.838653      0.266902      1.019628
  B       0.185724      0.842947     -0.550312
  B      -1.407705      0.187585     -0.486454
6
Coordinates from ORCA-job B6_random_3d_seed1000_d1.60_q0_m5_R2SCAN-3C E -148.658300233371
  B       0.704975     -0.046298      0.998206
  B       1.443137     -0.453727     -0.318018
  B      -0.086299     -0.782356     -0.717289
  B      -0.856461      0.258510      1.037617
  B       0.193311      0.867705     -0.508001
  B      -1.398663      0.156167     -0.492516
6
Coordinates from ORCA-job B6_random_3d_seed1000_d1.60_q0_m5_R2SCAN-3C E -148.660806005180
  B       0.720116     -0.019233      1.005093
  B       1.424299     -0.487385     -0.322950
  B      -0.081481     -0.770386     -0.732432
  B      -0.855882      0.260628      1.025147
  B       0.202744      0.888138     -0.479669
  B      -1.409795      0.128238     -0.495188
6
Coordinates from ORCA-job B6_random_3d_seed1000_d1.60_q0_m5_R2SCAN-3C E -148.665559481971
  B       0.738623      0.014024      1.022949
  B       1.412762     -0.517901     -0.333790
  B      -0.098341     -0.753439     -0.729294
  B      -0.836766      0.254016      0.969109
  B       0.230156      0.912748     -0.430786
  B      -1.446434      0.090551     -0.498189
6
Coordinates from ORCA-job B6_random_3d_seed1000_d1.60_q0_m5_R2SCAN-3C E -148.667862149162
  B       0.750035      0.030031      1.033291
  B       1.409358     -0.536522     -0.338126
  B      -0.120248     -0.744658     -0.716669
  B      -0.805835      0.252061      0.918430
  B       0.242518      0.938116     -0.387985
  B      -1.475829      0.060974     -0.508942
6
Coordinates from ORCA-job B6_random_3d_seed1000_d1.60_q0_m5_R2SCAN-3C E -148.668454341875
  B       0.752931      0.041443      1.024016
  B       1.417534     -0.547214     -0.339553
  B      -0.128432     -0.750142     -0.710079
  B      -0.799991      0.249833      0.899165
  B       0.248127      0.950933     -0.361610
  B      -1.490169      0.055147     -0.511938
6
Coordinates from ORCA-job B6_random_3d_seed1000_d1.60_q0_m5_R2SCAN-3C E -148.668087913253
  B       0.756459     -0.018677      1.044384
  B       1.426678     -0.538050     -0.335838
  B      -0.124014     -0.758159     -0.698557
  B      -0.765054      0.297120      0.866472
  B       0.221075      0.985419     -0.360609
  B      -1.515145      0.032347     -0.515850
6
Coordinates from ORCA-job B6_random_3d_seed1000_d1.60_q0_m5_R2SCAN-3C E -148.669173633433
  B       0.758529      0.017967      1.012900
  B       1.424112     -0.558736     -0.334925
  B      -0.124530     -0.761646     -0.704064
  B      -0.784451      0.281359      0.885461
  B       0.228676      0.984358     -0.337872
  B      -1.502336      0.036697     -0.521500
6
Coordinates from ORCA-job B6_random_3d_seed1000_d1.60_q0_m5_R2SCAN-3C E -148.669364112801
  B       0.755058      0.017998      1.000688
  B       1.430994     -0.558579     -0.335058
  B      -0.121010     -0.764780     -0.700990
  B      -0.794117      0.280967      0.894240
  B       0.227399      0.980693     -0.338482
  B      -1.498324      0.043702     -0.520398
6
Coordinates from ORCA-job B6_random_3d_seed1000_d1.60_q0_m5_R2SCAN-3C E -148.669538606723
  B       0.753723      0.011201      0.990148
  B       1.434222     -0.563105     -0.336331
  B      -0.115922     -0.764532     -0.695158
  B      -0.796434      0.290034      0.898440
  B       0.219535      0.985273     -0.333019
  B      -1.495124      0.041129     -0.524081
6
Coordinates from ORCA-job B6_random_3d_seed1000_d1.60_q0_m5_R2SCAN-3C E -148.669694590068
  B       0.749726     -0.004115      0.982462
  B       1.441899     -0.564741     -0.340931
  B      -0.109162     -0.761771     -0.682742
  B      -0.798218      0.302647      0.899659
  B       0.208889      0.988864     -0.331594
  B      -1.493134      0.039117     -0.526855
6
Coordinates from ORCA-job B6_random_3d_seed1000_d1.60_q0_m5_R2SCAN-3C E -148.669739802303
  B       0.748921     -0.006386      0.980591
  B       1.443729     -0.567953     -0.344744
  B      -0.108308     -0.759054     -0.676064
  B      -0.797684      0.305766      0.895837
  B       0.206566      0.991667     -0.326833
  B      -1.493224      0.035960     -0.528787
6
Coordinates from ORCA-job B6_random_3d_seed1000_d1.60_q0_m5_R2SCAN-3C E -148.669754223196
  B       0.748224     -0.006848      0.982009
  B       1.444426     -0.567715     -0.346969
  B      -0.108809     -0.758182     -0.672928
  B      -0.798268      0.304574      0.894120
  B       0.207041      0.991822     -0.327646
  B      -1.492614      0.036350     -0.528587
6
Coordinates from ORCA-job B6_random_3d_seed1000_d1.60_q0_m5_R2SCAN-3C E -148.669759622832
  B       0.748475     -0.005669      0.982190
  B       1.443912     -0.568203     -0.347938
  B      -0.109751     -0.758729     -0.671542
  B      -0.798578      0.303147      0.892816
  B       0.207958      0.993221     -0.326708
  B      -1.492015      0.036233     -0.528818
6
Coordinates from ORCA-job B6_random_3d_seed1000_d1.60_q0_m5_R2SCAN-3C E -148.669763322226
  B       0.748694     -0.005004      0.981750
  B       1.443607     -0.568371     -0.348662
  B      -0.110452     -0.759972     -0.669950
  B      -0.799116      0.301822      0.892410
  B       0.208528      0.994854     -0.326167
  B      -1.491261      0.036671     -0.529380
6
Coordinates from ORCA-job B6_random_3d_seed1000_d1.60_q0_m5_R2SCAN-3C E -148.669765338071
  B       0.749023     -0.004710      0.980924
  B       1.443296     -0.568435     -0.349086
  B      -0.110892     -0.761169     -0.668459
  B      -0.799336      0.301094      0.892187
  B       0.208865      0.996309     -0.325314
  B      -1.490955      0.036910     -0.530251
6
Coordinates from ORCA-job B6_random_3d_seed1000_d1.60_q0_m5_R2SCAN-3C E -148.669766308540
  B       0.749197     -0.004886      0.980538
  B       1.443054     -0.567996     -0.349286
  B      -0.111051     -0.761748     -0.667499
  B      -0.799320      0.300863      0.892080
  B       0.209195      0.996693     -0.325001
  B      -1.491076      0.037073     -0.530832
6
Coordinates from ORCA-job B6_random_3d_seed1000_d1.60_q0_m5_R2SCAN-3C E -148.669766975026
  B       0.749337     -0.005069      0.980458
  B       1.442705     -0.567278     -0.349550
  B      -0.111196     -0.762093     -0.666711
  B      -0.799230      0.300761      0.891830
  B       0.209838      0.996583     -0.324726
  B      -1.491455      0.037096     -0.531300
6
Coordinates from ORCA-job B6_random_3d_seed1000_d1.60_q0_m5_R2SCAN-3C E -148.669767416226
  B       0.749289     -0.005263      0.980764
  B       1.442462     -0.566544     -0.349734
  B      -0.111279     -0.762078     -0.666561
  B      -0.799175      0.300856      0.891677
  B       0.210481      0.996019     -0.324809
  B      -1.491779      0.037010     -0.531336
6
Coordinates from ORCA-job B6_random_3d_seed1000_d1.60_q0_m5_R2SCAN-3C E -148.669768081746
  B       0.749025     -0.005729      0.981654
  B       1.441776     -0.564225     -0.350525
  B      -0.111836     -0.762265     -0.665990
  B      -0.799105      0.301193      0.890838
  B       0.212874      0.994521     -0.324654
  B      -1.492733      0.036505     -0.531323
6
Coordinates from ORCA-job B6_random_3d_seed1000_d1.60_q0_m5_R2SCAN-3C E -148.669768576730
  B       0.748827     -0.005844      0.981866
  B       1.441753     -0.563911     -0.350747
  B      -0.111954     -0.762317     -0.666167
  B      -0.799215      0.301512      0.890800
  B       0.213343      0.994359     -0.324596
  B      -1.492754      0.036201     -0.531156
6
Coordinates from ORCA-job B6_random_3d_seed1000_d1.60_q0_m5_R2SCAN-3C E -148.669770115543
  B       0.747756     -0.006634      0.982738
  B       1.441662     -0.561856     -0.351973
  B      -0.112819     -0.762945     -0.666869
  B      -0.799884      0.303347      0.890485
  B       0.216352      0.993673     -0.324021
  B      -1.493066      0.034414     -0.530361
6
Coordinates from ORCA-job B6_random_3d_seed1000_d1.60_q0_m5_R2SCAN-3C E -148.669770349751
  B       0.747494     -0.007011      0.982922
  B       1.441498     -0.560854     -0.352431
  B      -0.113266     -0.763182     -0.666595
  B      -0.800006      0.303815      0.890089
  B       0.217702      0.993458     -0.323687
  B      -1.493423      0.033773     -0.530297
6
Coordinates from ORCA-job B6_random_3d_seed1000_d1.60_q0_m5_R2SCAN-3C E -148.669770537668
  B       0.747443     -0.007175      0.982852
  B       1.441477     -0.560597     -0.352540
  B      -0.113468     -0.763190     -0.666368
  B      -0.800058      0.303929      0.889907
  B       0.218285      0.993615     -0.323524
  B      -1.493679      0.033418     -0.530328
6
Coordinates from ORCA-job B6_random_3d_seed1000_d1.60_q0_m5_R2SCAN-3C E -148.669770835638
  B       0.747286     -0.007541      0.982881
  B       1.441394     -0.560025     -0.352716
  B      -0.113849     -0.762976     -0.666084
  B      -0.800187      0.304173      0.889506
  B       0.219811      0.993886     -0.323365
  B      -1.494456      0.032482     -0.530222
6
Coordinates from ORCA-job B6_random_3d_seed1000_d1.60_q0_m5_R2SCAN-3C E -148.669770996012
  B       0.747228     -0.007517      0.982903
  B       1.441425     -0.560150     -0.352565
  B      -0.113780     -0.762633     -0.666295
  B      -0.800216      0.304137      0.889516
  B       0.220010      0.993875     -0.323540
  B      -1.494667      0.032289     -0.530019
6
Coordinates from ORCA-job B6_random_3d_seed1000_d1.60_q0_m5_R2SCAN-3C E -148.669771153817
  B       0.746770     -0.007735      0.983364
  B       1.441381     -0.559958     -0.352344
  B      -0.113740     -0.761487     -0.667094
  B      -0.800347      0.304392      0.889286
  B       0.221618      0.993693     -0.324112
  B      -1.495682      0.031096     -0.529100
6
Coordinates from ORCA-job B6_random_3d_seed1000_d1.60_q0_m5_R2SCAN-3C E -148.669771200551
  B       0.746868     -0.007597      0.983228
  B       1.441383     -0.560082     -0.352426
  B      -0.113689     -0.761854     -0.666875
  B      -0.800295      0.304262      0.889383
  B       0.221033      0.993725     -0.323953
  B      -1.495300      0.031545     -0.529357
6
Coordinates from ORCA-job B6_random_3d_seed1000_d1.60_q0_m5_R2SCAN-3C E -148.669771208905
  B       0.746826     -0.007631      0.983209
  B       1.441363     -0.559972     -0.352489
  B      -0.113703     -0.761974     -0.666796
  B      -0.800285      0.304289      0.889372
  B       0.221035      0.993686     -0.323910
  B      -1.495235      0.031603     -0.529386
