6
Coordinates from ORCA-job B6_random_3d_seed1004_d1.80_q0_m1_R2SCAN-3C E -148.737098991816
  B          -0.42153270043238     -0.18779142354956      0.61954276286779
  B           0.97862119354639      0.69256328865143      0.68327655504892
  B           1.04647096796201     -0.86070898371002      0.25857618728212
  B          -1.06307714836405      0.18810834393990     -0.85907760728180
  B          -0.32526890954715      1.34057323104201     -0.00775071631325
  B          -0.21521340316482     -1.17274444637375     -0.69456718160379
