6
Coordinates from ORCA-job B6_random_3d_seed1004_d1.80_q0_m1_R2SCAN-3C E -148.584645169326
  B      -0.544323     -0.492287      1.097675
  B       0.842811      0.766976      0.834753
  B       0.928994     -0.966689      0.381944
  B      -1.249320      0.098061     -0.415606
  B       0.010929      1.224658     -0.750014
  B       0.010910     -0.630718     -1.148751
6
Coordinates from ORCA-job B6_random_3d_seed1004_d1.80_q0_m1_R2SCAN-3C E -148.596898866263
  B      -0.528936     -0.477503      1.062190
  B       0.829820      0.741122      0.795645
  B       0.912838     -0.946866      0.381789
  B      -1.240636      0.105412     -0.415495
  B       0.002030      1.202016     -0.713324
  B       0.024885     -0.624181     -1.110805
6
Coordinates from ORCA-job B6_random_3d_seed1004_d1.80_q0_m1_R2SCAN-3C E -148.607926205804
  B      -0.512891     -0.465923      1.016378
  B       0.817162      0.711986      0.761114
  B       0.910646     -0.922911      0.382132
  B      -1.237490      0.127075     -0.421432
  B      -0.010904      1.181655     -0.674638
  B       0.033477     -0.631882     -1.063554
6
Coordinates from ORCA-job B6_random_3d_seed1004_d1.80_q0_m1_R2SCAN-3C E -148.616391153816
  B      -0.502443     -0.452422      0.984433
  B       0.809304      0.693956      0.744949
  B       0.913961     -0.911287      0.378338
  B      -1.236763      0.143119     -0.427467
  B      -0.023093      1.173646     -0.647247
  B       0.039034     -0.647011     -1.033007
6
Coordinates from ORCA-job B6_random_3d_seed1004_d1.80_q0_m1_R2SCAN-3C E -148.629473437567
  B      -0.486915     -0.427625      0.937104
  B       0.796211      0.670872      0.720913
  B       0.915274     -0.897075      0.369169
  B      -1.231881      0.161792     -0.435302
  B      -0.040173      1.165977     -0.601878
  B       0.047483     -0.673941     -0.990007
6
Coordinates from ORCA-job B6_random_3d_seed1004_d1.80_q0_m1_R2SCAN-3C E -148.649983469946
  B      -0.474422     -0.375839      0.873467
  B       0.783418      0.661822      0.706198
  B       0.926422     -0.904659      0.343869
  B      -1.229337      0.178059     -0.445873
  B      -0.066811      1.184896     -0.531752
  B       0.060730     -0.744279     -0.945908
6
Coordinates from ORCA-job B6_random_3d_seed1004_d1.80_q0_m1_R2SCAN-3C E -148.673973504985
  B      -0.474316     -0.316570      0.808185
  B       0.802719      0.666651      0.720722
  B       0.966708     -0.921214      0.325910
  B      -1.246195      0.180289     -0.479417
  B      -0.096374      1.235285     -0.454967
  B       0.047458     -0.844442     -0.920432
6
Coordinates from ORCA-job B6_random_3d_seed1004_d1.80_q0_m1_R2SCAN-3C E -148.697153841036
  B      -0.474191     -0.257843      0.743932
  B       0.852075      0.665229      0.739058
  B       1.009155     -0.913766      0.323120
  B      -1.260137      0.165742     -0.541980
  B      -0.129923      1.281322     -0.361887
  B       0.003021     -0.940683     -0.902243
6
Coordinates from ORCA-job B6_random_3d_seed1004_d1.80_q0_m1_R2SCAN-3C E -148.714127425267
  B      -0.468037     -0.207813      0.685306
  B       0.903084      0.664067      0.748993
  B       1.030210     -0.888919      0.315266
  B      -1.249006      0.144068     -0.613318
  B      -0.164012      1.313378     -0.261242
  B      -0.052238     -1.024781     -0.875004
6
Coordinates from ORCA-job B6_random_3d_seed1004_d1.80_q0_m1_R2SCAN-3C E -148.722649242406
  B      -0.454733     -0.192031      0.657835
  B       0.932782      0.668764      0.753637
  B       1.031284     -0.870356      0.304888
  B      -1.222463      0.131140     -0.666240
  B      -0.190069      1.333229     -0.200932
  B      -0.096802     -1.070746     -0.849188
6
Coordinates from ORCA-job B6_random_3d_seed1004_d1.80_q0_m1_R2SCAN-3C E -148.729641190323
  B      -0.434336     -0.182652      0.629694
  B       0.957410      0.676724      0.745894
  B       1.022152     -0.854254      0.288658
  B      -1.172123      0.124598     -0.725923
  B      -0.227842      1.351829     -0.130416
  B      -0.145262     -1.116245     -0.807907
6
Coordinates from ORCA-job B6_random_3d_seed1004_d1.80_q0_m1_R2SCAN-3C E -148.733167817096
  B      -0.418923     -0.178860      0.616148
  B       0.971464      0.685847      0.731854
  B       1.016809     -0.853042      0.276636
  B      -1.127583      0.133764     -0.770675
  B      -0.265638      1.361455     -0.079880
  B      -0.176129     -1.149163     -0.774083
6
Coordinates from ORCA-job B6_random_3d_seed1004_d1.80_q0_m1_R2SCAN-3C E -148.735466548632
  B      -0.411146     -0.179963      0.608139
  B       0.977771      0.692936      0.709030
  B       1.018674     -0.857728      0.270149
  B      -1.089644      0.155539     -0.806592
  B      -0.299997      1.361591     -0.039235
  B      -0.195658     -1.172375     -0.741490
6
Coordinates from ORCA-job B6_random_3d_seed1004_d1.80_q0_m1_R2SCAN-3C E -148.736589330670
  B      -0.410635     -0.186889      0.609464
  B       0.979424      0.697376      0.688075
  B       1.028155     -0.863616      0.269279
  B      -1.066832      0.178512     -0.833078
  B      -0.322585      1.355695     -0.016064
  B      -0.207528     -1.181078     -0.717677
6
Coordinates from ORCA-job B6_random_3d_seed1004_d1.80_q0_m1_R2SCAN-3C E -148.736908163332
  B      -0.414672     -0.185074      0.613697
  B       0.980054      0.695886      0.674744
  B       1.035338     -0.866206      0.271448
  B      -1.061124      0.188512     -0.846710
  B      -0.330481      1.346061     -0.004820
  B      -0.209115     -1.179178     -0.708360
6
Coordinates from ORCA-job B6_random_3d_seed1004_d1.80_q0_m1_R2SCAN-3C E -148.736996379666
  B      -0.420087     -0.195576      0.617767
  B       0.980504      0.696502      0.672418
  B       1.043432     -0.865131      0.269974
  B      -1.061814      0.193362     -0.855875
  B      -0.329178      1.344051     -0.005117
  B      -0.212858     -1.173209     -0.699167
6
Coordinates from ORCA-job B6_random_3d_seed1004_d1.80_q0_m1_R2SCAN-3C E -148.737063404675
  B      -0.421449     -0.189072      0.619427
  B       0.981915      0.694450      0.672901
  B       1.043104     -0.864918      0.269378
  B      -1.063986      0.190227     -0.857296
  B      -0.328679      1.340960     -0.003567
  B      -0.210905     -1.171647     -0.700843
6
Coordinates from ORCA-job B6_random_3d_seed1004_d1.80_q0_m1_R2SCAN-3C E -148.737078313469
  B      -0.421760     -0.188045      0.618997
  B       0.982107      0.693947      0.675142
  B       1.042838     -0.863872      0.267180
  B      -1.064370      0.188369     -0.857708
  B      -0.327625      1.340799     -0.003833
  B      -0.211191     -1.171197     -0.699779
6
Coordinates from ORCA-job B6_random_3d_seed1004_d1.80_q0_m1_R2SCAN-3C E -148.737089063458
  B      -0.421837     -0.187604      0.619168
  B       0.981824      0.693625      0.678713
  B       1.043459     -0.862683      0.263608
  B      -1.064285      0.187014     -0.858770
  B      -0.326639      1.340750     -0.004954
  B      -0.212521     -1.171102     -0.697765
6
Coordinates from ORCA-job B6_random_3d_seed1004_d1.80_q0_m1_R2SCAN-3C E -148.737094466502
  B      -0.421698     -0.187659      0.619227
  B       0.980846      0.693302      0.680924
  B       1.044458     -0.861759      0.261085
  B      -1.063716      0.187066     -0.859377
  B      -0.326093      1.340541     -0.005894
  B      -0.213796     -1.171491     -0.695965
6
Coordinates from ORCA-job B6_random_3d_seed1004_d1.80_q0_m1_R2SCAN-3C E -148.737098272677
  B      -0.421446     -0.187771      0.619483
  B       0.979314      0.692862      0.683145
  B       1.045909     -0.860858      0.258705
  B      -1.063122      0.187676     -0.859565
  B      -0.325504      1.340399     -0.007283
  B      -0.215151     -1.172309     -0.694486
6
Coordinates from ORCA-job B6_random_3d_seed1004_d1.80_q0_m1_R2SCAN-3C E -148.737098889972
  B      -0.421456     -0.187809      0.619524
  B       0.978741      0.692648      0.683390
  B       1.046379     -0.860681      0.258450
  B      -1.063041      0.188036     -0.859279
  B      -0.325310      1.340448     -0.007684
  B      -0.215312     -1.172643     -0.694401
6
Coordinates from ORCA-job B6_random_3d_seed1004_d1.80_q0_m1_R2SCAN-3C E -148.737098991816
  B      -0.421533     -0.187791      0.619543
  B       0.978621      0.692563      0.683277
  B       1.046471     -0.860709      0.258576
  B      -1.063077      0.188108     -0.859078
  B      -0.325269      1.340573     -0.007751
  B      -0.215213     -1.172744     -0.694567
