6
Coordinates from ORCA-job B6_planar_ring_d3.50_q0_m1_R2SCAN-3C E -147.807376165630
  B       3.500000     -0.000000      0.000000
  B       1.750000      3.031089      0.000000
  B      -1.750000      3.031089      0.000000
  B      -3.500000      0.000000      0.000000
  B      -1.750000     -3.031089      0.000000
  B       1.750000     -3.031089      0.000000
6
Coordinates from ORCA-job B6_planar_ring_d3.50_q0_m1_R2SCAN-3C E -147.818832514116
  B       3.365224      0.000001      0.000000
  B       1.728238      3.015174      0.000000
  B      -1.728238      3.015174     -0.000000
  B      -3.365224      0.000001      0.000000
  B      -1.728239     -3.015175      0.000000
  B       1.728239     -3.015175     -0.000000
6
Coordinates from ORCA-job B6_planar_ring_d3.50_q0_m1_R2SCAN-3C E -147.830974792578
  B       3.234722      0.000002      0.000000
  B       1.707374      2.993976      0.000000
  B      -1.707374      2.993976     -0.000000
  B      -3.234722      0.000001      0.000000
  B      -1.707375     -2.993977      0.000000
  B       1.707374     -2.993977     -0.000000
6
Coordinates from ORCA-job B6_planar_ring_d3.50_q0_m1_R2SCAN-3C E -147.850392702687
  B       3.063990      0.000002      0.000000
  B       1.677001      2.943370     -0.000000
  B      -1.677002      2.943370     -0.000000
  B      -3.063989      0.000002      0.000000
  B      -1.677002     -2.943372     -0.000000
  B       1.677001     -2.943372     -0.000000
6
Coordinates from ORCA-job B6_planar_ring_d3.50_q0_m1_R2SCAN-3C E -147.881719982794
  B       2.849078      0.000002      0.000000
  B       1.634211      2.846641     -0.000000
  B      -1.634211      2.846641      0.000000
  B      -2.849077      0.000002      0.000000
  B      -1.634212     -2.846643     -0.000000
  B       1.634211     -2.846642      0.000000
6
Coordinates from ORCA-job B6_planar_ring_d3.50_q0_m1_R2SCAN-3C E -147.917218722313
  B       2.645670      0.000002      0.000000
  B       1.594252      2.741587     -0.000000
  B      -1.594252      2.741586     -0.000000
  B      -2.645669      0.000001      0.000000
  B      -1.594253     -2.741588     -0.000000
  B       1.594252     -2.741588     -0.000000
6
Coordinates from ORCA-job B6_planar_ring_d3.50_q0_m1_R2SCAN-3C E -147.957144950660
  B       2.456049      0.000002      0.000000
  B       1.557752      2.628261     -0.000000
  B      -1.557752      2.628260      0.000000
  B      -2.456047      0.000001      0.000000
  B      -1.557753     -2.628262     -0.000000
  B       1.557752     -2.628261      0.000000
6
Coordinates from ORCA-job B6_planar_ring_d3.50_q0_m1_R2SCAN-3C E -148.001731966554
  B       2.278834      0.000002      0.000000
  B       1.523845      2.507589     -0.000000
  B      -1.523845      2.507588      0.000000
  B      -2.278833      0.000001      0.000000
  B      -1.523846     -2.507590     -0.000000
  B       1.523845     -2.507589      0.000000
6
Coordinates from ORCA-job B6_planar_ring_d3.50_q0_m1_R2SCAN-3C E -148.050854013968
  B       2.112375      0.000002      0.000000
  B       1.491522      2.380394     -0.000000
  B      -1.491522      2.380393      0.000000
  B      -2.112374      0.000001      0.000000
  B      -1.491524     -2.380395     -0.000000
  B       1.491522     -2.380394      0.000000
6
Coordinates from ORCA-job B6_planar_ring_d3.50_q0_m1_R2SCAN-3C E -148.103727636446
  B       1.953697      0.000002      0.000000
  B       1.459561      2.247597     -0.000000
  B      -1.459560      2.247595      0.000000
  B      -1.953696      0.000001      0.000000
  B      -1.459562     -2.247598     -0.000000
  B       1.459560     -2.247597      0.000000
6
Coordinates from ORCA-job B6_planar_ring_d3.50_q0_m1_R2SCAN-3C E -148.158190674517
  B       1.798306      0.000002      0.000000
  B       1.426011      2.109927     -0.000000
  B      -1.426010      2.109925      0.000000
  B      -1.798306      0.000001      0.000000
  B      -1.426013     -2.109928     -0.000000
  B       1.426011     -2.109927      0.000000
6
Coordinates from ORCA-job B6_planar_ring_d3.50_q0_m1_R2SCAN-3C E -148.214149143244
  B       1.590403      0.000002      0.000000
  B       1.386289      1.973239     -0.000000
  B      -1.386288      1.973237      0.000000
  B      -1.590403      0.000001      0.000000
  B      -1.386291     -1.973240     -0.000000
  B       1.386289     -1.973239      0.000000
6
Coordinates from ORCA-job B6_planar_ring_d3.50_q0_m1_R2SCAN-3C E -148.405777536832
  B       1.123235      0.000003     -0.000000
  B       1.179226      1.422157     -0.000001
  B      -1.179219      1.422160      0.000001
  B      -1.123238     -0.000001     -0.000000
  B      -1.179229     -1.422166     -0.000001
  B       1.179226     -1.422153      0.000001
6
Coordinates from ORCA-job B6_planar_ring_d3.50_q0_m1_R2SCAN-3C E -148.499873067421
  B       1.040253      0.000002     -0.000000
  B       1.111341      1.565526     -0.003870
  B      -1.111335      1.565516      0.003870
  B      -1.040255     -0.000003     -0.000000
  B      -1.111347     -1.565518     -0.003870
  B       1.111343     -1.565522      0.003870
6
Coordinates from ORCA-job B6_planar_ring_d3.50_q0_m1_R2SCAN-3C E -148.542110622305
  B       0.943347      0.000004      0.000000
  B       1.033575      1.616561     -0.004030
  B      -1.033564      1.616553      0.004030
  B      -0.943350     -0.000003      0.000000
  B      -1.033582     -1.616563     -0.004030
  B       1.033574     -1.616552      0.004030
6
Coordinates from ORCA-job B6_planar_ring_d3.50_q0_m1_R2SCAN-3C E -148.567466049506
  B       0.842883      0.000024     -0.000000
  B       0.954186      1.625021     -0.008364
  B      -0.954146      1.624962      0.008364
  B      -0.842883     -0.000019      0.000000
  B      -0.954195     -1.625003     -0.008364
  B       0.954155     -1.624985      0.008364
6
Coordinates from ORCA-job B6_planar_ring_d3.50_q0_m1_R2SCAN-3C E -148.598478568547
  B       0.724393      0.000121     -0.000001
  B       0.870355      1.643878     -0.089448
  B      -0.870133      1.643599      0.089450
  B      -0.724392     -0.000114      0.000000
  B      -0.870364     -1.643859     -0.089449
  B       0.870142     -1.643624      0.089448
6
Coordinates from ORCA-job B6_planar_ring_d3.50_q0_m1_R2SCAN-3C E -148.635870833461
  B       0.716013      0.000205     -0.000002
  B       0.795527      1.602021     -0.022426
  B      -0.795345      1.601885      0.022427
  B      -0.716009     -0.000196     -0.000002
  B      -0.795538     -1.601994     -0.022425
  B       0.795352     -1.601920      0.022428
6
Coordinates from ORCA-job B6_planar_ring_d3.50_q0_m1_R2SCAN-3C E -148.618763117486
  B       0.878480      0.000803      0.000000
  B       0.805371      1.443106     -0.031503
  B      -0.804414      1.442033      0.031503
  B      -0.878450     -0.000802      0.000000
  B      -0.805387     -1.443138     -0.031503
  B       0.804400     -1.442001      0.031502
6
Coordinates from ORCA-job B6_planar_ring_d3.50_q0_m1_R2SCAN-3C E -142.527017355852
  B       0.257928      0.000778     -0.001568
  B       0.354003      2.124077     -0.144998
  B      -0.349758      2.119753      0.146209
  B      -0.257630     -0.000838     -0.000872
  B      -0.353994     -2.123775     -0.145321
  B       0.349451     -2.119994      0.146550
6
Coordinates from ORCA-job B6_planar_ring_d3.50_q0_m1_R2SCAN-3C E -146.665150036162
  B       0.500145      0.001349      0.001455
  B       0.423769      2.138090     -0.159059
  B      -0.419568      2.133662      0.157971
  B      -0.499848     -0.001333      0.000706
  B      -0.423899     -2.137832     -0.158741
  B       0.419400     -2.133936      0.157667
6
Coordinates from ORCA-job B6_planar_ring_d3.50_q0_m1_R2SCAN-3C E -147.481592737002
  B       0.673914      0.001593      0.003813
  B       0.462696      2.128221     -0.168246
  B      -0.458629      2.123793      0.165380
  B      -0.673665     -0.001490      0.001909
  B      -0.462982     -2.128011     -0.167438
  B       0.458665     -2.124106      0.164583
6
Coordinates from ORCA-job B6_planar_ring_d3.50_q0_m1_R2SCAN-3C E -148.031831328449
  B       0.685459      0.001865      0.002674
  B       0.537042      2.125355     -0.194298
  B      -0.532840      2.120024      0.192253
  B      -0.685239     -0.001774      0.001409
  B      -0.537215     -2.125126     -0.193808
  B       0.532792     -2.120344      0.191770
6
Coordinates from ORCA-job B6_planar_ring_d3.50_q0_m1_R2SCAN-3C E -148.342001874087
  B       0.783690      0.002051      0.003128
  B       0.608727      2.057795     -0.189645
  B      -0.604807      2.052325      0.187284
  B      -0.783494     -0.001971      0.001588
  B      -0.608901     -2.057566     -0.189037
  B       0.604785     -2.052635      0.186682
6
Coordinates from ORCA-job B6_planar_ring_d3.50_q0_m1_R2SCAN-3C E -148.530943319340
  B       0.826989      0.002353      0.002877
  B       0.668121      1.901575     -0.186630
  B      -0.664366      1.895381      0.184484
  B      -0.826858     -0.002133      0.001409
  B      -0.668964     -1.901415     -0.186280
  B       0.665078     -1.895760      0.184141
6
Coordinates from ORCA-job B6_planar_ring_d3.50_q0_m1_R2SCAN-3C E -148.638555161447
  B       0.858720      0.002947      0.002407
  B       0.710902      1.744040     -0.183158
  B      -0.706789      1.736384      0.181137
  B      -0.858648     -0.002930      0.001625
  B      -0.708143     -1.743766     -0.182257
  B       0.703959     -1.736675      0.180245
6
Coordinates from ORCA-job B6_planar_ring_d3.50_q0_m1_R2SCAN-3C E -148.683799984168
  B       0.879002      0.005700      0.003963
  B       0.725460      1.588376     -0.171334
  B      -0.718983      1.576237      0.169380
  B      -0.878917     -0.004413     -0.000078
  B      -0.745046     -1.588777     -0.174126
  B       0.738483     -1.577123      0.172195
6
Coordinates from ORCA-job B6_planar_ring_d3.50_q0_m1_R2SCAN-3C E -148.659476915418
  B       0.877292      0.033147     -0.009479
  B       0.803921      1.539311     -0.215349
  B      -0.777566      1.516923      0.215428
  B      -0.877598     -0.029646      0.009872
  B      -0.667164     -1.541818     -0.194902
  B       0.641115     -1.517917      0.194430
6
Coordinates from ORCA-job B6_planar_ring_d3.50_q0_m1_R2SCAN-3C E -148.685184187809
  B       0.880820      0.028818      0.003596
  B       0.748611      1.572036     -0.223371
  B      -0.712702      1.529798      0.221787
  B      -0.881051     -0.035884     -0.001365
  B      -0.731418     -1.567893     -0.224815
  B       0.695741     -1.526876      0.224168
6
Coordinates from ORCA-job B6_planar_ring_d3.50_q0_m1_R2SCAN-3C E -148.683126836043
  B       0.866225      0.103350      0.002832
  B       0.740017      1.595975     -0.294256
  B      -0.639333      1.467280      0.289875
  B      -0.872518     -0.009217      0.009393
  B      -0.739005     -1.656809     -0.312488
  B       0.644614     -1.500579      0.304644
6
Coordinates from ORCA-job B6_planar_ring_d3.50_q0_m1_R2SCAN-3C E -148.701825076341
  B       0.848549      0.232730      0.014137
  B       0.779465      1.756064     -0.311396
  B      -0.476675      1.376023      0.304175
  B      -0.851656     -0.166591      0.008869
  B      -0.818201     -1.815931     -0.340470
  B       0.518518     -1.382296      0.324686
6
Coordinates from ORCA-job B6_planar_ring_d3.50_q0_m1_R2SCAN-3C E -148.711053515292
  B       0.892509      0.248581      0.027953
  B       0.820532      1.847711     -0.287835
  B      -0.458105      1.272425      0.267922
  B      -0.846962     -0.279420      0.004062
  B      -0.871447     -1.810737     -0.295888
  B       0.463472     -1.278561      0.283786
6
Coordinates from ORCA-job B6_planar_ring_d3.50_q0_m1_R2SCAN-3C E -148.698715056709
  B       0.930044      0.138883      0.008932
  B       0.853477      1.728940     -0.226823
  B      -0.631719      1.389900      0.226879
  B      -0.944672     -0.231580     -0.001484
  B      -0.811340     -1.697052     -0.227040
  B       0.604210     -1.329091      0.219536
6
Coordinates from ORCA-job B6_planar_ring_d3.50_q0_m1_R2SCAN-3C E -148.710923528009
  B       0.909140      0.257440      0.001038
  B       0.867631      1.751953     -0.232686
  B      -0.562616      1.331659      0.232504
  B      -0.937993     -0.216868      0.004678
  B      -0.837686     -1.784617     -0.247817
  B       0.561522     -1.339567      0.242283
6
Coordinates from ORCA-job B6_planar_ring_d3.50_q0_m1_R2SCAN-3C E -148.714733076559
  B       0.886214      0.228025      0.013302
  B       0.840274      1.818238     -0.238765
  B      -0.504990      1.286419      0.226134
  B      -0.888493     -0.210565      0.007651
  B      -0.851093     -1.815213     -0.253296
  B       0.518089     -1.306905      0.244975
6
Coordinates from ORCA-job B6_planar_ring_d3.50_q0_m1_R2SCAN-3C E -148.712654151578
  B       0.900227      0.251894      0.009965
  B       0.838649      1.791237     -0.268941
  B      -0.482347      1.268601      0.266611
  B      -0.885267     -0.286915     -0.001463
  B      -0.856509     -1.782883     -0.281479
  B       0.485246     -1.241935      0.275307
6
Coordinates from ORCA-job B6_planar_ring_d3.50_q0_m1_R2SCAN-3C E -148.716243522498
  B       0.911327      0.223770      0.003271
  B       0.844109      1.781385     -0.289398
  B      -0.527134      1.301024      0.289010
  B      -0.913728     -0.233968      0.001997
  B      -0.827908     -1.780752     -0.298508
  B       0.513334     -1.291460      0.293627
6
Coordinates from ORCA-job B6_planar_ring_d3.50_q0_m1_R2SCAN-3C E -148.717007723313
  B       0.902541      0.236431      0.002240
  B       0.847755      1.789582     -0.255286
  B      -0.514949      1.283285      0.255495
  B      -0.910739     -0.230699     -0.000492
  B      -0.841620     -1.794027     -0.267433
  B       0.517013     -1.284572      0.265475
6
Coordinates from ORCA-job B6_planar_ring_d3.50_q0_m1_R2SCAN-3C E -148.716915411537
  B       0.919815      0.239199     -0.003501
  B       0.849167      1.809973     -0.233792
  B      -0.520651      1.280298      0.237863
  B      -0.907744     -0.243119     -0.008602
  B      -0.857618     -1.793037     -0.243757
  B       0.517031     -1.293313      0.251789
6
Coordinates from ORCA-job B6_planar_ring_d3.50_q0_m1_R2SCAN-3C E -148.717133820931
  B       0.915055      0.237761     -0.009201
  B       0.854271      1.802921     -0.244224
  B      -0.510033      1.280763      0.258376
  B      -0.914133     -0.248408     -0.013335
  B      -0.848942     -1.808089     -0.255582
  B       0.503782     -1.264948      0.263967
6
Coordinates from ORCA-job B6_planar_ring_d3.50_q0_m1_R2SCAN-3C E -148.717255009557
  B       0.911619      0.237908     -0.011442
  B       0.843215      1.794343     -0.257284
  B      -0.506507      1.266274      0.271127
  B      -0.909460     -0.236641     -0.016635
  B      -0.843010     -1.790619     -0.267342
  B       0.504144     -1.271265      0.281575
6
Coordinates from ORCA-job B6_planar_ring_d3.50_q0_m1_R2SCAN-3C E -148.717335498421
  B       0.913264      0.236682     -0.015412
  B       0.852771      1.793351     -0.235476
  B      -0.518307      1.277988      0.254832
  B      -0.919394     -0.232654     -0.020657
  B      -0.844539     -1.798530     -0.245342
  B       0.516206     -1.276837      0.262055
6
Coordinates from ORCA-job B6_planar_ring_d3.50_q0_m1_R2SCAN-3C E -148.717459662074
  B       0.919628      0.238429     -0.020908
  B       0.852378      1.805967     -0.234649
  B      -0.511171      1.274466      0.259445
  B      -0.917819     -0.242648     -0.026729
  B      -0.849809     -1.804499     -0.244287
  B       0.506793     -1.271714      0.267129
6
Coordinates from ORCA-job B6_planar_ring_d3.50_q0_m1_R2SCAN-3C E -148.717567487683
  B       0.919194      0.239043     -0.027966
  B       0.851582      1.804754     -0.230172
  B      -0.508467      1.267187      0.262429
  B      -0.918004     -0.240937     -0.035001
  B      -0.849816     -1.803605     -0.239262
  B       0.505511     -1.266441      0.269972
6
Coordinates from ORCA-job B6_planar_ring_d3.50_q0_m1_R2SCAN-3C E -148.717634906243
  B       0.919716      0.239476     -0.035612
  B       0.852723      1.804962     -0.224159
  B      -0.507812      1.264061      0.264760
  B      -0.919883     -0.239498     -0.043693
  B      -0.849626     -1.805485     -0.232487
  B       0.504882     -1.263516      0.271191
6
Coordinates from ORCA-job B6_planar_ring_d3.50_q0_m1_R2SCAN-3C E -148.717683781121
  B       0.921323      0.239939     -0.043964
  B       0.853463      1.807263     -0.217196
  B      -0.506306      1.260219      0.266518
  B      -0.920874     -0.239956     -0.052822
  B      -0.850980     -1.807459     -0.225060
  B       0.503375     -1.260007      0.272525
6
Coordinates from ORCA-job B6_planar_ring_d3.50_q0_m1_R2SCAN-3C E -148.717723842445
  B       0.922788      0.241162     -0.057008
  B       0.855379      1.810798     -0.206224
  B      -0.504020      1.254547      0.269271
  B      -0.922107     -0.241068     -0.067123
  B      -0.853243     -1.810975     -0.213344
  B       0.501202     -1.254465      0.274428
6
Coordinates from ORCA-job B6_planar_ring_d3.50_q0_m1_R2SCAN-3C E -148.717691300134
  B       0.924443      0.241531     -0.063470
  B       0.855200      1.816097     -0.199482
  B      -0.501196      1.245935      0.268912
  B      -0.923675     -0.239250     -0.075636
  B      -0.858090     -1.812464     -0.206170
  B       0.503318     -1.251849      0.275846
6
Coordinates from ORCA-job B6_planar_ring_d3.50_q0_m1_R2SCAN-3C E -148.717723397736
  B       0.924403      0.242380     -0.072638
  B       0.857997      1.813861     -0.192517
  B      -0.502907      1.248492      0.271108
  B      -0.922412     -0.242855     -0.082329
  B      -0.856249     -1.814188     -0.199874
  B       0.499169     -1.247689      0.276250
6
Coordinates from ORCA-job B6_planar_ring_d3.50_q0_m1_R2SCAN-3C E -148.717727808637
  B       0.922654      0.241024     -0.060703
  B       0.856124      1.811259     -0.202999
  B      -0.504358      1.254150      0.269593
  B      -0.921892     -0.241054     -0.070356
  B      -0.853650     -1.811847     -0.210396
  B       0.501123     -1.253532      0.274861
6
Coordinates from ORCA-job B6_planar_ring_d3.50_q0_m1_R2SCAN-3C E -148.717730147457
  B       0.923181      0.241630     -0.064744
  B       0.856712      1.812731     -0.199331
  B      -0.503439      1.251438      0.269921
  B      -0.922234     -0.241494     -0.074592
  B      -0.855015     -1.812721     -0.206720
  B       0.500793     -1.251585      0.275465
6
Coordinates from ORCA-job B6_planar_ring_d3.50_q0_m1_R2SCAN-3C E -148.717730211690
  B       0.923123      0.241669     -0.065169
  B       0.856850      1.812697     -0.199007
  B      -0.503469      1.251453      0.269942
  B      -0.922153     -0.241660     -0.074791
  B      -0.854993     -1.812796     -0.206513
  B       0.500642     -1.251364      0.275536
6
Coordinates from ORCA-job B6_planar_ring_d3.50_q0_m1_R2SCAN-3C E -148.717730263639
  B       0.922952      0.241662     -0.065403
  B       0.856969      1.812697     -0.198825
  B      -0.503497      1.251499      0.269904
  B      -0.922076     -0.241699     -0.074818
  B      -0.854972     -1.812868     -0.206455
  B       0.500625     -1.251291      0.275597
6
Coordinates from ORCA-job B6_planar_ring_d3.50_q0_m1_R2SCAN-3C E -148.717730313119
  B       0.922575      0.241603     -0.065348
  B       0.857076      1.812668     -0.198883
  B      -0.503600      1.251743      0.269728
  B      -0.921912     -0.241677     -0.074428
  B      -0.854904     -1.812828     -0.206723
  B       0.500766     -1.251508      0.275654
6
Coordinates from ORCA-job B6_planar_ring_d3.50_q0_m1_R2SCAN-3C E -148.717730320569
  B       0.922492      0.241584     -0.065357
  B       0.857078      1.812685     -0.198884
  B      -0.503599      1.251751      0.269733
  B      -0.921868     -0.241650     -0.074444
  B      -0.854912     -1.812816     -0.206725
  B       0.500809     -1.251553      0.275677
