6
Coordinates from ORCA-job B6_planar_ring_d3.50_q0_m1_R2SCAN-3C E -148.717730320569
  B           0.92249184305098      0.24158392282250     -0.06535692135627
  B           0.85707842718226      1.81268479149991     -0.19888436550058
  B          -0.50359898161053      1.25175060297063      0.26973343467354
  B          -0.92186849872745     -0.24165049361303     -0.07444364741180
  B          -0.85491152990811     -1.81281553500297     -0.20672522899083
  B           0.50080874001284     -1.25155328867706      0.27567672858596
