6
Coordinates from ORCA-job B6_linear_chain_d2.50_q0_m5_R2SCAN-3C E -148.613020943457
  B          -3.86275729335091     -0.00084503422636     -0.00080131316219
  B          -2.32349687197424      0.00021258635630     -0.00020394729796
  B          -0.76943025826641      0.00064785604819      0.00101127536473
  B           0.76942220809774      0.00089480350293      0.00079348093166
  B           2.32350013947634     -0.00024264515955      0.00016178417819
  B           3.86276207601747     -0.00066756652151     -0.00096128001443
