6
Coordinates from ORCA-job B6_linear_chain_d2.50_q0_m5_R2SCAN-3C E -148.048131741607
  B      -6.250000      0.000000      0.000000
  B      -3.750000      0.000000      0.000000
  B      -1.250000      0.000000      0.000000
  B       1.250000      0.000000      0.000000
  B       3.750000      0.000000      0.000000
  B       6.250000      0.000000      0.000000
6
Coordinates from ORCA-job B6_linear_chain_d2.50_q0_m5_R2SCAN-3C E -148.072080777479
  B      -6.072645      0.000000     -0.000000
  B      -3.645517     -0.000000      0.000000
  B      -1.217270     -0.000000      0.000000
  B       1.217270     -0.000000      0.000000
  B       3.645517     -0.000000      0.000000
  B       6.072645      0.000000     -0.000000
6
Coordinates from ORCA-job B6_linear_chain_d2.50_q0_m5_R2SCAN-3C E -148.097394829549
  B      -5.895404      0.000000     -0.000000
  B      -3.539423     -0.000000      0.000000
  B      -1.185342     -0.000000      0.000000
  B       1.185342     -0.000000      0.000000
  B       3.539423     -0.000000      0.000000
  B       5.895404      0.000000     -0.000000
6
Coordinates from ORCA-job B6_linear_chain_d2.50_q0_m5_R2SCAN-3C E -148.137387852450
  B      -5.629965      0.000000     -0.000000
  B      -3.377700     -0.000000      0.000000
  B      -1.138727     -0.000000      0.000000
  B       1.138727     -0.000000      0.000000
  B       3.377700     -0.000000      0.000000
  B       5.629965      0.000000     -0.000000
6
Coordinates from ORCA-job B6_linear_chain_d2.50_q0_m5_R2SCAN-3C E -148.193478045982
  B      -5.256200      0.000000     -0.000000
  B      -3.152661     -0.000000      0.000000
  B      -1.072441     -0.000000      0.000000
  B       1.072441     -0.000000      0.000000
  B       3.152661     -0.000000      0.000000
  B       5.256200      0.000000     -0.000000
6
Coordinates from ORCA-job B6_linear_chain_d2.50_q0_m5_R2SCAN-3C E -148.351043798456
  B      -4.903043     -0.000001      0.000002
  B      -2.940726     -0.000000      0.000001
  B      -1.019259      0.000001     -0.000003
  B       1.019259      0.000001     -0.000003
  B       2.940726     -0.000001      0.000001
  B       4.903043     -0.000000      0.000002
6
Coordinates from ORCA-job B6_linear_chain_d2.50_q0_m5_R2SCAN-3C E -148.443937806523
  B      -4.554138     -0.002687     -0.002221
  B      -2.702584     -0.000273     -0.000743
  B      -0.939878      0.004503      0.001684
  B       0.939881      0.000847      0.004718
  B       2.702587     -0.000679     -0.000409
  B       4.554133     -0.001712     -0.003028
6
Coordinates from ORCA-job B6_linear_chain_d2.50_q0_m5_R2SCAN-3C E -148.545852849001
  B      -4.280165     -0.003703     -0.003554
  B      -2.521766     -0.000790     -0.001163
  B      -0.876983      0.007475      0.002598
  B       0.876951      0.000042      0.007846
  B       2.521754     -0.000799     -0.001093
  B       4.280209     -0.002225     -0.004634
6
Coordinates from ORCA-job B6_linear_chain_d2.50_q0_m5_R2SCAN-3C E -148.601600235716
  B      -3.892802     -0.005011     -0.005093
  B      -2.283590     -0.001268     -0.001655
  B      -0.797594      0.010838      0.003647
  B       0.797551     -0.000581      0.011373
  B       2.283568     -0.001024     -0.001743
  B       3.892867     -0.002954     -0.006529
6
Coordinates from ORCA-job B6_linear_chain_d2.50_q0_m5_R2SCAN-3C E -148.608503963817
  B      -3.820665     -0.011674     -0.009293
  B      -2.340539     -0.001278     -0.003389
  B      -0.770360      0.018525      0.007597
  B       0.770455      0.005692      0.019460
  B       2.340614     -0.003379     -0.001771
  B       3.820495     -0.007885     -0.012604
6
Coordinates from ORCA-job B6_linear_chain_d2.50_q0_m5_R2SCAN-3C E -148.591080252501
  B      -3.880508     -0.011390     -0.009810
  B      -2.282727     -0.001666     -0.003033
  B      -0.691199      0.018349      0.008388
  B       0.690856      0.005245      0.019484
  B       2.282445     -0.002715     -0.002207
  B       3.881133     -0.007823     -0.012821
6
Coordinates from ORCA-job B6_linear_chain_d2.50_q0_m5_R2SCAN-3C E -148.607728747778
  B      -3.944227     -0.009394     -0.008016
  B      -2.332786     -0.001057     -0.002568
  B      -0.770274      0.015386      0.006487
  B       0.770033      0.003676      0.016248
  B       2.332551     -0.002320     -0.001533
  B       3.944702     -0.006290     -0.010619
6
Coordinates from ORCA-job B6_linear_chain_d2.50_q0_m5_R2SCAN-3C E -148.612957012151
  B      -3.862938     -0.010095     -0.008465
  B      -2.328510     -0.001165     -0.002878
  B      -0.771675      0.016466      0.006904
  B       0.771672      0.004277      0.017365
  B       2.328518     -0.002680     -0.001666
  B       3.862934     -0.006804     -0.011261
6
Coordinates from ORCA-job B6_linear_chain_d2.50_q0_m5_R2SCAN-3C E -148.613003206892
  B      -3.863517     -0.008934     -0.007569
  B      -2.322910     -0.001001     -0.002535
  B      -0.769663      0.014516      0.006239
  B       0.770166      0.003788      0.015337
  B       2.322992     -0.002339     -0.001454
  B       3.862931     -0.006031     -0.010018
6
Coordinates from ORCA-job B6_linear_chain_d2.50_q0_m5_R2SCAN-3C E -148.612959432738
  B      -3.857831     -0.008178     -0.006955
  B      -2.324183     -0.000863     -0.002312
  B      -0.773507      0.013174      0.005815
  B       0.765459      0.003592      0.013969
  B       2.322187     -0.002154     -0.001291
  B       3.867876     -0.005571     -0.009226
6
Coordinates from ORCA-job B6_linear_chain_d2.50_q0_m5_R2SCAN-3C E -148.613009525856
  B      -3.862561     -0.007574     -0.006445
  B      -2.323575     -0.000746     -0.002127
  B      -0.769559      0.012028      0.005444
  B       0.768919      0.003444      0.012754
  B       2.324309     -0.001991     -0.001135
  B       3.862467     -0.005161     -0.008491
6
Coordinates from ORCA-job B6_linear_chain_d2.50_q0_m5_R2SCAN-3C E -148.612850090921
  B      -3.864155     -0.006985     -0.005954
  B      -2.328833     -0.000702     -0.001985
  B      -0.762291      0.011037      0.005073
  B       0.776518      0.003227      0.011658
  B       2.317737     -0.001803     -0.000963
  B       3.861023     -0.004774     -0.007828
6
Coordinates from ORCA-job B6_linear_chain_d2.50_q0_m5_R2SCAN-3C E -148.613012859185
  B      -3.862747     -0.006884     -0.005883
  B      -2.323067     -0.000644     -0.001926
  B      -0.769393      0.010849      0.005013
  B       0.769448      0.003182      0.011518
  B       2.323129     -0.001800     -0.000994
  B       3.862631     -0.004703     -0.007727
6
Coordinates from ORCA-job B6_linear_chain_d2.50_q0_m5_R2SCAN-3C E -148.613015019621
  B      -3.862592     -0.006107     -0.005235
  B      -2.323626     -0.000509     -0.001694
  B      -0.769317      0.009462      0.004531
  B       0.769289      0.002948      0.010069
  B       2.323610     -0.001596     -0.000817
  B       3.862636     -0.004198     -0.006853
6
Coordinates from ORCA-job B6_linear_chain_d2.50_q0_m5_R2SCAN-3C E -148.613017100112
  B      -3.862619     -0.005163     -0.004452
  B      -2.323575     -0.000360     -0.001415
  B      -0.769333      0.007829      0.003929
  B       0.769329      0.002616      0.008358
  B       2.323558     -0.001345     -0.000621
  B       3.862639     -0.003576     -0.005799
6
Coordinates from ORCA-job B6_linear_chain_d2.50_q0_m5_R2SCAN-3C E -148.613020911583
  B      -3.862785     -0.000666     -0.000668
  B      -2.323518      0.000268     -0.000145
  B      -0.769423      0.000253      0.000955
  B       0.769432      0.000903      0.000394
  B       2.323509     -0.000194      0.000227
  B       3.862784     -0.000565     -0.000763
6
Coordinates from ORCA-job B6_linear_chain_d2.50_q0_m5_R2SCAN-3C E -148.613020943457
  B      -3.862757     -0.000845     -0.000801
  B      -2.323497      0.000213     -0.000204
  B      -0.769430      0.000648      0.001011
  B       0.769422      0.000895      0.000793
  B       2.323500     -0.000243      0.000162
  B       3.862762     -0.000668     -0.000961
