6
Coordinates from ORCA-job FINAL_rank06_B6_rhombic_planar_d1.80_q0_m3_R2SCAN-3C_PBE0_def2-TZVP_OptFreq E -148.631807854760
  B          -1.93177933728360     -0.62636684620957     -0.00000070127327
  B          -0.36253281419606     -0.89037628411422     -0.00000255647839
  B           1.21254579915029     -0.70927431376825      0.00000400882336
  B          -1.21254647293479      0.70927476803313      0.00000069425078
  B           0.36253132247513      0.89037527148325      0.00000224501622
  B           1.93178050278902      0.62636640457566     -0.00000369033870
