6
Coordinates from ORCA-job FINAL_rank06_B6_rhombic_planar_d1.80_q0_m3_R2SCAN-3C_PBE0_def2-TZVP_OptFreq E -148.631672945257
  B      -1.941162     -0.628947      0.000000
  B      -0.360336     -0.872770     -0.000000
  B       1.217712     -0.707949      0.000000
  B      -1.217710      0.707951      0.000000
  B       0.360339      0.872769     -0.000000
  B       1.941156      0.628945      0.000000
6
Coordinates from ORCA-job FINAL_rank06_B6_rhombic_planar_d1.80_q0_m3_R2SCAN-3C_PBE0_def2-TZVP_OptFreq E -148.631708101958
  B      -1.938414     -0.628117      0.000001
  B      -0.360180     -0.873934     -0.000000
  B       1.217385     -0.708313     -0.000001
  B      -1.217386      0.708314     -0.000001
  B       0.360182      0.873934     -0.000000
  B       1.938412      0.628116      0.000001
6
Coordinates from ORCA-job FINAL_rank06_B6_rhombic_planar_d1.80_q0_m3_R2SCAN-3C_PBE0_def2-TZVP_OptFreq E -148.631767576019
  B      -1.931849     -0.626348     -0.000008
  B      -0.360042     -0.878387      0.000002
  B       1.216464     -0.709767      0.000006
  B      -1.216463      0.709766      0.000007
  B       0.360042      0.878385      0.000001
  B       1.931847      0.626350     -0.000007
6
Coordinates from ORCA-job FINAL_rank06_B6_rhombic_planar_d1.80_q0_m3_R2SCAN-3C_PBE0_def2-TZVP_OptFreq E -148.631777259641
  B      -1.930657     -0.626152     -0.000003
  B      -0.360217     -0.880843      0.000001
  B       1.216085     -0.710450      0.000002
  B      -1.216086      0.710449      0.000002
  B       0.360216      0.880840      0.000001
  B       1.930657      0.626154     -0.000003
6
Coordinates from ORCA-job FINAL_rank06_B6_rhombic_planar_d1.80_q0_m3_R2SCAN-3C_PBE0_def2-TZVP_OptFreq E -148.631794022590
  B      -1.929712     -0.626213     -0.000005
  B      -0.360919     -0.887250      0.000001
  B       1.214974     -0.711773      0.000005
  B      -1.214985      0.711770      0.000003
  B       0.360913      0.887255      0.000004
  B       1.929728      0.626211     -0.000007
6
Coordinates from ORCA-job FINAL_rank06_B6_rhombic_planar_d1.80_q0_m3_R2SCAN-3C_PBE0_def2-TZVP_OptFreq E -148.631802311233
  B      -1.930467     -0.626388      0.000000
  B      -0.361266     -0.888808     -0.000001
  B       1.214449     -0.711561      0.000001
  B      -1.214458      0.711560     -0.000002
  B       0.361261      0.888810      0.000003
  B       1.930480      0.626385     -0.000002
6
Coordinates from ORCA-job FINAL_rank06_B6_rhombic_planar_d1.80_q0_m3_R2SCAN-3C_PBE0_def2-TZVP_OptFreq E -148.631804883741
  B      -1.931457     -0.626492      0.000005
  B      -0.361695     -0.889762     -0.000003
  B       1.213738     -0.710767     -0.000001
  B      -1.213740      0.710769     -0.000005
  B       0.361693      0.889762      0.000002
  B       1.931461      0.626489      0.000002
6
Coordinates from ORCA-job FINAL_rank06_B6_rhombic_planar_d1.80_q0_m3_R2SCAN-3C_PBE0_def2-TZVP_OptFreq E -148.631806511710
  B      -1.931956     -0.626455      0.000002
  B      -0.362098     -0.890236     -0.000004
  B       1.213063     -0.709902      0.000002
  B      -1.213062      0.709903     -0.000001
  B       0.362097      0.890233      0.000002
  B       1.931956      0.626454     -0.000001
6
Coordinates from ORCA-job FINAL_rank06_B6_rhombic_planar_d1.80_q0_m3_R2SCAN-3C_PBE0_def2-TZVP_OptFreq E -148.631802799375
  B      -1.931977     -0.626368      0.000003
  B      -0.362408     -0.890431     -0.000004
  B       1.212607     -0.709320      0.000003
  B      -1.212609      0.709319     -0.000002
  B       0.362405      0.890431      0.000002
  B       1.931980      0.626368     -0.000001
6
Coordinates from ORCA-job FINAL_rank06_B6_rhombic_planar_d1.80_q0_m3_R2SCAN-3C_PBE0_def2-TZVP_OptFreq E -148.631808875851
  B      -1.931840     -0.626350      0.000001
  B      -0.362495     -0.890384     -0.000003
  B       1.212539     -0.709246      0.000003
  B      -1.212542      0.709244     -0.000000
  B       0.362492      0.890385      0.000002
  B       1.931844      0.626351     -0.000003
6
Coordinates from ORCA-job FINAL_rank06_B6_rhombic_planar_d1.80_q0_m3_R2SCAN-3C_PBE0_def2-TZVP_OptFreq E -148.631807854760
  B      -1.931779     -0.626367     -0.000001
  B      -0.362533     -0.890376     -0.000003
  B       1.212546     -0.709274      0.000004
  B      -1.212546      0.709275      0.000001
  B       0.362531      0.890375      0.000002
  B       1.931781      0.626366     -0.000004
