6
Coordinates from ORCA-job B6_random_3d_seed1002_d2.50_q0_m3_R2SCAN-3C E -148.700587998185
  B           0.42173479418135     -0.33692073023020     -1.25234293886644
  B           0.92173046904951      0.69620456829206     -0.09576356796942
  B          -1.01918216043934      0.14929734367758     -0.86049055511778
  B           0.40866800329422     -1.06459385709594      0.20555197561246
  B           0.33777182544276      0.12676659259393      1.31461776895270
  B          -1.07072293152850      0.42924608276257      0.68842732738849
