6
Coordinates from ORCA-job B6_random_3d_seed1002_d2.50_q0_m3_R2SCAN-3C E -148.216744174764
  B       0.652946     -0.717572     -1.571801
  B       1.229055      1.526423     -0.453313
  B      -1.263121      0.793521     -1.169817
  B       0.221307     -1.786071      0.627441
  B       0.741602      0.232559      1.738916
  B      -1.581789     -0.048861      0.828573
6
Coordinates from ORCA-job B6_random_3d_seed1002_d2.50_q0_m3_R2SCAN-3C E -148.245670632052
  B       0.637777     -0.707411     -1.538944
  B       1.211567      1.498969     -0.440143
  B      -1.244346      0.768696     -1.133907
  B       0.220158     -1.744796      0.611752
  B       0.725031      0.225541      1.701409
  B      -1.550187     -0.040999      0.799833
6
Coordinates from ORCA-job B6_random_3d_seed1002_d2.50_q0_m3_R2SCAN-3C E -148.275645818852
  B       0.622881     -0.697443     -1.505854
  B       1.194240      1.471307     -0.427006
  B      -1.225839      0.744092     -1.098072
  B       0.219333     -1.703152      0.595855
  B       0.708245      0.218310      1.663637
  B      -1.518860     -0.033113      0.771440
6
Coordinates from ORCA-job B6_random_3d_seed1002_d2.50_q0_m3_R2SCAN-3C E -148.322392862843
  B       0.600806     -0.682432     -1.455481
  B       1.167738      1.428881     -0.407305
  B      -1.197731      0.708333     -1.045968
  B       0.218458     -1.640180      0.571636
  B       0.682708      0.207380      1.606319
  B      -1.471978     -0.021982      0.730798
6
Coordinates from ORCA-job B6_random_3d_seed1002_d2.50_q0_m3_R2SCAN-3C E -148.393555675392
  B       0.567970     -0.658917     -1.379114
  B       1.126556      1.363341     -0.378480
  B      -1.153813      0.657166     -0.971896
  B       0.217540     -1.545127      0.535303
  B       0.643131      0.190690      1.519459
  B      -1.401384     -0.007152      0.674729
6
Coordinates from ORCA-job B6_random_3d_seed1002_d2.50_q0_m3_R2SCAN-3C E -148.463461576901
  B       0.534343     -0.633647     -1.302457
  B       1.085991      1.296897     -0.352405
  B      -1.107518      0.605247     -0.899627
  B       0.219276     -1.440469      0.502064
  B       0.597337      0.164751      1.429300
  B      -1.329430      0.007221      0.623125
6
Coordinates from ORCA-job B6_random_3d_seed1002_d2.50_q0_m3_R2SCAN-3C E -148.526404673322
  B       0.492023     -0.606803     -1.229028
  B       1.043907      1.231858     -0.324207
  B      -1.050388      0.554975     -0.849331
  B       0.218285     -1.334562      0.466986
  B       0.547328      0.141276      1.342915
  B      -1.251155      0.013255      0.592665
6
Coordinates from ORCA-job B6_random_3d_seed1002_d2.50_q0_m3_R2SCAN-3C E -148.580343408336
  B       0.430379     -0.567899     -1.152589
  B       0.997931      1.154265     -0.273057
  B      -0.993032      0.504508     -0.845425
  B       0.214501     -1.238447      0.428677
  B       0.527630      0.138500      1.266355
  B      -1.177409      0.009073      0.576038
6
Coordinates from ORCA-job B6_random_3d_seed1002_d2.50_q0_m3_R2SCAN-3C E -148.621787547901
  B       0.381622     -0.495648     -1.101882
  B       0.947174      1.044858     -0.226786
  B      -0.942218      0.461589     -0.871841
  B       0.216065     -1.160470      0.412411
  B       0.529919      0.147142      1.208778
  B      -1.132562      0.002529      0.579319
6
Coordinates from ORCA-job B6_random_3d_seed1002_d2.50_q0_m3_R2SCAN-3C E -148.645251615527
  B       0.363828     -0.473773     -1.097053
  B       0.888704      0.950148     -0.179491
  B      -0.920727      0.448999     -0.896656
  B       0.256616     -1.137155      0.380364
  B       0.514366      0.173114      1.191680
  B      -1.102787      0.038668      0.601156
6
Coordinates from ORCA-job B6_random_3d_seed1002_d2.50_q0_m3_R2SCAN-3C E -148.659812641218
  B       0.355070     -0.473108     -1.116438
  B       0.852755      0.900215     -0.156360
  B      -0.913302      0.439930     -0.918957
  B       0.290139     -1.129810      0.352161
  B       0.492945      0.187091      1.214268
  B      -1.077607      0.075681      0.625327
6
Coordinates from ORCA-job B6_random_3d_seed1002_d2.50_q0_m3_R2SCAN-3C E -148.677197174448
  B       0.355882     -0.471292     -1.161637
  B       0.815258      0.826622     -0.140738
  B      -0.921867      0.424042     -0.943252
  B       0.345416     -1.107310      0.319033
  B       0.455467      0.190911      1.270205
  B      -1.050157      0.137027      0.656388
6
Coordinates from ORCA-job B6_random_3d_seed1002_d2.50_q0_m3_R2SCAN-3C E -148.690611768718
  B       0.349177     -0.457580     -1.205426
  B       0.810413      0.716319     -0.099099
  B      -0.952200      0.369386     -0.951594
  B       0.421019     -1.041957      0.261347
  B       0.407841      0.189370      1.320221
  B      -1.036249      0.224462      0.674551
6
Coordinates from ORCA-job B6_random_3d_seed1002_d2.50_q0_m3_R2SCAN-3C E -148.693423231470
  B       0.350906     -0.412783     -1.248295
  B       0.810749      0.679226     -0.116882
  B      -0.969211      0.335486     -0.941860
  B       0.455709     -1.056795      0.278476
  B       0.372867      0.178790      1.357398
  B      -1.021021      0.276075      0.671162
6
Coordinates from ORCA-job B6_random_3d_seed1002_d2.50_q0_m3_R2SCAN-3C E -148.696577257440
  B       0.385688     -0.411758     -1.238967
  B       0.843718      0.663261     -0.081382
  B      -1.043700      0.301304     -0.925984
  B       0.489983     -1.059832      0.245574
  B       0.366082      0.160122      1.342500
  B      -1.041772      0.346903      0.658258
6
Coordinates from ORCA-job B6_random_3d_seed1002_d2.50_q0_m3_R2SCAN-3C E -148.698381879905
  B       0.363538     -0.389428     -1.195320
  B       0.877709      0.701639     -0.083738
  B      -1.037399      0.251027     -0.916906
  B       0.477288     -1.080960      0.218335
  B       0.360793      0.141758      1.337101
  B      -1.041930      0.375964      0.640528
6
Coordinates from ORCA-job B6_random_3d_seed1002_d2.50_q0_m3_R2SCAN-3C E -148.698961546364
  B       0.359160     -0.369582     -1.217478
  B       0.894439      0.719106     -0.066636
  B      -1.053319      0.224489     -0.923598
  B       0.465754     -1.088263      0.247648
  B       0.350394      0.127372      1.317248
  B      -1.016428      0.386879      0.642816
6
Coordinates from ORCA-job B6_random_3d_seed1002_d2.50_q0_m3_R2SCAN-3C E -148.699658435746
  B       0.384133     -0.354154     -1.213076
  B       0.901260      0.696869     -0.093231
  B      -1.076108      0.217592     -0.929080
  B       0.467299     -1.072790      0.247670
  B       0.349141      0.115083      1.337349
  B      -1.025724      0.397399      0.650368
6
Coordinates from ORCA-job B6_random_3d_seed1002_d2.50_q0_m3_R2SCAN-3C E -148.700053844620
  B       0.377654     -0.356382     -1.215824
  B       0.905546      0.702645     -0.076807
  B      -1.072370      0.200954     -0.922100
  B       0.461491     -1.074294      0.230320
  B       0.350405      0.120232      1.340747
  B      -1.022726      0.406845      0.643665
6
Coordinates from ORCA-job B6_random_3d_seed1002_d2.50_q0_m3_R2SCAN-3C E -148.700168850477
  B       0.381326     -0.347282     -1.214170
  B       0.908651      0.702985     -0.076281
  B      -1.073398      0.189093     -0.916106
  B       0.452806     -1.073795      0.230058
  B       0.348156      0.118126      1.334863
  B      -1.017540      0.410873      0.641635
6
Coordinates from ORCA-job B6_random_3d_seed1002_d2.50_q0_m3_R2SCAN-3C E -148.700274672525
  B       0.385359     -0.336887     -1.220182
  B       0.915237      0.702587     -0.074779
  B      -1.073904      0.171822     -0.912914
  B       0.437700     -1.065837      0.231868
  B       0.352094      0.113596      1.335269
  B      -1.016487      0.414720      0.640737
6
Coordinates from ORCA-job B6_random_3d_seed1002_d2.50_q0_m3_R2SCAN-3C E -148.700344935329
  B       0.400019     -0.323290     -1.230058
  B       0.923249      0.699624     -0.075726
  B      -1.074354      0.147469     -0.904678
  B       0.409852     -1.058933      0.223585
  B       0.351048      0.119564      1.340048
  B      -1.009813      0.415566      0.646829
6
Coordinates from ORCA-job B6_random_3d_seed1002_d2.50_q0_m3_R2SCAN-3C E -148.700403089623
  B       0.397397     -0.327312     -1.229567
  B       0.922797      0.697899     -0.076546
  B      -1.071187      0.155058     -0.904516
  B       0.415898     -1.059634      0.224478
  B       0.352520      0.121105      1.338896
  B      -1.017425      0.412883      0.647256
6
Coordinates from ORCA-job B6_random_3d_seed1002_d2.50_q0_m3_R2SCAN-3C E -148.700443032454
  B       0.398450     -0.329019     -1.230873
  B       0.924794      0.697211     -0.078257
  B      -1.065996      0.157738     -0.901450
  B       0.415510     -1.060622      0.223461
  B       0.352932      0.124181      1.335802
  B      -1.025690      0.410511      0.651317
6
Coordinates from ORCA-job B6_random_3d_seed1002_d2.50_q0_m3_R2SCAN-3C E -148.700496595197
  B       0.403990     -0.329679     -1.235337
  B       0.928689      0.695568     -0.082290
  B      -1.054882      0.157531     -0.892535
  B       0.411099     -1.062433      0.219686
  B       0.351771      0.129824      1.328975
  B      -1.040667      0.409190      0.661502
6
Coordinates from ORCA-job B6_random_3d_seed1002_d2.50_q0_m3_R2SCAN-3C E -148.700530003570
  B       0.410088     -0.329436     -1.240251
  B       0.930829      0.694535     -0.085996
  B      -1.044761      0.153992     -0.883270
  B       0.406892     -1.063709      0.215302
  B       0.348872      0.132728      1.323179
  B      -1.051920      0.411890      0.671036
6
Coordinates from ORCA-job B6_random_3d_seed1002_d2.50_q0_m3_R2SCAN-3C E -148.700557679076
  B       0.416516     -0.330177     -1.245875
  B       0.930342      0.694020     -0.090120
  B      -1.033462      0.149841     -0.872635
  B       0.404503     -1.064867      0.210320
  B       0.344339      0.133298      1.317644
  B      -1.062237      0.417885      0.680666
6
Coordinates from ORCA-job B6_random_3d_seed1002_d2.50_q0_m3_R2SCAN-3C E -148.700576010016
  B       0.420902     -0.332460     -1.250308
  B       0.927260      0.694421     -0.093591
  B      -1.024138      0.147628     -0.864105
  B       0.405155     -1.065530      0.206596
  B       0.340026      0.131338      1.314144
  B      -1.069205      0.424603      0.687265
6
Coordinates from ORCA-job B6_random_3d_seed1002_d2.50_q0_m3_R2SCAN-3C E -148.700585662566
  B       0.422631     -0.335245     -1.252626
  B       0.923417      0.695331     -0.095741
  B      -1.018813      0.147491     -0.859450
  B       0.407659     -1.065399      0.204845
  B       0.337242      0.128081      1.313121
  B      -1.072136      0.429741      0.689851
6
Coordinates from ORCA-job B6_random_3d_seed1002_d2.50_q0_m3_R2SCAN-3C E -148.700587704981
  B       0.421942     -0.336430     -1.252423
  B       0.922052      0.695961     -0.095759
  B      -1.019157      0.148637     -0.860084
  B       0.408969     -1.064979      0.205331
  B       0.337335      0.126738      1.314126
  B      -1.071140      0.430073      0.688810
6
Coordinates from ORCA-job B6_random_3d_seed1002_d2.50_q0_m3_R2SCAN-3C E -148.700587972762
  B       0.421746     -0.336812     -1.252347
  B       0.921709      0.696169     -0.095728
  B      -1.019279      0.149095     -0.860460
  B       0.408803     -1.064610      0.205529
  B       0.337701      0.126607      1.314621
  B      -1.070679      0.429550      0.688385
6
Coordinates from ORCA-job B6_random_3d_seed1002_d2.50_q0_m3_R2SCAN-3C E -148.700587998185
  B       0.421735     -0.336921     -1.252343
  B       0.921730      0.696205     -0.095764
  B      -1.019182      0.149297     -0.860491
  B       0.408668     -1.064594      0.205552
  B       0.337772      0.126767      1.314618
  B      -1.070723      0.429246      0.688427
