6
Coordinates from ORCA-job B6_linear_chain_d2.00_q0_m5_R2SCAN-3C E -148.613020998886
  B          -3.86274605456148      0.00001223515020     -0.00000921351285
  B          -2.32348298842616      0.00000055162524     -0.00000030637614
  B          -0.76944759744760     -0.00001100789046      0.00000888437605
  B           0.76940426953733     -0.00001317329057      0.00000978720467
  B           2.32350374223055     -0.00000390939103      0.00000103376399
  B           3.86276862866735      0.00001530379662     -0.00001018545572
