6
Coordinates from ORCA-job B6_linear_chain_d2.00_q0_m5_R2SCAN-3C E -148.321909242981
  B      -5.000000      0.000000      0.000000
  B      -3.000000      0.000000      0.000000
  B      -1.000000      0.000000      0.000000
  B       1.000000      0.000000      0.000000
  B       3.000000      0.000000      0.000000
  B       5.000000      0.000000      0.000000
6
Coordinates from ORCA-job B6_linear_chain_d2.00_q0_m5_R2SCAN-3C E -148.366946932321
  B      -4.830040      0.000000     -0.000000
  B      -2.873824      0.000000     -0.000000
  B      -0.962794     -0.000000      0.000000
  B       0.962794     -0.000000      0.000000
  B       2.873824     -0.000000      0.000000
  B       4.830040      0.000000     -0.000000
6
Coordinates from ORCA-job B6_linear_chain_d2.00_q0_m5_R2SCAN-3C E -148.409813475580
  B      -4.662712      0.000000     -0.000000
  B      -2.745609      0.000000     -0.000000
  B      -0.926167     -0.000000      0.000000
  B       0.926167     -0.000000      0.000000
  B       2.745609     -0.000000      0.000000
  B       4.662712      0.000000     -0.000000
6
Coordinates from ORCA-job B6_linear_chain_d2.00_q0_m5_R2SCAN-3C E -148.462519679282
  B      -4.411974     -0.000000     -0.000000
  B      -2.553517      0.000000     -0.000000
  B      -0.872368      0.000000      0.000000
  B       0.872368     -0.000000      0.000000
  B       2.553517      0.000000      0.000000
  B       4.411974      0.000000     -0.000000
6
Coordinates from ORCA-job B6_linear_chain_d2.00_q0_m5_R2SCAN-3C E -148.486648978322
  B      -4.070652     -0.000000      0.000000
  B      -2.324688      0.000000     -0.000000
  B      -0.802291      0.000000     -0.000000
  B       0.802291      0.000000     -0.000000
  B       2.324688      0.000000     -0.000000
  B       4.070652     -0.000000      0.000000
6
Coordinates from ORCA-job B6_linear_chain_d2.00_q0_m5_R2SCAN-3C E -148.488119782818
  B      -4.096252     -0.000000      0.000000
  B      -2.387252      0.000000     -0.000000
  B      -0.813206      0.000000     -0.000000
  B       0.813206      0.000000     -0.000000
  B       2.387252      0.000000     -0.000000
  B       4.096252     -0.000000      0.000000
6
Coordinates from ORCA-job B6_linear_chain_d2.00_q0_m5_R2SCAN-3C E -148.488477424748
  B      -4.104066     -0.000000      0.000000
  B      -2.376525      0.000000     -0.000000
  B      -0.818526      0.000000     -0.000000
  B       0.818526      0.000000     -0.000000
  B       2.376525      0.000000     -0.000000
  B       4.104066     -0.000000      0.000000
6
Coordinates from ORCA-job B6_linear_chain_d2.00_q0_m5_R2SCAN-3C E -148.580081150538
  B      -4.094079     -0.000004      0.000004
  B      -2.367332      0.000000     -0.000000
  B      -0.810106      0.000004     -0.000003
  B       0.810106      0.000004     -0.000003
  B       2.367332      0.000000     -0.000000
  B       4.094079     -0.000004      0.000004
6
Coordinates from ORCA-job B6_linear_chain_d2.00_q0_m5_R2SCAN-3C E -148.611578039578
  B      -3.869025      0.000010     -0.000006
  B      -2.301032      0.000001     -0.000001
  B      -0.770999     -0.000009      0.000006
  B       0.770999     -0.000011      0.000008
  B       2.301032     -0.000004      0.000001
  B       3.869025      0.000013     -0.000008
6
Coordinates from ORCA-job B6_linear_chain_d2.00_q0_m5_R2SCAN-3C E -148.612307293555
  B      -3.851891      0.000016     -0.000013
  B      -2.335214      0.000001     -0.000000
  B      -0.777035     -0.000015      0.000012
  B       0.777019     -0.000017      0.000013
  B       2.335218     -0.000004      0.000001
  B       3.851902      0.000020     -0.000014
6
Coordinates from ORCA-job B6_linear_chain_d2.00_q0_m5_R2SCAN-3C E -148.612735675008
  B      -3.862498      0.000015     -0.000012
  B      -2.320371      0.000001     -0.000000
  B      -0.759332     -0.000014      0.000011
  B       0.759365     -0.000016      0.000013
  B       2.320365     -0.000004      0.000001
  B       3.862470      0.000019     -0.000013
6
Coordinates from ORCA-job B6_linear_chain_d2.00_q0_m5_R2SCAN-3C E -148.612919704701
  B      -3.870237      0.000013     -0.000009
  B      -2.324775      0.000001     -0.000000
  B      -0.774063     -0.000011      0.000009
  B       0.774016     -0.000014      0.000010
  B       2.324782     -0.000004      0.000001
  B       3.870278      0.000016     -0.000010
6
Coordinates from ORCA-job B6_linear_chain_d2.00_q0_m5_R2SCAN-3C E -148.613019471873
  B      -3.861805      0.000013     -0.000010
  B      -2.323627      0.000001     -0.000000
  B      -0.769734     -0.000012      0.000010
  B       0.769720     -0.000014      0.000011
  B       2.323640     -0.000004      0.000001
  B       3.861806      0.000016     -0.000011
6
Coordinates from ORCA-job B6_linear_chain_d2.00_q0_m5_R2SCAN-3C E -148.613020979347
  B      -3.862894      0.000013     -0.000010
  B      -2.323538      0.000001     -0.000000
  B      -0.769362     -0.000011      0.000009
  B       0.769390     -0.000014      0.000010
  B       2.323525     -0.000004      0.000001
  B       3.862880      0.000016     -0.000011
6
Coordinates from ORCA-job B6_linear_chain_d2.00_q0_m5_R2SCAN-3C E -148.613020998886
  B      -3.862746      0.000012     -0.000009
  B      -2.323483      0.000001     -0.000000
  B      -0.769448     -0.000011      0.000009
  B       0.769404     -0.000013      0.000010
  B       2.323504     -0.000004      0.000001
  B       3.862769      0.000015     -0.000010
