6
Coordinates from ORCA-job B6_planar_ring_d2.00_q0_m3_R2SCAN-3C E -148.369648211559
  B       2.000000     -0.000000      0.000000
  B       1.000000      1.732051      0.000000
  B      -1.000000      1.732051      0.000000
  B      -2.000000      0.000000      0.000000
  B      -1.000000     -1.732051      0.000000
  B       1.000000     -1.732051      0.000000
6
Coordinates from ORCA-job B6_planar_ring_d2.00_q0_m3_R2SCAN-3C E -148.424460048948
  B       1.946930      0.000000      0.000000
  B       0.972090      1.667235     -0.000000
  B      -0.972090      1.667235     -0.000000
  B      -1.946930     -0.000000      0.000000
  B      -0.972090     -1.667235     -0.000000
  B       0.972090     -1.667235     -0.000000
6
Coordinates from ORCA-job B6_planar_ring_d2.00_q0_m3_R2SCAN-3C E -148.476929845388
  B       1.897295      0.000000      0.000000
  B       0.945080      1.600212      0.000000
  B      -0.945080      1.600212     -0.000000
  B      -1.897295      0.000000      0.000000
  B      -0.945080     -1.600212      0.000000
  B       0.945080     -1.600212     -0.000000
6
Coordinates from ORCA-job B6_planar_ring_d2.00_q0_m3_R2SCAN-3C E -148.553199484858
  B       1.835739      0.000000     -0.000000
  B       0.904760      1.492824     -0.000000
  B      -0.904760      1.492824      0.000000
  B      -1.835739     -0.000000      0.000000
  B      -0.904760     -1.492824     -0.000000
  B       0.904760     -1.492824      0.000000
6
Coordinates from ORCA-job B6_planar_ring_d2.00_q0_m3_R2SCAN-3C E -148.656816753715
  B       1.791732      0.000000     -0.000000
  B       0.850810      1.306237     -0.000000
  B      -0.850810      1.306237      0.000000
  B      -1.791732     -0.000000     -0.000000
  B      -0.850810     -1.306237     -0.000000
  B       0.850810     -1.306237      0.000000
6
Coordinates from ORCA-job B6_planar_ring_d2.00_q0_m3_R2SCAN-3C E -148.703753534274
  B       1.811664     -0.000000      0.000000
  B       0.807540      1.090045      0.000000
  B      -0.807540      1.090045     -0.000000
  B      -1.811664      0.000000      0.000000
  B      -0.807540     -1.090045     -0.000000
  B       0.807540     -1.090045     -0.000000
6
Coordinates from ORCA-job B6_planar_ring_d2.00_q0_m3_R2SCAN-3C E -148.728864081939
  B       1.914807      0.000000     -0.000000
  B       0.773889      0.981460      0.000000
  B      -0.773889      0.981460     -0.000000
  B      -1.914807     -0.000000     -0.000000
  B      -0.773889     -0.981460      0.000000
  B       0.773889     -0.981460     -0.000000
6
Coordinates from ORCA-job B6_planar_ring_d2.00_q0_m3_R2SCAN-3C E -148.718534157737
  B       2.095545     -0.000000      0.000000
  B       0.813809      0.836067      0.000000
  B      -0.813809      0.836067     -0.000000
  B      -2.095545      0.000000      0.000000
  B      -0.813809     -0.836067      0.000000
  B       0.813809     -0.836067     -0.000000
6
Coordinates from ORCA-job B6_planar_ring_d2.00_q0_m3_R2SCAN-3C E -148.735744450231
  B       2.038693     -0.000000      0.000000
  B       0.809919      0.967173      0.000000
  B      -0.809919      0.967173     -0.000000
  B      -2.038693      0.000000      0.000000
  B      -0.809919     -0.967173      0.000000
  B       0.809919     -0.967173     -0.000000
6
Coordinates from ORCA-job B6_planar_ring_d2.00_q0_m3_R2SCAN-3C E -148.737328500711
  B       1.999635      0.000000      0.000000
  B       0.786264      0.948052      0.000000
  B      -0.786264      0.948052     -0.000000
  B      -1.999635     -0.000000      0.000000
  B      -0.786264     -0.948052     -0.000000
  B       0.786264     -0.948052     -0.000000
6
Coordinates from ORCA-job B6_planar_ring_d2.00_q0_m3_R2SCAN-3C E -148.737762999414
  B       2.017377     -0.000000     -0.000000
  B       0.794392      0.943267      0.000000
  B      -0.794392      0.943267      0.000000
  B      -2.017377      0.000000     -0.000000
  B      -0.794392     -0.943267      0.000000
  B       0.794392     -0.943267      0.000000
6
Coordinates from ORCA-job B6_planar_ring_d2.00_q0_m3_R2SCAN-3C E -148.737786177583
  B       2.021030      0.000000      0.000000
  B       0.794046      0.939708     -0.000000
  B      -0.794048      0.939705     -0.000000
  B      -2.021027     -0.000000      0.000000
  B      -0.794048     -0.939705     -0.000000
  B       0.794046     -0.939708     -0.000000
6
Coordinates from ORCA-job B6_planar_ring_d2.00_q0_m3_R2SCAN-3C E -148.737786641467
  B       2.021023     -0.000000     -0.000000
  B       0.793963      0.939103      0.000000
  B      -0.793977      0.939083      0.000000
  B      -2.020995      0.000000     -0.000000
  B      -0.793977     -0.939083      0.000000
  B       0.793963     -0.939103      0.000000
6
Coordinates from ORCA-job B6_planar_ring_d2.00_q0_m3_R2SCAN-3C E -148.737786652367
  B       2.020991      0.000000      0.000000
  B       0.793957      0.939103     -0.000000
  B      -0.793923      0.939142     -0.000000
  B      -2.021058     -0.000000      0.000000
  B      -0.793923     -0.939142     -0.000000
  B       0.793957     -0.939103     -0.000000
