6
Coordinates from ORCA-job B6_planar_ring_d2.00_q0_m3_R2SCAN-3C E -148.737786652367
  B           2.02099078057658      0.00000004706995      0.00000005096356
  B           0.79395687437079      0.93910301612813     -0.00000002433511
  B          -0.79392345935121      0.93914209384604     -0.00000002682835
  B          -2.02105753449972     -0.00000001913247      0.00000005136340
  B          -0.79392347347564     -0.93914208210650     -0.00000002476375
  B           0.79395681237920     -0.93910305580515     -0.00000002639974
