6
Coordinates from ORCA-job B6_rectangular_planar_d1.80_q0_m5_R2SCAN-3C E -148.602422467795
  B          -1.62224388221790     -0.79719284266427     -0.00005884841834
  B          -0.00000008183900     -1.09602600407277      0.00011771784479
  B           1.62224395007268     -0.79719312951479     -0.00005889515295
  B          -1.62224388090969      0.79719284239627     -0.00005879974624
  B          -0.00000007137414      1.09602599054090      0.00011757821640
  B           1.62224396626805      0.79719314331465     -0.00005875274366
