6
Coordinates from ORCA-job B6_rectangular_planar_d1.80_q0_m5_R2SCAN-3C E -148.554256331013
  B      -1.800000     -0.900000      0.000000
  B       0.000000     -0.900000      0.000000
  B       1.800000     -0.900000      0.000000
  B      -1.800000      0.900000      0.000000
  B       0.000000      0.900000      0.000000
  B       1.800000      0.900000      0.000000
6
Coordinates from ORCA-job B6_rectangular_planar_d1.80_q0_m5_R2SCAN-3C E -148.578616051734
  B      -1.744028     -0.861607     -0.000000
  B       0.000000     -0.899625      0.000000
  B       1.744028     -0.861607     -0.000000
  B      -1.744028      0.861607      0.000000
  B       0.000000      0.899625     -0.000000
  B       1.744028      0.861607     -0.000000
6
Coordinates from ORCA-job B6_rectangular_planar_d1.80_q0_m5_R2SCAN-3C E -148.593664269885
  B      -1.688772     -0.824421      0.000000
  B      -0.000000     -0.912643     -0.000000
  B       1.688772     -0.824421      0.000000
  B      -1.688772      0.824421      0.000000
  B       0.000000      0.912643     -0.000000
  B       1.688772      0.824421      0.000000
6
Coordinates from ORCA-job B6_rectangular_planar_d1.80_q0_m5_R2SCAN-3C E -148.598321013415
  B      -1.637995     -0.796814     -0.000000
  B      -0.000000     -0.945888      0.000000
  B       1.637995     -0.796814     -0.000000
  B      -1.637995      0.796814     -0.000000
  B       0.000000      0.945888      0.000000
  B       1.637995      0.796814     -0.000000
6
Coordinates from ORCA-job B6_rectangular_planar_d1.80_q0_m5_R2SCAN-3C E -148.599578027662
  B      -1.638435     -0.799328      0.000000
  B      -0.000000     -0.966132     -0.000000
  B       1.638435     -0.799328      0.000000
  B      -1.638435      0.799328      0.000000
  B      -0.000000      0.966132     -0.000000
  B       1.638435      0.799328      0.000000
6
Coordinates from ORCA-job B6_rectangular_planar_d1.80_q0_m5_R2SCAN-3C E -148.601713704216
  B      -1.635196     -0.798658     -0.000000
  B      -0.000005     -1.029908      0.000001
  B       1.635202     -0.798667     -0.000000
  B      -1.635196      0.798658     -0.000000
  B      -0.000005      1.029908      0.000001
  B       1.635202      0.798667     -0.000000
6
Coordinates from ORCA-job B6_rectangular_planar_d1.80_q0_m5_R2SCAN-3C E -148.602360274998
  B      -1.625478     -0.797562     -0.000000
  B      -0.000002     -1.076743      0.000001
  B       1.625480     -0.797567     -0.000000
  B      -1.625478      0.797562     -0.000000
  B      -0.000002      1.076743      0.000001
  B       1.625480      0.797567     -0.000000
6
Coordinates from ORCA-job B6_rectangular_planar_d1.80_q0_m5_R2SCAN-3C E -148.602421821978
  B      -1.621809     -0.797024     -0.000006
  B       0.000000     -1.097931      0.000012
  B       1.621809     -0.797024     -0.000006
  B      -1.621809      0.797024     -0.000006
  B       0.000000      1.097931      0.000012
  B       1.621809      0.797024     -0.000006
6
Coordinates from ORCA-job B6_rectangular_planar_d1.80_q0_m5_R2SCAN-3C E -148.602422458819
  B      -1.622236     -0.797201     -0.000020
  B      -0.000001     -1.096099      0.000041
  B       1.622237     -0.797203     -0.000020
  B      -1.622236      0.797201     -0.000020
  B      -0.000001      1.096099      0.000041
  B       1.622237      0.797203     -0.000020
6
Coordinates from ORCA-job B6_rectangular_planar_d1.80_q0_m5_R2SCAN-3C E -148.602422467795
  B      -1.622244     -0.797193     -0.000059
  B      -0.000000     -1.096026      0.000118
  B       1.622244     -0.797193     -0.000059
  B      -1.622244      0.797193     -0.000059
  B      -0.000000      1.096026      0.000118
  B       1.622244      0.797193     -0.000059
