6
Coordinates from ORCA-job B6_random_3d_seed1002_d1.60_q0_m3_R2SCAN-3C E -148.578376472268
  B       0.410000     -0.459995     -1.003892
  B       0.791274      0.981879     -0.292941
  B      -0.818388      0.500488     -0.742463
  B       0.141194     -1.141754      0.404911
  B       0.482778      0.139860      1.110875
  B      -1.006859     -0.020478      0.523511
6
Coordinates from ORCA-job B6_random_3d_seed1002_d1.60_q0_m3_R2SCAN-3C E -148.610782839417
  B       0.387906     -0.477868     -1.031384
  B       0.793249      0.976186     -0.262749
  B      -0.830850      0.521896     -0.794595
  B       0.174187     -1.158582      0.408910
  B       0.503075      0.154832      1.141632
  B      -1.027567     -0.016464      0.538187
6
Coordinates from ORCA-job B6_random_3d_seed1002_d1.60_q0_m3_R2SCAN-3C E -148.633633236508
  B       0.365249     -0.500483     -1.054117
  B       0.775553      0.968167     -0.226520
  B      -0.837912      0.538974     -0.848555
  B       0.209354     -1.174139      0.405358
  B       0.522825      0.164144      1.172738
  B      -1.035068      0.003337      0.551095
6
Coordinates from ORCA-job B6_random_3d_seed1002_d1.60_q0_m3_R2SCAN-3C E -148.650820909724
  B       0.342076     -0.527737     -1.072753
  B       0.744001      0.959732     -0.190411
  B      -0.837906      0.553849     -0.896260
  B       0.246603     -1.187723      0.396189
  B       0.535789      0.168553      1.202191
  B      -1.030563      0.033325      0.561042
6
Coordinates from ORCA-job B6_random_3d_seed1002_d1.60_q0_m3_R2SCAN-3C E -148.668685591681
  B       0.304600     -0.567887     -1.098857
  B       0.686431      0.946139     -0.139981
  B      -0.829317      0.570539     -0.958566
  B       0.303808     -1.201713      0.381333
  B       0.547121      0.167105      1.245047
  B      -1.012643      0.085817      0.571025
6
Coordinates from ORCA-job B6_random_3d_seed1002_d1.60_q0_m3_R2SCAN-3C E -148.680279063002
  B       0.255503     -0.611281     -1.126005
  B       0.617990      0.929920     -0.090578
  B      -0.808169      0.584597     -1.014963
  B       0.372647     -1.207015      0.365716
  B       0.548685      0.156897      1.289294
  B      -0.986655      0.146881      0.576535
6
Coordinates from ORCA-job B6_random_3d_seed1002_d1.60_q0_m3_R2SCAN-3C E -148.685612794413
  B       0.212114     -0.642257     -1.138323
  B       0.581401      0.919951     -0.067136
  B      -0.782745      0.595520     -1.035649
  B       0.427519     -1.198080      0.356401
  B       0.536729      0.144746      1.309984
  B      -0.975018      0.180121      0.574723
6
Coordinates from ORCA-job B6_random_3d_seed1002_d1.60_q0_m3_R2SCAN-3C E -148.691575360034
  B       0.154896     -0.678364     -1.139261
  B       0.562007      0.914209     -0.054927
  B      -0.744773      0.609752     -1.036480
  B       0.493590     -1.172324      0.346348
  B       0.510483      0.125754      1.317899
  B      -0.976203      0.200973      0.566420
6
Coordinates from ORCA-job B6_random_3d_seed1002_d1.60_q0_m3_R2SCAN-3C E -148.697011756731
  B       0.090683     -0.717544     -1.122291
  B       0.565644      0.919781     -0.054515
  B      -0.700518      0.624543     -1.018177
  B       0.561269     -1.131850      0.333992
  B       0.474582      0.098675      1.310201
  B      -0.991659      0.206396      0.550790
6
Coordinates from ORCA-job B6_random_3d_seed1002_d1.60_q0_m3_R2SCAN-3C E -148.698778189895
  B       0.048933     -0.744779     -1.104251
  B       0.578899      0.933165     -0.054289
  B      -0.676885      0.632839     -1.006224
  B       0.602866     -1.107073      0.322163
  B       0.449353      0.080059      1.304460
  B      -1.003165      0.205789      0.538141
6
Coordinates from ORCA-job B6_random_3d_seed1002_d1.60_q0_m3_R2SCAN-3C E -148.699615724462
  B       0.026363     -0.761864     -1.095044
  B       0.589507      0.947636     -0.050477
  B      -0.669638      0.635766     -1.004887
  B       0.625860     -1.100251      0.312804
  B       0.434193      0.071214      1.305758
  B      -1.006284      0.207499      0.531846
6
Coordinates from ORCA-job B6_random_3d_seed1002_d1.60_q0_m3_R2SCAN-3C E -148.700306869236
  B       0.004643     -0.781359     -1.089122
  B       0.599442      0.969487     -0.041911
  B      -0.666647      0.636377     -1.008796
  B       0.649380     -1.102142      0.301774
  B       0.418170      0.063755      1.310573
  B      -1.004989      0.213882      0.527483
6
Coordinates from ORCA-job B6_random_3d_seed1002_d1.60_q0_m3_R2SCAN-3C E -148.700427936720
  B       0.000363     -0.786992     -1.090849
  B       0.598078      0.977346     -0.036892
  B      -0.666175      0.634991     -1.011553
  B       0.654904     -1.107282      0.299472
  B       0.415179      0.062814      1.311848
  B      -1.002349      0.219124      0.527975
6
Coordinates from ORCA-job B6_random_3d_seed1002_d1.60_q0_m3_R2SCAN-3C E -148.700481016989
  B      -0.000779     -0.789909     -1.093180
  B       0.594685      0.982483     -0.033000
  B      -0.664861      0.633250     -1.012378
  B       0.656741     -1.112153      0.299093
  B       0.414869      0.062881      1.310503
  B      -1.000655      0.223448      0.528963
6
Coordinates from ORCA-job B6_random_3d_seed1002_d1.60_q0_m3_R2SCAN-3C E -148.700515838667
  B      -0.000479     -0.791641     -1.094917
  B       0.591498      0.986979     -0.030096
  B      -0.662988      0.631504     -1.011448
  B       0.656628     -1.116635      0.299490
  B       0.415746      0.063326      1.307155
  B      -1.000404      0.226468      0.529815
6
Coordinates from ORCA-job B6_random_3d_seed1002_d1.60_q0_m3_R2SCAN-3C E -148.700540767349
  B       0.001037     -0.792530     -1.095833
  B       0.589355      0.991412     -0.028218
  B      -0.661164      0.629971     -1.009333
  B       0.654901     -1.120910      0.300299
  B       0.417538      0.064048      1.302628
  B      -1.001667      0.228009      0.530457
6
Coordinates from ORCA-job B6_random_3d_seed1002_d1.60_q0_m3_R2SCAN-3C E -148.700553130333
  B       0.002855     -0.792501     -1.095783
  B       0.589120      0.994202     -0.027895
  B      -0.660424      0.629359     -1.007598
  B       0.652718     -1.123492      0.301014
  B       0.419374      0.064701      1.299539
  B      -1.003643      0.227731      0.530723
6
Coordinates from ORCA-job B6_random_3d_seed1002_d1.60_q0_m3_R2SCAN-3C E -148.700558303653
  B       0.004008     -0.792285     -1.095395
  B       0.589719      0.995643     -0.028179
  B      -0.660364      0.629409     -1.006918
  B       0.651292     -1.124735      0.301393
  B       0.420684      0.065086      1.298297
  B      -1.005341      0.226882      0.530802
6
Coordinates from ORCA-job B6_random_3d_seed1002_d1.60_q0_m3_R2SCAN-3C E -148.700560049040
  B       0.004125     -0.792267     -1.095102
  B       0.590145      0.996063     -0.028360
  B      -0.660374      0.629709     -1.007121
  B       0.651072     -1.125036      0.301444
  B       0.421212      0.065172      1.298314
  B      -1.006181      0.226359      0.530826
6
Coordinates from ORCA-job B6_random_3d_seed1002_d1.60_q0_m3_R2SCAN-3C E -148.700560908613
  B       0.003742     -0.792402     -1.094882
  B       0.590243      0.996266     -0.028323
  B      -0.660171      0.630022     -1.007586
  B       0.651392     -1.125147      0.301408
  B       0.421440      0.065149      1.298520
  B      -1.006646      0.226112      0.530864
6
Coordinates from ORCA-job B6_random_3d_seed1002_d1.60_q0_m3_R2SCAN-3C E -148.700561394629
  B       0.003158     -0.792564     -1.094667
  B       0.590107      0.996388     -0.028175
  B      -0.659804      0.630279     -1.008034
  B       0.651900     -1.125192      0.301365
  B       0.421472      0.065079      1.298619
  B      -1.006834      0.226010      0.530891
6
Coordinates from ORCA-job B6_random_3d_seed1002_d1.60_q0_m3_R2SCAN-3C E -148.700561746010
  B       0.002718     -0.792587     -1.094435
  B       0.589882      0.996474     -0.028051
  B      -0.659474      0.630469     -1.008352
  B       0.652236     -1.125296      0.301405
  B       0.421469      0.065042      1.298525
  B      -1.006830      0.225897      0.530907
6
Coordinates from ORCA-job B6_random_3d_seed1002_d1.60_q0_m3_R2SCAN-3C E -148.700562097397
  B       0.002217     -0.792497     -1.093965
  B       0.589659      0.996622     -0.027996
  B      -0.659107      0.630746     -1.008676
  B       0.652545     -1.125460      0.301500
  B       0.421428      0.064990      1.298290
  B      -1.006742      0.225599      0.530846
6
Coordinates from ORCA-job B6_random_3d_seed1002_d1.60_q0_m3_R2SCAN-3C E -148.700562366075
  B       0.001772     -0.792313     -1.093305
  B       0.589413      0.996984     -0.027996
  B      -0.658775      0.631100     -1.008965
  B       0.652736     -1.125880      0.301685
  B       0.421437      0.064954      1.297897
  B      -1.006583      0.225155      0.530684
6
Coordinates from ORCA-job B6_random_3d_seed1002_d1.60_q0_m3_R2SCAN-3C E -148.700562597906
  B       0.001493     -0.791912     -1.092460
  B       0.589185      0.997397     -0.028114
  B      -0.658622      0.631550     -1.009257
  B       0.652705     -1.126510      0.301998
  B       0.421561      0.064966      1.297454
  B      -1.006323      0.224509      0.530379
6
Coordinates from ORCA-job B6_random_3d_seed1002_d1.60_q0_m3_R2SCAN-3C E -148.700562754046
  B       0.001710     -0.791731     -1.092354
  B       0.589224      0.997459     -0.028223
  B      -0.658849      0.631610     -1.009204
  B       0.652477     -1.126727      0.302124
  B       0.421676      0.065012      1.297424
  B      -1.006237      0.224378      0.530234
6
Coordinates from ORCA-job B6_random_3d_seed1002_d1.60_q0_m3_R2SCAN-3C E -148.700562889246
  B       0.001805     -0.791506     -1.092071
  B       0.589241      0.997550     -0.028337
  B      -0.659108      0.631789     -1.009223
  B       0.652374     -1.127044      0.302292
  B       0.421805      0.065027      1.297411
  B      -1.006117      0.224184      0.529928
