6
Coordinates from ORCA-job B6_random_3d_seed1002_d1.60_q0_m3_R2SCAN-3C E -148.700562889246
  B           0.00180467381577     -0.79150621545753     -1.09207114378840
  B           0.58924118577801      0.99754965927958     -0.02833731814993
  B          -0.65910815482434      0.63178946034465     -1.00922282750727
  B           0.65237388664028     -1.12704385504607      0.30229203715918
  B           0.42180515573026      0.06502709387827      1.29741105742395
  B          -1.00611673713999      0.22418383700109      0.52992818486247
