6
Coordinates from ORCA-job B6_trigonal_prism_d2.00_q0_m3_R2SCAN-3C E -148.605297524337
  B           0.83772664352691      0.48368037393954     -0.88043946990129
  B          -0.83772664449396      0.48368036998156     -0.88043947310053
  B          -0.00000000194991     -0.96736074169610     -0.88022266108405
  B           0.83772664375952      0.48368036770153      0.88043947147459
  B          -0.83772664208994      0.48368037044267      0.88043946891102
  B           0.00000000124737     -0.96736074036920      0.88022266370025
