6
Coordinates from ORCA-job B6_trigonal_prism_d2.00_q0_m3_R2SCAN-3C E -148.493523345415
  B       1.000000      0.577350     -1.000000
  B      -1.000000      0.577350     -1.000000
  B      -0.000000     -1.154701     -1.000000
  B       1.000000      0.577350      1.000000
  B      -1.000000      0.577350      1.000000
  B      -0.000000     -1.154701      1.000000
6
Coordinates from ORCA-job B6_trigonal_prism_d2.00_q0_m3_R2SCAN-3C E -148.523650335085
  B       0.974360      0.562552     -0.971969
  B      -0.974360      0.562552     -0.971969
  B      -0.000000     -1.125103     -0.971963
  B       0.974360      0.562552      0.971969
  B      -0.974360      0.562552      0.971969
  B      -0.000000     -1.125103      0.971963
6
Coordinates from ORCA-job B6_trigonal_prism_d2.00_q0_m3_R2SCAN-3C E -148.550507039946
  B       0.947391      0.546971     -0.946585
  B      -0.947391      0.546971     -0.946585
  B       0.000000     -1.093942     -0.946565
  B       0.947391      0.546971      0.946585
  B      -0.947391      0.546971      0.946585
  B       0.000000     -1.093942      0.946565
6
Coordinates from ORCA-job B6_trigonal_prism_d2.00_q0_m3_R2SCAN-3C E -148.583258279762
  B       0.904603      0.522284     -0.913943
  B      -0.904603      0.522284     -0.913943
  B      -0.000000     -1.044567     -0.913889
  B       0.904603      0.522284      0.913943
  B      -0.904603      0.522284      0.913943
  B       0.000000     -1.044567      0.913889
6
Coordinates from ORCA-job B6_trigonal_prism_d2.00_q0_m3_R2SCAN-3C E -148.605274722151
  B       0.836060      0.482729     -0.878746
  B      -0.836060      0.482729     -0.878746
  B      -0.000000     -0.965459     -0.878615
  B       0.836060      0.482729      0.878746
  B      -0.836060      0.482729      0.878746
  B       0.000000     -0.965459      0.878615
6
Coordinates from ORCA-job B6_trigonal_prism_d2.00_q0_m3_R2SCAN-3C E -148.605294627112
  B       0.838456      0.484097     -0.880597
  B      -0.838456      0.484097     -0.880597
  B      -0.000000     -0.968194     -0.880427
  B       0.838456      0.484097      0.880597
  B      -0.838456      0.484097      0.880597
  B       0.000000     -0.968194      0.880427
6
Coordinates from ORCA-job B6_trigonal_prism_d2.00_q0_m3_R2SCAN-3C E -148.605297515427
  B       0.837715      0.483671     -0.880494
  B      -0.837715      0.483671     -0.880494
  B      -0.000000     -0.967343     -0.880302
  B       0.837715      0.483671      0.880494
  B      -0.837715      0.483671      0.880494
  B       0.000000     -0.967343      0.880302
6
Coordinates from ORCA-job B6_trigonal_prism_d2.00_q0_m3_R2SCAN-3C E -148.605297524337
  B       0.837727      0.483680     -0.880439
  B      -0.837727      0.483680     -0.880439
  B      -0.000000     -0.967361     -0.880223
  B       0.837727      0.483680      0.880439
  B      -0.837727      0.483680      0.880439
  B       0.000000     -0.967361      0.880223
