6
Coordinates from ORCA-job B6_octahedral_3d_d2.00_q0_m5_R2SCAN-3C E -148.487313274808
  B       1.414214      0.000000      0.000000
  B      -1.414214      0.000000      0.000000
  B       0.000000      1.414214      0.000000
  B       0.000000     -1.414214      0.000000
  B       0.000000      0.000000      1.414214
  B       0.000000      0.000000     -1.414214
6
Coordinates from ORCA-job B6_octahedral_3d_d2.00_q0_m5_R2SCAN-3C E -148.521687764687
  B       1.382900      0.005998     -0.005788
  B      -1.382781     -0.005998      0.005668
  B       0.005850      1.382828     -0.005717
  B      -0.006147     -1.382826      0.005958
  B      -0.005639     -0.005838      1.382772
  B       0.005817      0.005836     -1.382893
6
Coordinates from ORCA-job B6_octahedral_3d_d2.00_q0_m5_R2SCAN-3C E -148.553447582430
  B       1.351827      0.012612     -0.012058
  B      -1.351548     -0.012618      0.011792
  B       0.012272      1.351703     -0.011934
  B      -0.012959     -1.351693      0.012481
  B      -0.011720     -0.012209      1.351495
  B       0.012129      0.012205     -1.351776
6
Coordinates from ORCA-job B6_octahedral_3d_d2.00_q0_m5_R2SCAN-3C E -148.593654925254
  B       1.305761      0.023822     -0.022474
  B      -1.305241     -0.023849      0.021937
  B       0.023163      1.305697     -0.022354
  B      -0.024514     -1.305674      0.023410
  B      -0.021786     -0.022873      1.304930
  B       0.022617      0.022876     -1.305450
6
Coordinates from ORCA-job B6_octahedral_3d_d2.00_q0_m5_R2SCAN-3C E -148.628890204411
  B       1.238034      0.043526     -0.040085
  B      -1.237251     -0.043600      0.039028
  B       0.042395      1.238571     -0.040337
  B      -0.044775     -1.238561      0.042164
  B      -0.038729     -0.041168      1.235834
  B       0.040326      0.041231     -1.236603
6
Coordinates from ORCA-job B6_octahedral_3d_d2.00_q0_m5_R2SCAN-3C E -148.631025066881
  B       1.212438      0.054095     -0.047189
  B      -1.211984     -0.054053      0.045868
  B       0.053008      1.214455     -0.049051
  B      -0.055357     -1.214768      0.050832
  B      -0.045443     -0.049560      1.208382
  B       0.047339      0.049830     -1.208844
6
Coordinates from ORCA-job B6_octahedral_3d_d2.00_q0_m5_R2SCAN-3C E -148.631365031550
  B       1.218684      0.053322     -0.043112
  B      -1.218388     -0.053227      0.041939
  B       0.052545      1.222066     -0.047154
  B      -0.054506     -1.222468      0.048645
  B      -0.041408     -0.047210      1.212952
  B       0.043074      0.047517     -1.213269
6
Coordinates from ORCA-job B6_octahedral_3d_d2.00_q0_m5_R2SCAN-3C E -148.631826319191
  B       1.221243      0.056903     -0.036355
  B      -1.221103     -0.056786      0.035407
  B       0.056793      1.229014     -0.047379
  B      -0.058250     -1.229490      0.048484
  B      -0.034561     -0.046414      1.210220
  B       0.035879      0.046773     -1.210377
6
Coordinates from ORCA-job B6_octahedral_3d_d2.00_q0_m5_R2SCAN-3C E -148.633378621869
  B       1.223317      0.062665     -0.024352
  B      -1.223277     -0.062562      0.023628
  B       0.063611      1.238856     -0.049507
  B      -0.064598     -1.239376      0.050276
  B      -0.022326     -0.047002      1.203708
  B       0.023274      0.047420     -1.203753
6
Coordinates from ORCA-job B6_octahedral_3d_d2.00_q0_m5_R2SCAN-3C E -148.637346579036
  B       1.225288      0.070432     -0.002902
  B      -1.225363     -0.070366      0.002377
  B       0.073140      1.254025     -0.054743
  B      -0.073597     -1.254636      0.055203
  B      -0.000479     -0.049850      1.192990
  B       0.001011      0.050394     -1.192925
6
Coordinates from ORCA-job B6_octahedral_3d_d2.00_q0_m5_R2SCAN-3C E -148.641891310721
  B       1.224800      0.079252      0.022568
  B      -1.224958     -0.079278     -0.022980
  B       0.084083      1.270895     -0.060404
  B      -0.084106     -1.271569      0.060669
  B       0.025608     -0.052726      1.178787
  B      -0.025428      0.053426     -1.178641
6
Coordinates from ORCA-job B6_octahedral_3d_d2.00_q0_m5_R2SCAN-3C E -148.644332914589
  B       1.216675      0.087827      0.038409
  B      -1.216579     -0.088329     -0.038914
  B       0.094267      1.281824     -0.065439
  B      -0.094619     -1.282463      0.065982
  B       0.042067     -0.055775      1.159764
  B      -0.041812      0.056916     -1.159803
6
Coordinates from ORCA-job B6_octahedral_3d_d2.00_q0_m5_R2SCAN-3C E -148.644940496275
  B       1.211890      0.095004      0.044002
  B      -1.211617     -0.095820     -0.044523
  B       0.102692      1.295973     -0.069470
  B      -0.103151     -1.296330      0.070286
  B       0.047767     -0.058795      1.147345
  B      -0.047581      0.059967     -1.147640
6
Coordinates from ORCA-job B6_octahedral_3d_d2.00_q0_m5_R2SCAN-3C E -148.645103285710
  B       1.209834      0.097708      0.041456
  B      -1.209539     -0.098513     -0.041986
  B       0.105827      1.304337     -0.072495
  B      -0.106188     -1.304512      0.073471
  B       0.044863     -0.062023      1.143663
  B      -0.044797      0.063002     -1.144109
6
Coordinates from ORCA-job B6_octahedral_3d_d2.00_q0_m5_R2SCAN-3C E -148.645171620483
  B       1.207186      0.097902      0.038342
  B      -1.207001     -0.098546     -0.038886
  B       0.106510      1.310854     -0.075163
  B      -0.106634     -1.310989      0.076214
  B       0.041382     -0.065050      1.143351
  B      -0.041443      0.065828     -1.143859
6
Coordinates from ORCA-job B6_octahedral_3d_d2.00_q0_m5_R2SCAN-3C E -148.645210351138
  B       1.203936      0.096468      0.037070
  B      -1.203820     -0.096984     -0.037654
  B       0.105571      1.313908     -0.076759
  B      -0.105545     -1.314048      0.077777
  B       0.039973     -0.066868      1.144993
  B      -0.040115      0.067524     -1.145426
6
Coordinates from ORCA-job B6_octahedral_3d_d2.00_q0_m5_R2SCAN-3C E -148.645322992835
  B       1.188065      0.088767      0.033836
  B      -1.188247     -0.088850     -0.034496
  B       0.100093      1.323315     -0.082893
  B      -0.099566     -1.323430      0.083739
  B       0.036386     -0.073928      1.153890
  B      -0.036732      0.074127     -1.154077
6
Coordinates from ORCA-job B6_octahedral_3d_d2.00_q0_m5_R2SCAN-3C E -148.645393908158
  B       1.182165      0.084678      0.034308
  B      -1.182437     -0.084676     -0.034943
  B       0.096748      1.322782     -0.084438
  B      -0.096140     -1.322867      0.085100
  B       0.036853     -0.075909      1.159803
  B      -0.037188      0.075991     -1.159831
6
Coordinates from ORCA-job B6_octahedral_3d_d2.00_q0_m5_R2SCAN-3C E -148.645464461617
  B       1.173756      0.079367      0.036877
  B      -1.174039     -0.079462     -0.037317
  B       0.092300      1.319087     -0.086755
  B      -0.091835     -1.319024      0.087079
  B       0.039469     -0.078872      1.168279
  B      -0.039652      0.078904     -1.168162
6
Coordinates from ORCA-job B6_octahedral_3d_d2.00_q0_m5_R2SCAN-3C E -148.645468250400
  B       1.171093      0.078415      0.037165
  B      -1.171356     -0.078565     -0.037475
  B       0.091594      1.319492     -0.088270
  B      -0.091195     -1.319394      0.088482
  B       0.039705     -0.080574      1.170306
  B      -0.039841      0.080626     -1.170207
6
Coordinates from ORCA-job B6_octahedral_3d_d2.00_q0_m5_R2SCAN-3C E -148.645469741112
  B       1.171187      0.078640      0.037487
  B      -1.171388     -0.078869     -0.037663
  B       0.091729      1.318943     -0.088846
  B      -0.091435     -1.318842      0.088969
  B       0.039982     -0.081227      1.171141
  B      -0.040075      0.081355     -1.171089
6
Coordinates from ORCA-job B6_octahedral_3d_d2.00_q0_m5_R2SCAN-3C E -148.645469964452
  B       1.171222      0.078761      0.037402
  B      -1.171395     -0.078998     -0.037527
  B       0.091831      1.319166     -0.089100
  B      -0.091554     -1.319088      0.089198
  B       0.039860     -0.081488      1.171284
  B      -0.039964      0.081647     -1.171258
6
Coordinates from ORCA-job B6_octahedral_3d_d2.00_q0_m5_R2SCAN-3C E -148.645469967320
  B       1.171378      0.078837      0.037380
  B      -1.171527     -0.079071     -0.037497
  B       0.091889      1.319203     -0.089066
  B      -0.091618     -1.319143      0.089153
  B       0.039824     -0.081429      1.171170
  B      -0.039945      0.081603     -1.171141
