6
Coordinates from ORCA-job B6_octahedral_3d_d2.00_q0_m5_R2SCAN-3C E -148.645469967320
  B           1.17137823522743      0.07883745508944      0.03737957744406
  B          -1.17152734589804     -0.07907148935116     -0.03749653465926
  B           0.09188879282130      1.31920341844805     -0.08906594941770
  B          -0.09161809270344     -1.31914270537908      0.08915327336800
  B           0.03982389589257     -0.08142924276054      1.17117047825051
  B          -0.03994548533982      0.08160256395330     -1.17114084498561
