6
Coordinates from ORCA-job B6_rectangular_planar_d2.50_q0_m1_R2SCAN-3C E -148.142750732368
  B      -2.500000     -1.250000      0.000000
  B       0.000000     -1.250000      0.000000
  B       2.500000     -1.250000      0.000000
  B      -2.500000      1.250000      0.000000
  B       0.000000      1.250000      0.000000
  B       2.500000      1.250000      0.000000
6
Coordinates from ORCA-job B6_rectangular_planar_d2.50_q0_m1_R2SCAN-3C E -148.175054524251
  B      -2.436961     -1.222633     -0.000000
  B       0.000000     -1.221213     -0.000000
  B       2.436961     -1.222633      0.000000
  B      -2.436961      1.222633      0.000000
  B       0.000000      1.221213     -0.000000
  B       2.436961      1.222634      0.000000
6
Coordinates from ORCA-job B6_rectangular_planar_d2.50_q0_m1_R2SCAN-3C E -148.209103184072
  B      -2.373415     -1.195633     -0.000000
  B       0.000000     -1.192849      0.000000
  B       2.373415     -1.195634     -0.000000
  B      -2.373415      1.195633     -0.000000
  B       0.000000      1.192849      0.000000
  B       2.373415      1.195634     -0.000000
6
Coordinates from ORCA-job B6_rectangular_planar_d2.50_q0_m1_R2SCAN-3C E -148.263250723234
  B      -2.277275     -1.155688      0.000000
  B      -0.000000     -1.151102     -0.000000
  B       2.277275     -1.155694      0.000000
  B      -2.277273      1.155689      0.000000
  B      -0.000000      1.151100     -0.000000
  B       2.277273      1.155695      0.000000
6
Coordinates from ORCA-job B6_rectangular_planar_d2.50_q0_m1_R2SCAN-3C E -148.349269953332
  B      -2.131140     -1.096938      0.000000
  B      -0.000000     -1.090772     -0.000000
  B       2.131141     -1.096944      0.000000
  B      -2.131141      1.096937      0.000000
  B      -0.000000      1.090773     -0.000000
  B       2.131141      1.096944      0.000000
6
Coordinates from ORCA-job B6_rectangular_planar_d2.50_q0_m1_R2SCAN-3C E -148.440967891876
  B      -1.976392     -1.038304      0.000000
  B      -0.000001     -1.031770     -0.000000
  B       1.976392     -1.038311      0.000000
  B      -1.976393      1.038304      0.000000
  B      -0.000001      1.031771     -0.000000
  B       1.976393      1.038311      0.000000
6
Coordinates from ORCA-job B6_rectangular_planar_d2.50_q0_m1_R2SCAN-3C E -148.522814744611
  B      -1.818263     -0.980043      0.000000
  B      -0.000001     -0.981804     -0.000000
  B       1.818264     -0.980051      0.000000
  B      -1.818264      0.980043      0.000000
  B      -0.000001      0.981806     -0.000000
  B       1.818265      0.980051      0.000000
6
Coordinates from ORCA-job B6_rectangular_planar_d2.50_q0_m1_R2SCAN-3C E -148.573538495026
  B      -1.668107     -0.910335     -0.000000
  B      -0.000002     -0.937421      0.000000
  B       1.668109     -0.910345      0.000000
  B      -1.668107      0.910335      0.000000
  B      -0.000002      0.937421      0.000000
  B       1.668109      0.910345     -0.000000
6
Coordinates from ORCA-job B6_rectangular_planar_d2.50_q0_m1_R2SCAN-3C E -148.574800688826
  B      -1.660276     -0.829235      0.000000
  B      -0.000001     -0.879118     -0.000000
  B       1.660276     -0.829245      0.000000
  B      -1.660277      0.829235      0.000000
  B      -0.000000      0.879118     -0.000000
  B       1.660277      0.829245      0.000000
6
Coordinates from ORCA-job B6_rectangular_planar_d2.50_q0_m1_R2SCAN-3C E -148.575550012086
  B      -1.588080     -0.871184      0.000000
  B      -0.000009     -0.907292     -0.000000
  B       1.588087     -0.871188      0.000000
  B      -1.588078      0.871183      0.000000
  B      -0.000008      0.907291     -0.000000
  B       1.588088      0.871189      0.000000
6
Coordinates from ORCA-job B6_rectangular_planar_d2.50_q0_m1_R2SCAN-3C E -148.578269430466
  B      -1.653387     -0.880470     -0.000000
  B       0.000024     -0.915216     -0.000000
  B       1.653358     -0.880489      0.000000
  B      -1.653382      0.880468      0.000000
  B       0.000026      0.915215     -0.000000
  B       1.653361      0.880492     -0.000000
6
Coordinates from ORCA-job B6_rectangular_planar_d2.50_q0_m1_R2SCAN-3C E -148.579158373602
  B      -1.638613     -0.862610     -0.000001
  B      -0.000181     -0.906015      0.000000
  B       1.638776     -0.862494      0.000001
  B      -1.638599      0.862600      0.000001
  B      -0.000178      0.906016     -0.000000
  B       1.638794      0.862503     -0.000001
6
Coordinates from ORCA-job B6_rectangular_planar_d2.50_q0_m1_R2SCAN-3C E -148.631407343671
  B      -1.637437     -0.864218     -0.000037
  B       0.002069     -0.906948     -0.000000
  B       1.635275     -0.865483      0.000037
  B      -1.637358      0.864168      0.000037
  B       0.002089      0.906950     -0.000000
  B       1.635361      0.865531     -0.000037
6
Coordinates from ORCA-job B6_rectangular_planar_d2.50_q0_m1_R2SCAN-3C E -148.632303564878
  B      -1.631220     -0.862665     -0.004517
  B       0.007527     -0.912464      0.008788
  B       1.623386     -0.867550     -0.004272
  B      -1.630971      0.862499     -0.004243
  B       0.007606      0.912468      0.008766
  B       1.623673      0.867711     -0.004522
6
Coordinates from ORCA-job B6_rectangular_planar_d2.50_q0_m1_R2SCAN-3C E -148.645607561979
  B      -1.564814     -0.844783     -0.007745
  B      -0.022456     -0.933413      0.015424
  B       1.585354     -0.838536     -0.007674
  B      -1.563039      0.843770     -0.007480
  B      -0.021527      0.933383      0.015631
  B       1.586482      0.839579     -0.008155
6
Coordinates from ORCA-job B6_rectangular_planar_d2.50_q0_m1_R2SCAN-3C E -148.666720569195
  B      -1.567976     -0.808344     -0.008344
  B      -0.014697     -0.924618      0.016582
  B       1.580480     -0.802727     -0.008239
  B      -1.566192      0.807041     -0.008190
  B      -0.013453      0.924777      0.016806
  B       1.581838      0.803870     -0.008615
6
Coordinates from ORCA-job B6_rectangular_planar_d2.50_q0_m1_R2SCAN-3C E -148.683400899507
  B      -1.571972     -0.751855      0.000146
  B      -0.008509     -0.908124     -0.000489
  B       1.578240     -0.750414      0.000337
  B      -1.570375      0.750482      0.000516
  B      -0.006861      0.908221     -0.000260
  B       1.579477      0.751690     -0.000250
6
Coordinates from ORCA-job B6_rectangular_planar_d2.50_q0_m1_R2SCAN-3C E -148.683197347065
  B      -1.573641     -0.753049      0.002417
  B       0.003714     -0.907817     -0.005408
  B       1.566716     -0.730561      0.003027
  B      -1.571310      0.751042      0.002964
  B       0.005398      0.908244     -0.004702
  B       1.569123      0.732142      0.001702
6
Coordinates from ORCA-job B6_rectangular_planar_d2.50_q0_m1_R2SCAN-3C E -148.675068316323
  B      -1.576620     -0.695175     -0.001178
  B       0.011915     -0.903435      0.001164
  B       1.559522     -0.752871      0.000203
  B      -1.573346      0.692025     -0.000355
  B       0.015311      0.904050      0.002701
  B       1.563217      0.755406     -0.002534
6
Coordinates from ORCA-job B6_rectangular_planar_d2.50_q0_m1_R2SCAN-3C E -148.683780063610
  B      -1.576224     -0.745387     -0.003384
  B      -0.002204     -0.905269      0.005788
  B       1.574531     -0.747181     -0.002276
  B      -1.574019      0.743112     -0.002564
  B       0.001755      0.905347      0.007078
  B       1.576162      0.749378     -0.004642
6
Coordinates from ORCA-job B6_rectangular_planar_d2.50_q0_m1_R2SCAN-3C E -148.683563660489
  B      -1.571629     -0.746489      0.014559
  B       0.000809     -0.908056     -0.030379
  B       1.564441     -0.742479      0.016016
  B      -1.566205      0.742543      0.015237
  B      -0.000287      0.909655     -0.028232
  B       1.572871      0.744826      0.012799
6
Coordinates from ORCA-job B6_rectangular_planar_d2.50_q0_m1_R2SCAN-3C E -148.683799701218
  B      -1.574707     -0.745389     -0.002193
  B      -0.002975     -0.906475      0.002452
  B       1.571379     -0.738475     -0.000000
  B      -1.570119      0.742243     -0.001206
  B       0.002739      0.905795      0.005311
  B       1.573683      0.742302     -0.004363
6
Coordinates from ORCA-job B6_rectangular_planar_d2.50_q0_m1_R2SCAN-3C E -148.683804231218
  B      -1.574807     -0.747328     -0.001949
  B      -0.002288     -0.903299      0.001501
  B       1.569478     -0.745868      0.000813
  B      -1.574327      0.741140     -0.000967
  B       0.002420      0.907578      0.005308
  B       1.579524      0.747777     -0.004707
6
Coordinates from ORCA-job B6_rectangular_planar_d2.50_q0_m1_R2SCAN-3C E -148.683712105370
  B      -1.582926     -0.743966      0.001793
  B      -0.003943     -0.911650     -0.006758
  B       1.577734     -0.741820      0.005541
  B      -1.564530      0.744541      0.002632
  B       0.004331      0.900638     -0.001160
  B       1.569335      0.752256     -0.002048
6
Coordinates from ORCA-job B6_rectangular_planar_d2.50_q0_m1_R2SCAN-3C E -148.683825711254
  B      -1.574847     -0.747040      0.001162
  B      -0.004742     -0.906353     -0.006180
  B       1.568637     -0.738762      0.005779
  B      -1.569073      0.740847      0.001842
  B       0.004526      0.907069      0.001147
  B       1.575499      0.744238     -0.003751
6
Coordinates from ORCA-job B6_rectangular_planar_d2.50_q0_m1_R2SCAN-3C E -148.683811392318
  B      -1.580025     -0.747820     -0.002109
  B      -0.002030     -0.905463     -0.000744
  B       1.567394     -0.740786      0.004014
  B      -1.567574      0.740305     -0.001979
  B       0.001958      0.905862      0.009926
  B       1.580277      0.747901     -0.009108
6
Coordinates from ORCA-job B6_rectangular_planar_d2.50_q0_m1_R2SCAN-3C E -148.683817608485
  B      -1.577878     -0.749351      0.000412
  B      -0.007877     -0.904492     -0.007530
  B       1.568618     -0.743497      0.008917
  B      -1.571092      0.739218     -0.000598
  B       0.008373      0.906551      0.008837
  B       1.579856      0.751572     -0.010037
6
Coordinates from ORCA-job B6_rectangular_planar_d2.50_q0_m1_R2SCAN-3C E -148.683874260787
  B      -1.579411     -0.749398      0.002451
  B      -0.008359     -0.906545     -0.013277
  B       1.566692     -0.737730      0.013227
  B      -1.565878      0.738665     -0.000021
  B       0.008444      0.906016      0.009361
  B       1.578512      0.748991     -0.011740
6
Coordinates from ORCA-job B6_rectangular_planar_d2.50_q0_m1_R2SCAN-3C E -148.683938134802
  B      -1.583207     -0.752022      0.004271
  B      -0.011060     -0.906208     -0.021287
  B       1.562440     -0.734620      0.021498
  B      -1.561736      0.735912     -0.003324
  B       0.011230      0.905694      0.020379
  B       1.582332      0.751243     -0.021537
6
Coordinates from ORCA-job B6_rectangular_planar_d2.50_q0_m1_R2SCAN-3C E -148.684085360106
  B      -1.587511     -0.755877      0.009546
  B      -0.016926     -0.905838     -0.038553
  B       1.556451     -0.729259      0.036989
  B      -1.555478      0.731769     -0.007382
  B       0.017499      0.904785      0.035182
  B       1.585964      0.754420     -0.035782
6
Coordinates from ORCA-job B6_rectangular_planar_d2.50_q0_m1_R2SCAN-3C E -148.684325419910
  B      -1.593337     -0.761044      0.014290
  B      -0.024166     -0.904632     -0.054433
  B       1.548263     -0.722775      0.051637
  B      -1.547560      0.726284     -0.012130
  B       0.025244      0.903223      0.051087
  B       1.591556      0.758945     -0.050451
6
Coordinates from ORCA-job B6_rectangular_planar_d2.50_q0_m1_R2SCAN-3C E -148.684699091596
  B      -1.600943     -0.767758      0.018397
  B      -0.034067     -0.903183     -0.070080
  B       1.537338     -0.713960      0.066448
  B      -1.537174      0.718994     -0.015282
  B       0.035702      0.900767      0.064856
  B       1.599144      0.765140     -0.064338
6
Coordinates from ORCA-job B6_rectangular_planar_d2.50_q0_m1_R2SCAN-3C E -148.685298279312
  B      -1.611138     -0.776330      0.020431
  B      -0.046981     -0.901853     -0.083306
  B       1.523013     -0.702147      0.080431
  B      -1.523883      0.709459     -0.016587
  B       0.049369      0.897463      0.076717
  B       1.609620      0.773408     -0.077686
6
Coordinates from ORCA-job B6_rectangular_planar_d2.50_q0_m1_R2SCAN-3C E -148.686250241246
  B      -1.624192     -0.786661      0.019970
  B      -0.063306     -0.901000     -0.093165
  B       1.505180     -0.687026      0.092734
  B      -1.507765      0.697418     -0.015100
  B       0.066402      0.893172      0.084719
  B       1.623681      0.784097     -0.089158
6
Coordinates from ORCA-job B6_rectangular_planar_d2.50_q0_m1_R2SCAN-3C E -148.687634476663
  B      -1.639353     -0.797873      0.017444
  B      -0.082027     -0.900973     -0.099040
  B       1.484736     -0.669354      0.102164
  B      -1.489875      0.683487     -0.011261
  B       0.085648      0.887981      0.088317
  B       1.640871      0.796733     -0.097623
6
Coordinates from ORCA-job B6_rectangular_planar_d2.50_q0_m1_R2SCAN-3C E -148.689424039990
  B      -1.655016     -0.808828      0.013913
  B      -0.101330     -0.901546     -0.102592
  B       1.463023     -0.650318      0.109636
  B      -1.471554      0.668840     -0.005934
  B       0.105381      0.881871      0.088779
  B       1.659497      0.809981     -0.103802
6
Coordinates from ORCA-job B6_rectangular_planar_d2.50_q0_m1_R2SCAN-3C E -148.691567022929
  B      -1.670428     -0.819185      0.009698
  B      -0.120292     -0.902315     -0.105304
  B       1.440761     -0.630593      0.116600
  B      -1.453361      0.654070      0.000815
  B       0.124721      0.874999      0.087061
  B       1.678600      0.823025     -0.108870
6
Coordinates from ORCA-job B6_rectangular_planar_d2.50_q0_m1_R2SCAN-3C E -148.693994571089
  B      -1.685499     -0.829126      0.004757
  B      -0.138592     -0.902911     -0.107768
  B       1.418408     -0.610785      0.123789
  B      -1.435495      0.639266      0.009201
  B       0.143205      0.868085      0.083402
  B       1.697974      0.835470     -0.113382
6
Coordinates from ORCA-job B6_rectangular_planar_d2.50_q0_m1_R2SCAN-3C E -148.696624825051
  B      -1.700355     -0.838974     -0.000976
  B      -0.156003     -0.903007     -0.110179
  B       1.396354     -0.591522      0.131494
  B      -1.418040      0.624400      0.019428
  B       0.160502      0.862081      0.077722
  B       1.717543      0.847022     -0.117489
6
Coordinates from ORCA-job B6_rectangular_planar_d2.50_q0_m1_R2SCAN-3C E -148.699364396298
  B      -1.715152     -0.848966     -0.007489
  B      -0.172296     -0.902319     -0.112569
  B       1.374991     -0.573386      0.139752
  B      -1.400958      0.609413      0.031510
  B       0.176366      0.857841      0.069969
  B       1.737050      0.857416     -0.121173
6
Coordinates from ORCA-job B6_rectangular_planar_d2.50_q0_m1_R2SCAN-3C E -148.702100184261
  B      -1.729928     -0.859168     -0.014740
  B      -0.187239     -0.900637     -0.114903
  B       1.354780     -0.556926      0.148519
  B      -1.384226      0.594290      0.045343
  B       0.190575      0.856062      0.060176
  B       1.756038      0.866378     -0.124395
6
Coordinates from ORCA-job B6_rectangular_planar_d2.50_q0_m1_R2SCAN-3C E -148.706004197874
  B      -1.754673     -0.877464     -0.023291
  B      -0.209474     -0.895786     -0.117648
  B       1.323928     -0.536068      0.158706
  B      -1.357918      0.569955      0.064535
  B       0.210348      0.858530      0.043579
  B       1.787790      0.880832     -0.125881
6
Coordinates from ORCA-job B6_rectangular_planar_d2.50_q0_m1_R2SCAN-3C E -148.710194781880
  B      -1.787490     -0.899049     -0.038915
  B      -0.237498     -0.890106     -0.123521
  B       1.283568     -0.505570      0.177443
  B      -1.319800      0.533855      0.100296
  B       0.235164      0.866305      0.011573
  B       1.826056      0.894566     -0.126875
6
Coordinates from ORCA-job B6_rectangular_planar_d2.50_q0_m1_R2SCAN-3C E -148.713182370883
  B      -1.805099     -0.896821     -0.083643
  B      -0.253195     -0.901558     -0.119598
  B       1.255188     -0.470850      0.210370
  B      -1.290965      0.504022      0.167718
  B       0.250812      0.867628     -0.035516
  B       1.843259      0.897579     -0.139332
6
Coordinates from ORCA-job B6_rectangular_planar_d2.50_q0_m1_R2SCAN-3C E -148.714575193733
  B      -1.834095     -0.919695     -0.103657
  B      -0.259639     -0.899372     -0.135978
  B       1.222570     -0.469975      0.250224
  B      -1.257250      0.476112      0.209831
  B       0.253186      0.912156     -0.064102
  B       1.875229      0.900774     -0.156319
6
Coordinates from ORCA-job B6_rectangular_planar_d2.50_q0_m1_R2SCAN-3C E -148.717094493657
  B      -1.798125     -0.872465     -0.185279
  B      -0.237338     -0.933027     -0.103637
  B       1.237231     -0.465842      0.288464
  B      -1.262550      0.482714      0.285191
  B       0.234287      0.910289     -0.083783
  B       1.826495      0.878332     -0.200956
6
Coordinates from ORCA-job B6_rectangular_planar_d2.50_q0_m1_R2SCAN-3C E -148.717589903087
  B      -1.798553     -0.873244     -0.194611
  B      -0.237249     -0.929436     -0.074383
  B       1.247241     -0.482644      0.267195
  B      -1.255189      0.486054      0.278541
  B       0.232474      0.917091     -0.084877
  B       1.811276      0.882179     -0.191864
6
Coordinates from ORCA-job B6_rectangular_planar_d2.50_q0_m1_R2SCAN-3C E -148.717640460799
  B      -1.803430     -0.878252     -0.195060
  B      -0.227220     -0.926960     -0.080565
  B       1.253212     -0.487653      0.278176
  B      -1.253157      0.491945      0.268168
  B       0.233434      0.927412     -0.062768
  B       1.797160      0.873507     -0.207951
6
Coordinates from ORCA-job B6_rectangular_planar_d2.50_q0_m1_R2SCAN-3C E -148.717727336992
  B      -1.804617     -0.876923     -0.197843
  B      -0.232127     -0.926205     -0.072861
  B       1.256036     -0.488334      0.271318
  B      -1.254927      0.488362      0.273223
  B       0.231560      0.925713     -0.073563
  B       1.804075      0.877388     -0.200274
6
Coordinates from ORCA-job B6_rectangular_planar_d2.50_q0_m1_R2SCAN-3C E -148.717728917082
  B      -1.803736     -0.876350     -0.199624
  B      -0.231676     -0.925144     -0.071713
  B       1.256139     -0.487969      0.271862
  B      -1.255666      0.488014      0.274018
  B       0.231586      0.924979     -0.072547
  B       1.803352      0.876470     -0.201996
6
Coordinates from ORCA-job B6_rectangular_planar_d2.50_q0_m1_R2SCAN-3C E -148.717729315699
  B      -1.803489     -0.876231     -0.200372
  B      -0.231476     -0.924725     -0.070888
  B       1.256863     -0.488196      0.271841
  B      -1.256478      0.488224      0.273740
  B       0.231432      0.924773     -0.071327
  B       1.803147      0.876156     -0.202994
6
Coordinates from ORCA-job B6_rectangular_planar_d2.50_q0_m1_R2SCAN-3C E -148.717729473775
  B      -1.803381     -0.876092     -0.201227
  B      -0.231416     -0.924630     -0.070008
  B       1.257301     -0.488320      0.271855
  B      -1.256873      0.488279      0.273654
  B       0.231328      0.924740     -0.070350
  B       1.803041      0.876023     -0.203923
6
Coordinates from ORCA-job B6_rectangular_planar_d2.50_q0_m1_R2SCAN-3C E -148.717729484779
  B      -1.803325     -0.876050     -0.201412
  B      -0.231443     -0.924738     -0.069775
  B       1.257373     -0.488342      0.271800
  B      -1.256968      0.488329      0.273619
  B       0.231351      0.924765     -0.070134
  B       1.803013      0.876037     -0.204098
