6
Coordinates from ORCA-job B6_rectangular_planar_d2.50_q0_m1_R2SCAN-3C E -148.717729484779
  B          -1.80332492053942     -0.87605046673894     -0.20141174285908
  B          -0.23144332351646     -0.92473834230134     -0.06977509941696
  B           1.25737251484924     -0.48834167499087      0.27179959897974
  B          -1.25696800744124      0.48832863817968      0.27361943180752
  B           0.23135059433369      0.92476504811216     -0.07013404020938
  B           1.80301314231419      0.87603679773930     -0.20409814830183
