6
Coordinates from ORCA-job B6_random_3d_seed1003_d1.60_q0_m1_R2SCAN-3C E -148.659858377036
  B           0.14709181950807      0.76092512769673     -0.96759911000519
  B          -0.14658762195754     -0.76127481174813      0.96714367010896
  B          -1.22705184752221      0.16433125128930     -0.05716383920816
  B           1.22658055828186     -0.16400075920248      0.05764633004831
  B           0.08094497277167      0.84331444480877      0.67584393315370
  B          -0.08097788108184     -0.84329524284418     -0.67587098409761
