6
Coordinates from ORCA-job B6_random_3d_seed1003_d1.60_q0_m1_R2SCAN-3C E -148.639777959395
  B       0.160685      0.723724     -0.985141
  B      -0.119812     -0.690654      0.867320
  B      -1.173483      0.156398     -0.045354
  B       1.267697     -0.101942      0.122092
  B       0.062456      0.817686      0.738777
  B      -0.197544     -0.905212     -0.697695
6
Coordinates from ORCA-job B6_random_3d_seed1003_d1.60_q0_m1_R2SCAN-3C E -148.647799286298
  B       0.163180      0.724716     -0.975926
  B      -0.120420     -0.708251      0.879272
  B      -1.190683      0.164771     -0.043518
  B       1.268474     -0.115210      0.107829
  B       0.055943      0.831916      0.726667
  B      -0.176493     -0.897941     -0.694323
6
Coordinates from ORCA-job B6_random_3d_seed1003_d1.60_q0_m1_R2SCAN-3C E -148.655435052025
  B       0.167719      0.723032     -0.961633
  B      -0.120185     -0.733824      0.900190
  B      -1.217302      0.176150     -0.042856
  B       1.265674     -0.132997      0.086097
  B       0.048902      0.849122      0.707571
  B      -0.144808     -0.881483     -0.689369
6
Coordinates from ORCA-job B6_random_3d_seed1003_d1.60_q0_m1_R2SCAN-3C E -148.657995118056
  B       0.170822      0.721782     -0.952491
  B      -0.119430     -0.748737      0.916346
  B      -1.234458      0.181296     -0.044303
  B       1.260027     -0.144105      0.071971
  B       0.047041      0.856568      0.694165
  B      -0.124002     -0.866805     -0.685689
6
Coordinates from ORCA-job B6_random_3d_seed1003_d1.60_q0_m1_R2SCAN-3C E -148.658924957498
  B       0.173172      0.724096     -0.945530
  B      -0.118617     -0.759873      0.934111
  B      -1.249004      0.182427     -0.047965
  B       1.251279     -0.154991      0.059521
  B       0.048534      0.859638      0.681362
  B      -0.105363     -0.851297     -0.681499
6
Coordinates from ORCA-job B6_random_3d_seed1003_d1.60_q0_m1_R2SCAN-3C E -148.659144209447
  B       0.173178      0.728410     -0.946210
  B      -0.118352     -0.760672      0.940672
  B      -1.250960      0.179829     -0.050768
  B       1.247170     -0.157632      0.057816
  B       0.051523      0.857455      0.678761
  B      -0.102559     -0.847390     -0.680270
6
Coordinates from ORCA-job B6_random_3d_seed1003_d1.60_q0_m1_R2SCAN-3C E -148.659627645093
  B       0.171868      0.747260     -0.953411
  B      -0.117985     -0.759397      0.961604
  B      -1.251202      0.168027     -0.061124
  B       1.232451     -0.164344      0.055902
  B       0.063475      0.846231      0.673426
  B      -0.098607     -0.837777     -0.676397
6
Coordinates from ORCA-job B6_random_3d_seed1003_d1.60_q0_m1_R2SCAN-3C E -148.659693267780
  B       0.170854      0.751564     -0.956682
  B      -0.118692     -0.757911      0.963511
  B      -1.247578      0.165752     -0.062170
  B       1.230372     -0.164512      0.056969
  B       0.064993      0.843797      0.674497
  B      -0.099949     -0.838690     -0.676125
6
Coordinates from ORCA-job B6_random_3d_seed1003_d1.60_q0_m1_R2SCAN-3C E -148.659742878856
  B       0.169306      0.755199     -0.960054
  B      -0.120467     -0.757145      0.964206
  B      -1.242285      0.164744     -0.061833
  B       1.228822     -0.164713      0.057498
  B       0.064996      0.842672      0.676020
  B      -0.100372     -0.840757     -0.675836
6
Coordinates from ORCA-job B6_random_3d_seed1003_d1.60_q0_m1_R2SCAN-3C E -148.659777842240
  B       0.167441      0.759315     -0.963476
  B      -0.123165     -0.757936      0.966558
  B      -1.236794      0.164027     -0.061296
  B       1.225984     -0.165737      0.056724
  B       0.065054      0.842139      0.676535
  B      -0.098520     -0.841808     -0.675046
6
Coordinates from ORCA-job B6_random_3d_seed1003_d1.60_q0_m1_R2SCAN-3C E -148.659798202361
  B       0.165896      0.760828     -0.965253
  B      -0.125871     -0.759685      0.967900
  B      -1.233174      0.164356     -0.060238
  B       1.224391     -0.166017      0.055770
  B       0.065028      0.842865      0.676526
  B      -0.096270     -0.842347     -0.674706
6
Coordinates from ORCA-job B6_random_3d_seed1003_d1.60_q0_m1_R2SCAN-3C E -148.659811723868
  B       0.164433      0.760898     -0.966135
  B      -0.128551     -0.761692      0.968840
  B      -1.230966      0.164825     -0.059275
  B       1.223512     -0.165516      0.055155
  B       0.065799      0.843832      0.676185
  B      -0.094227     -0.842347     -0.674771
6
Coordinates from ORCA-job B6_random_3d_seed1003_d1.60_q0_m1_R2SCAN-3C E -148.659823009274
  B       0.162682      0.760220     -0.966701
  B      -0.131479     -0.763603      0.969453
  B      -1.229406      0.165150     -0.058463
  B       1.223095     -0.164287      0.055103
  B       0.067593      0.844647      0.675788
  B      -0.092485     -0.842127     -0.675180
6
Coordinates from ORCA-job B6_random_3d_seed1003_d1.60_q0_m1_R2SCAN-3C E -148.659831905817
  B       0.160544      0.759383     -0.967193
  B      -0.134487     -0.764895      0.969662
  B      -1.228267      0.165195     -0.057900
  B       1.223039     -0.162730      0.055641
  B       0.070226      0.844992      0.675544
  B      -0.091055     -0.841944     -0.675755
6
Coordinates from ORCA-job B6_random_3d_seed1003_d1.60_q0_m1_R2SCAN-3C E -148.659837866974
  B       0.158431      0.759024     -0.967626
  B      -0.136857     -0.765114      0.969458
  B      -1.227587      0.165013     -0.057652
  B       1.223221     -0.161712      0.056406
  B       0.072711      0.844789      0.675569
  B      -0.089918     -0.842000     -0.676156
6
Coordinates from ORCA-job B6_random_3d_seed1003_d1.60_q0_m1_R2SCAN-3C E -148.659843858174
  B       0.155783      0.759064     -0.968015
  B      -0.139312     -0.764548      0.968875
  B      -1.227135      0.164761     -0.057502
  B       1.223657     -0.161232      0.057272
  B       0.075372      0.844255      0.675761
  B      -0.088365     -0.842301     -0.676391
6
Coordinates from ORCA-job B6_random_3d_seed1003_d1.60_q0_m1_R2SCAN-3C E -148.659850388194
  B       0.152302      0.759558     -0.968312
  B      -0.142219     -0.763329      0.968003
  B      -1.226831      0.164528     -0.057357
  B       1.224365     -0.161498      0.058030
  B       0.078259      0.843544      0.676023
  B      -0.085877     -0.842803     -0.676387
6
Coordinates from ORCA-job B6_random_3d_seed1003_d1.60_q0_m1_R2SCAN-3C E -148.659855519721
  B       0.149094      0.760225     -0.968236
  B      -0.144718     -0.761954      0.967130
  B      -1.226926      0.164466     -0.057220
  B       1.225314     -0.162510      0.058308
  B       0.080356      0.843067      0.676177
  B      -0.083120     -0.843294     -0.676158
6
Coordinates from ORCA-job B6_random_3d_seed1003_d1.60_q0_m1_R2SCAN-3C E -148.659857560065
  B       0.147516      0.760646     -0.967937
  B      -0.145978     -0.761298      0.966799
  B      -1.227109      0.164507     -0.057128
  B       1.226029     -0.163444      0.058098
  B       0.081019      0.843063      0.676109
  B      -0.081477     -0.843474     -0.675942
6
Coordinates from ORCA-job B6_random_3d_seed1003_d1.60_q0_m1_R2SCAN-3C E -148.659858102671
  B       0.147158      0.760811     -0.967741
  B      -0.146383     -0.761245      0.966916
  B      -1.227117      0.164467     -0.057117
  B       1.226348     -0.163827      0.057843
  B       0.081020      0.843208      0.675972
  B      -0.081026     -0.843415     -0.675873
6
Coordinates from ORCA-job B6_random_3d_seed1003_d1.60_q0_m1_R2SCAN-3C E -148.659858377036
  B       0.147092      0.760925     -0.967599
  B      -0.146588     -0.761275      0.967144
  B      -1.227052      0.164331     -0.057164
  B       1.226581     -0.164001      0.057646
  B       0.080945      0.843314      0.675844
  B      -0.080978     -0.843295     -0.675871
