6
Coordinates from ORCA-job B6_octahedral_3d_d2.20_q0_m1_R2SCAN-3C E -148.479938616605
  B           1.28278814571024      0.00000001525915     -0.00000002338755
  B          -1.28278814400780     -0.00000000122912     -0.00000002093353
  B           0.00000000885576      1.28278831860301     -0.00000002630519
  B          -0.00000000763251     -1.28278835219318     -0.00000001726002
  B          -0.00000000268985      0.00000000525749      1.28278839565351
  B          -0.00000000023584      0.00000001430266     -1.28278830776722
