6
Coordinates from ORCA-job B6_octahedral_3d_d2.20_q0_m1_R2SCAN-3C E -148.335423259662
  B       1.555635      0.000000      0.000000
  B      -1.555635      0.000000      0.000000
  B       0.000000      1.555635      0.000000
  B       0.000000     -1.555635      0.000000
  B       0.000000      0.000000      1.555635
  B       0.000000      0.000000     -1.555635
6
Coordinates from ORCA-job B6_octahedral_3d_d2.20_q0_m1_R2SCAN-3C E -148.360793705142
  B       1.523230     -0.000000     -0.000000
  B      -1.523230     -0.000000     -0.000000
  B       0.000000      1.523230     -0.000000
  B       0.000000     -1.523230     -0.000000
  B      -0.000000      0.000000      1.523230
  B       0.000000      0.000000     -1.523230
6
Coordinates from ORCA-job B6_octahedral_3d_d2.20_q0_m1_R2SCAN-3C E -148.384669588262
  B       1.490824      0.000000      0.000000
  B      -1.490824      0.000000     -0.000000
  B      -0.000000      1.490824     -0.000000
  B      -0.000000     -1.490824      0.000000
  B       0.000000     -0.000000      1.490824
  B      -0.000000     -0.000000     -1.490824
6
Coordinates from ORCA-job B6_octahedral_3d_d2.20_q0_m1_R2SCAN-3C E -148.418591694308
  B       1.442216      0.000000     -0.000000
  B      -1.442216      0.000000     -0.000000
  B       0.000000      1.442216      0.000000
  B      -0.000000     -1.442216      0.000000
  B       0.000000     -0.000000      1.442216
  B      -0.000000     -0.000000     -1.442216
6
Coordinates from ORCA-job B6_octahedral_3d_d2.20_q0_m1_R2SCAN-3C E -148.458711104172
  B       1.369304     -0.000000     -0.000000
  B      -1.369304     -0.000000     -0.000000
  B       0.000000      1.369304      0.000000
  B      -0.000000     -1.369304      0.000000
  B      -0.000000     -0.000000      1.369304
  B      -0.000000     -0.000000     -1.369304
6
Coordinates from ORCA-job B6_octahedral_3d_d2.20_q0_m1_R2SCAN-3C E -148.479541963425
  B       1.293692      0.000000     -0.000000
  B      -1.293692     -0.000000     -0.000000
  B       0.000000      1.293692     -0.000000
  B      -0.000000     -1.293692     -0.000000
  B      -0.000000     -0.000000      1.293692
  B      -0.000000      0.000000     -1.293692
6
Coordinates from ORCA-job B6_octahedral_3d_d2.20_q0_m1_R2SCAN-3C E -148.479900156074
  B       1.279442      0.000000      0.000000
  B      -1.279442     -0.000000      0.000000
  B       0.000000      1.279442      0.000000
  B      -0.000000     -1.279442      0.000000
  B       0.000000     -0.000000      1.279442
  B       0.000000      0.000000     -1.279442
6
Coordinates from ORCA-job B6_octahedral_3d_d2.20_q0_m1_R2SCAN-3C E -148.479938568203
  B       1.282903      0.000000      0.000000
  B      -1.282903     -0.000000      0.000000
  B       0.000000      1.282903      0.000000
  B      -0.000000     -1.282903      0.000000
  B      -0.000000      0.000000      1.282903
  B       0.000000      0.000000     -1.282903
6
Coordinates from ORCA-job B6_octahedral_3d_d2.20_q0_m1_R2SCAN-3C E -148.479938616605
  B       1.282788      0.000000     -0.000000
  B      -1.282788     -0.000000     -0.000000
  B       0.000000      1.282788     -0.000000
  B      -0.000000     -1.282788     -0.000000
  B      -0.000000      0.000000      1.282788
  B      -0.000000      0.000000     -1.282788
