6
Coordinates from ORCA-job B6_rectangular_planar_d2.20_q0_m3_R2SCAN-3C E -148.307513525476
  B      -2.200000     -1.100000      0.000000
  B       0.000000     -1.100000      0.000000
  B       2.200000     -1.100000      0.000000
  B      -2.200000      1.100000      0.000000
  B       0.000000      1.100000      0.000000
  B       2.200000      1.100000      0.000000
6
Coordinates from ORCA-job B6_rectangular_planar_d2.20_q0_m3_R2SCAN-3C E -148.339832861569
  B      -2.136583     -1.072425     -0.000000
  B      -0.000000     -1.072465      0.000000
  B       2.136583     -1.072425     -0.000000
  B      -2.136583      1.072425     -0.000000
  B       0.000000      1.072465      0.000000
  B       2.136583      1.072425     -0.000000
6
Coordinates from ORCA-job B6_rectangular_planar_d2.20_q0_m3_R2SCAN-3C E -148.372133035774
  B      -2.071995     -1.045530     -0.000000
  B      -0.000000     -1.046345      0.000000
  B       2.071995     -1.045530     -0.000000
  B      -2.071995      1.045530     -0.000000
  B       0.000000      1.046345      0.000000
  B       2.071995      1.045530     -0.000000
6
Coordinates from ORCA-job B6_rectangular_planar_d2.20_q0_m3_R2SCAN-3C E -148.418323934830
  B      -1.971868     -1.006354     -0.000000
  B      -0.000000     -1.013507      0.000000
  B       1.971868     -1.006354     -0.000000
  B      -1.971868      1.006354     -0.000000
  B       0.000000      1.013507      0.000000
  B       1.971868      1.006354     -0.000000
6
Coordinates from ORCA-job B6_rectangular_planar_d2.20_q0_m3_R2SCAN-3C E -148.474105866096
  B      -1.816068     -0.951710     -0.000000
  B       0.000000     -0.972891      0.000000
  B       1.816068     -0.951710     -0.000000
  B      -1.816068      0.951710     -0.000000
  B       0.000000      0.972891      0.000000
  B       1.816068      0.951710     -0.000000
6
Coordinates from ORCA-job B6_rectangular_planar_d2.20_q0_m3_R2SCAN-3C E -148.639178163271
  B      -1.660283     -0.887102     -0.000001
  B      -0.000000     -0.951484      0.000002
  B       1.660283     -0.887102     -0.000001
  B      -1.660283      0.887102      0.000001
  B       0.000000      0.951484     -0.000002
  B       1.660283      0.887102      0.000001
6
Coordinates from ORCA-job B6_rectangular_planar_d2.20_q0_m3_R2SCAN-3C E -148.680757891443
  B      -1.512467     -0.810876     -0.000028
  B      -0.000000     -0.919840      0.000003
  B       1.512468     -0.810876      0.000026
  B      -1.512469      0.810876      0.000028
  B       0.000000      0.919841     -0.000003
  B       1.512468      0.810876     -0.000026
6
Coordinates from ORCA-job B6_rectangular_planar_d2.20_q0_m3_R2SCAN-3C E -148.697181927314
  B      -1.550554     -0.740520      0.000065
  B       0.000001     -0.871844      0.000002
  B       1.550556     -0.740522     -0.000067
  B      -1.550570      0.740534     -0.000065
  B      -0.000001      0.871820     -0.000002
  B       1.550568      0.740532      0.000067
6
Coordinates from ORCA-job B6_rectangular_planar_d2.20_q0_m3_R2SCAN-3C E -148.694175539093
  B      -1.637013     -0.783237     -0.000136
  B       0.000000     -0.937919      0.000003
  B       1.637019     -0.783241      0.000132
  B      -1.637032      0.783274      0.000136
  B      -0.000003      0.937852     -0.000003
  B       1.637028      0.783272     -0.000133
6
Coordinates from ORCA-job B6_rectangular_planar_d2.20_q0_m3_R2SCAN-3C E -148.702355544584
  B      -1.581350     -0.762413     -0.000054
  B       0.000003     -0.931736      0.000003
  B       1.581356     -0.762416      0.000051
  B      -1.581391      0.762457      0.000054
  B      -0.000003      0.931657     -0.000003
  B       1.581384      0.762450     -0.000051
6
Coordinates from ORCA-job B6_rectangular_planar_d2.20_q0_m3_R2SCAN-3C E -148.702536084364
  B      -1.571145     -0.757893     -0.000078
  B       0.000004     -0.936055      0.000004
  B       1.571161     -0.757912      0.000074
  B      -1.571180      0.757993      0.000078
  B      -0.000005      0.935874     -0.000004
  B       1.571165      0.757992     -0.000074
6
Coordinates from ORCA-job B6_rectangular_planar_d2.20_q0_m3_R2SCAN-3C E -148.702542689230
  B      -1.572112     -0.758287     -0.000179
  B       0.000012     -0.937700      0.000004
  B       1.572135     -0.758267      0.000175
  B      -1.572315      0.758384      0.000180
  B      -0.000011      0.937544     -0.000006
  B       1.572290      0.758326     -0.000174
6
Coordinates from ORCA-job B6_rectangular_planar_d2.20_q0_m3_R2SCAN-3C E -148.702543339735
  B      -1.572239     -0.758066     -0.000477
  B       0.000029     -0.939063      0.000012
  B       1.572286     -0.758333      0.000464
  B      -1.572171      0.758455      0.000470
  B      -0.000005      0.938364      0.000001
  B       1.572100      0.758643     -0.000471
6
Coordinates from ORCA-job B6_rectangular_planar_d2.20_q0_m3_R2SCAN-3C E -148.702542779716
  B      -1.571643     -0.758592     -0.001425
  B      -0.000024     -0.940246     -0.000013
  B       1.571851     -0.757896      0.001436
  B      -1.572458      0.758982      0.001445
  B      -0.000127      0.939655     -0.000028
  B       1.572400      0.758097     -0.001416
6
Coordinates from ORCA-job B6_rectangular_planar_d2.20_q0_m3_R2SCAN-3C E -148.702544937951
  B      -1.571409     -0.758126     -0.002635
  B       0.000109     -0.940222      0.000002
  B       1.571588     -0.758193      0.002634
  B      -1.572693      0.758654      0.002643
  B      -0.000063      0.939465     -0.000018
  B       1.572467      0.758422     -0.002625
6
Coordinates from ORCA-job B6_rectangular_planar_d2.20_q0_m3_R2SCAN-3C E -148.702977654850
  B      -1.560109     -0.735374     -0.069515
  B       0.004932     -0.948295      0.000016
  B       1.561116     -0.763015      0.069702
  B      -1.578862      0.747177      0.069025
  B       0.001488      0.930837      0.000917
  B       1.571434      0.768670     -0.070145
6
Coordinates from ORCA-job B6_rectangular_planar_d2.20_q0_m3_R2SCAN-3C E -148.704567984763
  B      -1.545639     -0.720932     -0.120860
  B       0.007618     -0.958163     -0.003947
  B       1.548817     -0.760252      0.125016
  B      -1.583131      0.741204      0.120925
  B       0.001971      0.928538      0.004107
  B       1.570363      0.769606     -0.125241
6
Coordinates from ORCA-job B6_rectangular_planar_d2.20_q0_m3_R2SCAN-3C E -148.706654033823
  B      -1.538199     -0.707713     -0.155521
  B       0.007787     -0.969127     -0.006933
  B       1.546366     -0.751477      0.162234
  B      -1.579282      0.743335      0.154397
  B      -0.000040      0.913934      0.008052
  B       1.563368      0.771049     -0.162230
6
Coordinates from ORCA-job B6_rectangular_planar_d2.20_q0_m3_R2SCAN-3C E -148.708590401412
  B      -1.525810     -0.701716     -0.176810
  B       0.010911     -0.980843     -0.009719
  B       1.536461     -0.743331      0.184745
  B      -1.584668      0.747955      0.177362
  B      -0.001317      0.909888      0.009574
  B       1.564423      0.768047     -0.185151
6
Coordinates from ORCA-job B6_rectangular_planar_d2.20_q0_m3_R2SCAN-3C E -148.711033004344
  B      -1.519159     -0.700801     -0.184630
  B       0.010033     -1.002645     -0.011095
  B       1.540269     -0.724930      0.188666
  B      -1.585533      0.773392      0.185455
  B      -0.007234      0.887687      0.010124
  B       1.561624      0.767296     -0.188521
6
Coordinates from ORCA-job B6_rectangular_planar_d2.20_q0_m3_R2SCAN-3C E -148.713051943448
  B      -1.504813     -0.691335     -0.193903
  B       0.014708     -1.024398     -0.012153
  B       1.533486     -0.709762      0.196098
  B      -1.594164      0.791550      0.196698
  B      -0.011919      0.866622      0.010444
  B       1.562702      0.767323     -0.197183
6
Coordinates from ORCA-job B6_rectangular_planar_d2.20_q0_m3_R2SCAN-3C E -148.716112900498
  B      -1.479748     -0.672717     -0.203036
  B       0.021210     -1.060513     -0.014017
  B       1.522873     -0.686871      0.203607
  B      -1.607354      0.820966      0.209313
  B      -0.020183      0.827844      0.010860
  B       1.563202      0.771292     -0.206728
6
Coordinates from ORCA-job B6_rectangular_planar_d2.20_q0_m3_R2SCAN-3C E -148.720384791134
  B      -1.440186     -0.637529     -0.213957
  B       0.032694     -1.116352     -0.017275
  B       1.503370     -0.652900      0.214675
  B      -1.621495      0.862753      0.225286
  B      -0.033145      0.762370      0.011816
  B       1.558762      0.781657     -0.220545
6
Coordinates from ORCA-job B6_rectangular_planar_d2.20_q0_m3_R2SCAN-3C E -148.724255522680
  B      -1.375221     -0.579686     -0.232468
  B       0.037328     -1.185097     -0.026322
  B       1.465217     -0.607001      0.245005
  B      -1.629659      0.902771      0.252335
  B      -0.050027      0.667032      0.014589
  B       1.552362      0.801982     -0.253140
6
Coordinates from ORCA-job B6_rectangular_planar_d2.20_q0_m3_R2SCAN-3C E -148.724561264304
  B      -1.380319     -0.547629     -0.302225
  B       0.049362     -1.171031     -0.038336
  B       1.421155     -0.584173      0.341501
  B      -1.619738      0.849371      0.318131
  B      -0.018292      0.673794      0.021118
  B       1.547832      0.779667     -0.340189
6
Coordinates from ORCA-job B6_rectangular_planar_d2.20_q0_m3_R2SCAN-3C E -148.724937172447
  B      -1.418732     -0.539973     -0.197872
  B       0.040381     -1.220040     -0.046255
  B       1.431421     -0.546249      0.242592
  B      -1.604182      0.915657      0.221803
  B      -0.003548      0.534742      0.024670
  B       1.554660      0.855864     -0.244938
6
Coordinates from ORCA-job B6_rectangular_planar_d2.20_q0_m3_R2SCAN-3C E -148.722414793568
  B      -1.395331     -0.562987     -0.204134
  B      -0.050421     -1.196971     -0.018423
  B       1.450447     -0.570298      0.221448
  B      -1.614608      0.851710      0.219846
  B      -0.018580      0.602190      0.025856
  B       1.628494      0.876357     -0.244592
6
Coordinates from ORCA-job B6_rectangular_planar_d2.20_q0_m3_R2SCAN-3C E -148.727941614052
  B      -1.404362     -0.569234     -0.214511
  B       0.013223     -1.209637      0.000824
  B       1.436749     -0.590699      0.199274
  B      -1.618093      0.886979      0.221435
  B      -0.020279      0.619186      0.021174
  B       1.592762      0.863405     -0.228196
6
Coordinates from ORCA-job B6_rectangular_planar_d2.20_q0_m3_R2SCAN-3C E -148.728129840856
  B      -1.412281     -0.570659     -0.168443
  B       0.009492     -1.219311     -0.038479
  B       1.410861     -0.565412      0.216675
  B      -1.605132      0.894890      0.222704
  B      -0.000290      0.580786     -0.029391
  B       1.597349      0.879706     -0.203066
6
Coordinates from ORCA-job B6_rectangular_planar_d2.20_q0_m3_R2SCAN-3C E -148.728255907528
  B      -1.406921     -0.563408     -0.194322
  B      -0.002855     -1.218787      0.014366
  B       1.418580     -0.571139      0.157116
  B      -1.611903      0.892651      0.195382
  B       0.007333      0.568878      0.028662
  B       1.595766      0.891805     -0.201204
6
Coordinates from ORCA-job B6_rectangular_planar_d2.20_q0_m3_R2SCAN-3C E -148.728470019780
  B      -1.417170     -0.580157     -0.177183
  B       0.000022     -1.207876      0.000855
  B       1.422623     -0.586763      0.164121
  B      -1.609764      0.883671      0.198056
  B      -0.007000      0.604679      0.003963
  B       1.611290      0.886447     -0.189811
6
Coordinates from ORCA-job B6_rectangular_planar_d2.20_q0_m3_R2SCAN-3C E -148.728601758521
  B      -1.415980     -0.576546     -0.165613
  B       0.000336     -1.217583     -0.007722
  B       1.415038     -0.576322      0.164563
  B      -1.607349      0.891257      0.193441
  B      -0.000667      0.586956      0.000259
  B       1.608623      0.892238     -0.184928
6
Coordinates from ORCA-job B6_rectangular_planar_d2.20_q0_m3_R2SCAN-3C E -148.728608103811
  B      -1.417472     -0.577400     -0.164393
  B      -0.000679     -1.216078     -0.004310
  B       1.416299     -0.577308      0.158216
  B      -1.607887      0.890977      0.189854
  B       0.000762      0.586465      0.002306
  B       1.608977      0.893345     -0.181673
6
Coordinates from ORCA-job B6_rectangular_planar_d2.20_q0_m3_R2SCAN-3C E -148.728609424745
  B      -1.417601     -0.577662     -0.161996
  B      -0.000821     -1.216839     -0.003834
  B       1.415875     -0.577328      0.155057
  B      -1.607544      0.891559      0.187296
  B       0.000328      0.585783      0.002892
  B       1.609763      0.894487     -0.179414
6
Coordinates from ORCA-job B6_rectangular_planar_d2.20_q0_m3_R2SCAN-3C E -148.728609753373
  B      -1.417700     -0.578024     -0.160542
  B      -0.000683     -1.216960     -0.004560
  B       1.415997     -0.577591      0.154640
  B      -1.607857      0.891867      0.186440
  B       0.000467      0.586229      0.002659
  B       1.609776      0.894480     -0.178637
6
Coordinates from ORCA-job B6_rectangular_planar_d2.20_q0_m3_R2SCAN-3C E -148.728609915781
  B      -1.417755     -0.577875     -0.159805
  B      -0.000558     -1.216971     -0.004780
  B       1.416210     -0.577696      0.154394
  B      -1.607959      0.892021      0.186234
  B       0.000345      0.585948      0.001914
  B       1.609718      0.894572     -0.177957
6
Coordinates from ORCA-job B6_rectangular_planar_d2.20_q0_m3_R2SCAN-3C E -148.728610088714
  B      -1.417473     -0.577601     -0.159366
  B      -0.000311     -1.217004     -0.004974
  B       1.416507     -0.577943      0.154185
  B      -1.608310      0.892312      0.185791
  B       0.000186      0.585738      0.002200
  B       1.609401      0.894498     -0.177836
6
Coordinates from ORCA-job B6_rectangular_planar_d2.20_q0_m3_R2SCAN-3C E -148.728610190577
  B      -1.416945     -0.577181     -0.159216
  B      -0.000013     -1.217073     -0.005081
  B       1.416894     -0.578341      0.154170
  B      -1.608858      0.892579      0.185606
  B      -0.000004      0.585722      0.002424
  B       1.608927      0.894295     -0.177903
6
Coordinates from ORCA-job B6_rectangular_planar_d2.20_q0_m3_R2SCAN-3C E -148.728610193121
  B      -1.416938     -0.577164     -0.159288
  B       0.000027     -1.217010     -0.005170
  B       1.416939     -0.578378      0.154346
  B      -1.608886      0.892562      0.185648
  B      -0.000013      0.585763      0.002536
  B       1.608871      0.894228     -0.178072
