6
Coordinates from ORCA-job B6_rectangular_planar_d2.20_q0_m3_R2SCAN-3C E -148.728610193121
  B          -1.41693754265869     -0.57716357658050     -0.15928800319618
  B           0.00002657513245     -1.21701030435929     -0.00516981062320
  B           1.41693853219541     -0.57837837029980      0.15434562783321
  B          -1.60888563285718      0.89256157155516      0.18564843180377
  B          -0.00001290839946      0.58576284444540      0.00253602405362
  B           1.60887097658748      0.89422783523903     -0.17807226987123
