6
Coordinates from ORCA-job B6_octahedral_3d_d3.00_q0_m5_R2SCAN-3C E -148.645469863757
  B           1.31921460562185      0.09116958280702     -0.08966517675615
  B          -1.31916213362186     -0.09217468482257      0.08837258842033
  B           0.07957158920460      1.17175810869327      0.03391136694174
  B          -0.07794814333131     -1.17145566301141     -0.03301737547717
  B          -0.08267517961632      0.04424292124175      1.17115966980793
  B           0.08099926174304     -0.04354026490805     -1.17076107293667
