6
Coordinates from ORCA-job B6_octahedral_3d_d3.00_q0_m5_R2SCAN-3C E -148.023013241257
  B       2.121320      0.000000      0.000000
  B      -2.121320      0.000000      0.000000
  B       0.000000      2.121320      0.000000
  B       0.000000     -2.121320      0.000000
  B       0.000000      0.000000      2.121320
  B       0.000000      0.000000     -2.121320
6
Coordinates from ORCA-job B6_octahedral_3d_d3.00_q0_m5_R2SCAN-3C E -148.045602226438
  B       2.089341      0.004590     -0.004462
  B      -2.089418     -0.004740      0.004985
  B       0.004672      2.089271     -0.004924
  B      -0.004659     -2.089361      0.004406
  B      -0.004692     -0.004545      2.089443
  B       0.004756      0.004785     -2.089449
6
Coordinates from ORCA-job B6_octahedral_3d_d3.00_q0_m5_R2SCAN-3C E -148.059463309466
  B       2.057456      0.007218     -0.006608
  B      -2.062893     -0.009245      0.007818
  B       0.008996      2.062466     -0.007760
  B      -0.007466     -2.057395      0.006488
  B      -0.005238     -0.008625      2.052060
  B       0.009145      0.005581     -2.051998
6
Coordinates from ORCA-job B6_octahedral_3d_d3.00_q0_m5_R2SCAN-3C E -148.069062664391
  B       2.036478      0.008974     -0.008088
  B      -2.045588     -0.012397      0.009827
  B       0.012002      2.044946     -0.009781
  B      -0.009367     -2.036354      0.007920
  B      -0.005682     -0.011398      2.026629
  B       0.012157      0.006229     -2.026506
6
Coordinates from ORCA-job B6_octahedral_3d_d3.00_q0_m5_R2SCAN-3C E -148.084004824568
  B       2.005031      0.011829     -0.010536
  B      -2.019249     -0.017299      0.013103
  B       0.016685      2.018275     -0.013077
  B      -0.012440     -2.004817      0.010294
  B      -0.006774     -0.015622      1.988826
  B       0.016747      0.007634     -1.988609
6
Coordinates from ORCA-job B6_octahedral_3d_d3.00_q0_m5_R2SCAN-3C E -148.107768074420
  B       1.957867      0.016486     -0.014552
  B      -1.979297     -0.025019      0.018453
  B       0.024072      1.977768     -0.018474
  B      -0.017430     -1.957512      0.014199
  B      -0.009028     -0.022120      1.932627
  B       0.023816      0.010397     -1.932253
6
Coordinates from ORCA-job B6_octahedral_3d_d3.00_q0_m5_R2SCAN-3C E -148.146484434125
  B       1.887496      0.024534     -0.019967
  B      -1.920574     -0.037372      0.025631
  B       0.036331      1.914220     -0.028528
  B      -0.025556     -1.885678      0.021601
  B      -0.011534     -0.032854      1.849830
  B       0.033837      0.017150     -1.848567
6
Coordinates from ORCA-job B6_octahedral_3d_d3.00_q0_m5_R2SCAN-3C E -148.190829586162
  B       1.814938      0.034312     -0.026543
  B      -1.860803     -0.051970      0.034551
  B       0.050677      1.847972     -0.040006
  B      -0.035527     -1.810456      0.029967
  B      -0.015070     -0.044907      1.764357
  B       0.045785      0.025050     -1.762326
6
Coordinates from ORCA-job B6_octahedral_3d_d3.00_q0_m5_R2SCAN-3C E -148.240132080306
  B       1.742556      0.045932     -0.035001
  B      -1.802405     -0.069105      0.046122
  B       0.067236      1.782565     -0.053418
  B      -0.047629     -1.734576      0.039822
  B      -0.020413     -0.059167      1.679347
  B       0.060655      0.034351     -1.676872
6
Coordinates from ORCA-job B6_octahedral_3d_d3.00_q0_m5_R2SCAN-3C E -148.295344798931
  B       1.670487      0.060162     -0.046644
  B      -1.745861     -0.089685      0.061379
  B       0.086975      1.719131     -0.069715
  B      -0.062595     -1.658607      0.052408
  B      -0.028783     -0.077020      1.595027
  B       0.079777      0.046019     -1.592454
6
Coordinates from ORCA-job B6_octahedral_3d_d3.00_q0_m5_R2SCAN-3C E -148.358126269854
  B       1.600973      0.077916     -0.062970
  B      -1.692311     -0.114377      0.080879
  B       0.110483      1.657022     -0.088884
  B      -0.081222     -1.583258      0.067715
  B      -0.041679     -0.097965      1.511723
  B       0.103757      0.060662     -1.508463
6
Coordinates from ORCA-job B6_octahedral_3d_d3.00_q0_m5_R2SCAN-3C E -148.430221193498
  B       1.534801      0.098295     -0.079456
  B      -1.639423     -0.141649      0.099210
  B       0.136214      1.594556     -0.110116
  B      -0.103066     -1.509309      0.085769
  B      -0.054759     -0.120439      1.428597
  B       0.126234      0.078546     -1.424004
6
Coordinates from ORCA-job B6_octahedral_3d_d3.00_q0_m5_R2SCAN-3C E -148.503541188047
  B       1.466505      0.118823     -0.093983
  B      -1.579746     -0.168942      0.116876
  B       0.161932      1.530817     -0.128908
  B      -0.125621     -1.436435      0.100323
  B      -0.068545     -0.138654      1.347580
  B       0.145475      0.094390     -1.341887
6
Coordinates from ORCA-job B6_octahedral_3d_d3.00_q0_m5_R2SCAN-3C E -148.564079373129
  B       1.393345      0.137990     -0.103336
  B      -1.504685     -0.194015      0.135535
  B       0.185079      1.459797     -0.140892
  B      -0.147645     -1.365320      0.103774
  B      -0.085010     -0.143886      1.273232
  B       0.158915      0.105434     -1.268313
6
Coordinates from ORCA-job B6_octahedral_3d_d3.00_q0_m5_R2SCAN-3C E -148.600779121018
  B       1.322322      0.138762     -0.088091
  B      -1.413216     -0.202343      0.139531
  B       0.189613      1.382421     -0.136460
  B      -0.153870     -1.294662      0.085969
  B      -0.088234     -0.124517      1.206406
  B       0.143385      0.100339     -1.207355
6
Coordinates from ORCA-job B6_octahedral_3d_d3.00_q0_m5_R2SCAN-3C E -148.622279136737
  B       1.269003      0.106615     -0.046597
  B      -1.338583     -0.168908      0.115417
  B       0.157339      1.316310     -0.105027
  B      -0.120329     -1.247833      0.042501
  B      -0.063192     -0.074794      1.166348
  B       0.095762      0.068610     -1.172642
6
Coordinates from ORCA-job B6_octahedral_3d_d3.00_q0_m5_R2SCAN-3C E -148.636136282821
  B       1.238735      0.073702     -0.013084
  B      -1.280192     -0.121419      0.082543
  B       0.113158      1.260240     -0.053757
  B      -0.080828     -1.220249     -0.007455
  B      -0.036165     -0.012657      1.136462
  B       0.045292      0.020383     -1.144708
6
Coordinates from ORCA-job B6_octahedral_3d_d3.00_q0_m5_R2SCAN-3C E -148.641160449349
  B       1.250462      0.083596     -0.014094
  B      -1.242620     -0.111629      0.083843
  B       0.103824      1.226467      0.017666
  B      -0.085209     -1.218265     -0.077064
  B      -0.050116      0.069203      1.115682
  B       0.023659     -0.049372     -1.126032
6
Coordinates from ORCA-job B6_octahedral_3d_d3.00_q0_m5_R2SCAN-3C E -148.644112412618
  B       1.261234      0.092249     -0.026311
  B      -1.278636     -0.121893      0.085059
  B       0.117086      1.243747      0.007158
  B      -0.092130     -1.251466     -0.065827
  B      -0.048588      0.065771      1.138335
  B       0.041034     -0.028408     -1.138414
6
Coordinates from ORCA-job B6_octahedral_3d_d3.00_q0_m5_R2SCAN-3C E -148.644169508697
  B       1.280574      0.086592     -0.039117
  B      -1.272577     -0.132537      0.085475
  B       0.111821      1.261560      0.016008
  B      -0.103155     -1.243248     -0.065058
  B      -0.060444      0.065405      1.141935
  B       0.043781     -0.037772     -1.139243
6
Coordinates from ORCA-job B6_octahedral_3d_d3.00_q0_m5_R2SCAN-3C E -148.644491254353
  B       1.274514      0.093778     -0.046113
  B      -1.280237     -0.130761      0.080053
  B       0.115761      1.247772      0.028863
  B      -0.102748     -1.247504     -0.064119
  B      -0.055755      0.076463      1.137964
  B       0.048465     -0.039747     -1.136649
6
Coordinates from ORCA-job B6_octahedral_3d_d3.00_q0_m5_R2SCAN-3C E -148.644611978590
  B       1.276343      0.095915     -0.047116
  B      -1.282012     -0.126209      0.074802
  B       0.115566      1.244996      0.026034
  B      -0.100050     -1.244584     -0.054574
  B      -0.054927      0.066398      1.135354
  B       0.045079     -0.036515     -1.134500
6
Coordinates from ORCA-job B6_octahedral_3d_d3.00_q0_m5_R2SCAN-3C E -148.644705923906
  B       1.280859      0.096622     -0.056999
  B      -1.288075     -0.120426      0.069912
  B       0.113154      1.242395      0.030547
  B      -0.095910     -1.237123     -0.045147
  B      -0.057535      0.057878      1.134751
  B       0.047506     -0.039345     -1.133064
6
Coordinates from ORCA-job B6_octahedral_3d_d3.00_q0_m5_R2SCAN-3C E -148.644710877247
  B       1.307133      0.110304     -0.081617
  B      -1.309342     -0.115147      0.054466
  B       0.114711      1.227831      0.047708
  B      -0.096685     -1.212715     -0.015518
  B      -0.064485      0.037170      1.127621
  B       0.048669     -0.047443     -1.132659
6
Coordinates from ORCA-job B6_octahedral_3d_d3.00_q0_m5_R2SCAN-3C E -148.644889013341
  B       1.297885      0.103172     -0.074194
  B      -1.303990     -0.116985      0.063602
  B       0.112598      1.231652      0.042393
  B      -0.095042     -1.221472     -0.031456
  B      -0.063480      0.049463      1.133382
  B       0.052029     -0.045830     -1.133727
6
Coordinates from ORCA-job B6_octahedral_3d_d3.00_q0_m5_R2SCAN-3C E -148.644958672403
  B       1.302604      0.101783     -0.077260
  B      -1.310089     -0.114990      0.066370
  B       0.109966      1.225400      0.043031
  B      -0.092289     -1.215039     -0.030589
  B      -0.065856      0.048828      1.134157
  B       0.055665     -0.045982     -1.135709
6
Coordinates from ORCA-job B6_octahedral_3d_d3.00_q0_m5_R2SCAN-3C E -148.644485170977
  B       1.338172      0.089532     -0.091415
  B      -1.354801     -0.106353      0.090899
  B       0.091365      1.174233      0.037577
  B      -0.074214     -1.157334     -0.031538
  B      -0.081271      0.044805      1.148424
  B       0.080749     -0.044883     -1.153946
6
Coordinates from ORCA-job B6_octahedral_3d_d3.00_q0_m5_R2SCAN-3C E -148.645220806113
  B       1.311916      0.091680     -0.074594
  B      -1.323064     -0.113414      0.084637
  B       0.100233      1.205748      0.036353
  B      -0.084575     -1.193680     -0.036485
  B      -0.071938      0.051657      1.141373
  B       0.067427     -0.041992     -1.151284
6
Coordinates from ORCA-job B6_octahedral_3d_d3.00_q0_m5_R2SCAN-3C E -148.645299573965
  B       1.313145      0.087769     -0.072935
  B      -1.325480     -0.113410      0.090033
  B       0.096824      1.199376      0.031781
  B      -0.082578     -1.185857     -0.039146
  B      -0.072960      0.051955      1.145988
  B       0.071048     -0.039833     -1.155722
6
Coordinates from ORCA-job B6_octahedral_3d_d3.00_q0_m5_R2SCAN-3C E -148.645364973480
  B       1.318620      0.074557     -0.068947
  B      -1.330339     -0.111586      0.107559
  B       0.083520      1.180203      0.021766
  B      -0.076452     -1.164373     -0.042660
  B      -0.077967      0.053050      1.155488
  B       0.082617     -0.031851     -1.173206
6
Coordinates from ORCA-job B6_octahedral_3d_d3.00_q0_m5_R2SCAN-3C E -148.645401410336
  B       1.314397      0.078276     -0.070635
  B      -1.327678     -0.112038      0.101680
  B       0.086815      1.184930      0.024491
  B      -0.078551     -1.168133     -0.042725
  B      -0.075589      0.052597      1.157904
  B       0.080606     -0.035632     -1.170715
6
Coordinates from ORCA-job B6_octahedral_3d_d3.00_q0_m5_R2SCAN-3C E -148.645415587141
  B       1.314333      0.079350     -0.072375
  B      -1.325977     -0.110442      0.100914
  B       0.086274      1.184840      0.025673
  B      -0.078825     -1.169720     -0.041523
  B      -0.076639      0.052021      1.158247
  B       0.080834     -0.036048     -1.170936
6
Coordinates from ORCA-job B6_octahedral_3d_d3.00_q0_m5_R2SCAN-3C E -148.645449647119
  B       1.315376      0.082878     -0.080148
  B      -1.321949     -0.102879      0.097324
  B       0.082205      1.179466      0.029369
  B      -0.078495     -1.169936     -0.037575
  B      -0.080023      0.049069      1.164372
  B       0.082887     -0.038598     -1.173343
6
Coordinates from ORCA-job B6_octahedral_3d_d3.00_q0_m5_R2SCAN-3C E -148.645464925084
  B       1.317188      0.086964     -0.086585
  B      -1.319595     -0.095819      0.092915
  B       0.079339      1.173896      0.032188
  B      -0.077799     -1.170017     -0.034695
  B      -0.082331      0.046289      1.169737
  B       0.083200     -0.041312     -1.173560
6
Coordinates from ORCA-job B6_octahedral_3d_d3.00_q0_m5_R2SCAN-3C E -148.645469145608
  B       1.318597      0.089861     -0.089380
  B      -1.319007     -0.092570      0.089853
  B       0.078924      1.171568      0.033543
  B      -0.077613     -1.170605     -0.033461
  B      -0.083046      0.044773      1.171718
  B       0.082146     -0.043027     -1.172273
6
Coordinates from ORCA-job B6_octahedral_3d_d3.00_q0_m5_R2SCAN-3C E -148.645469816324
  B       1.319110      0.090908     -0.089756
  B      -1.319126     -0.092124      0.088673
  B       0.079380      1.171540      0.033869
  B      -0.077781     -1.171181     -0.033117
  B      -0.082873      0.044342      1.171496
  B       0.081290     -0.043485     -1.171164
6
Coordinates from ORCA-job B6_octahedral_3d_d3.00_q0_m5_R2SCAN-3C E -148.645469863757
  B       1.319215      0.091170     -0.089665
  B      -1.319162     -0.092175      0.088373
  B       0.079572      1.171758      0.033911
  B      -0.077948     -1.171456     -0.033017
  B      -0.082675      0.044243      1.171160
  B       0.080999     -0.043540     -1.170761
