6
Coordinates from ORCA-job B6_linear_chain_d2.50_q0_m1_R2SCAN-3C E -148.501913867712
  B          -4.06088721773506      0.00001033424359     -0.00000007705686
  B          -2.30770243686061      0.00000043827945     -0.00001013189042
  B          -0.75715441149825     -0.00000734623197      0.00000565998971
  B           0.75716159594470     -0.00000304682115      0.00000002558005
  B           2.30770592149006     -0.00002528748273      0.00002387711576
  B           4.06087654865917      0.00002490801280     -0.00001935373824
