6
Coordinates from ORCA-job B6_linear_chain_d2.50_q0_m1_R2SCAN-3C E -148.012706152744
  B      -6.250000      0.000000      0.000000
  B      -3.750000      0.000000      0.000000
  B      -1.250000      0.000000      0.000000
  B       1.250000      0.000000      0.000000
  B       3.750000      0.000000      0.000000
  B       6.250000      0.000000      0.000000
6
Coordinates from ORCA-job B6_linear_chain_d2.50_q0_m1_R2SCAN-3C E -148.045401139909
  B      -6.074008      0.000000     -0.000000
  B      -3.633156     -0.000000      0.000000
  B      -1.210437     -0.000000      0.000000
  B       1.210437     -0.000000      0.000000
  B       3.633157     -0.000000      0.000000
  B       6.074008      0.000000     -0.000000
6
Coordinates from ORCA-job B6_linear_chain_d2.50_q0_m1_R2SCAN-3C E -148.081609502789
  B      -5.898817      0.000000     -0.000000
  B      -3.514153     -0.000000      0.000000
  B      -1.169751     -0.000000      0.000000
  B       1.169750     -0.000000      0.000000
  B       3.514154     -0.000000      0.000000
  B       5.898818      0.000000     -0.000000
6
Coordinates from ORCA-job B6_linear_chain_d2.50_q0_m1_R2SCAN-3C E -148.143150947005
  B      -5.637691      0.000000     -0.000000
  B      -3.332234     -0.000000      0.000000
  B      -1.106797     -0.000000      0.000000
  B       1.106795     -0.000000      0.000000
  B       3.332235     -0.000000      0.000000
  B       5.637692      0.000000     -0.000000
6
Coordinates from ORCA-job B6_linear_chain_d2.50_q0_m1_R2SCAN-3C E -148.236109239540
  B      -5.292140      0.000000     -0.000000
  B      -3.094104     -0.000000      0.000000
  B      -1.027420     -0.000000      0.000000
  B       1.027418     -0.000000      0.000000
  B       3.094105     -0.000000      0.000000
  B       5.292140      0.000000     -0.000000
6
Coordinates from ORCA-job B6_linear_chain_d2.50_q0_m1_R2SCAN-3C E -148.335163664907
  B      -4.956162      0.000000     -0.000000
  B      -2.855974     -0.000000      0.000000
  B      -0.948044     -0.000000      0.000000
  B       0.948042     -0.000000      0.000000
  B       2.855975     -0.000000      0.000000
  B       4.956163      0.000000     -0.000000
6
Coordinates from ORCA-job B6_linear_chain_d2.50_q0_m1_R2SCAN-3C E -148.426721992189
  B      -4.627003      0.000000     -0.000000
  B      -2.617843     -0.000000      0.000000
  B      -0.868666     -0.000000      0.000000
  B       0.868666     -0.000000      0.000000
  B       2.617847     -0.000000      0.000000
  B       4.626999      0.000000     -0.000000
6
Coordinates from ORCA-job B6_linear_chain_d2.50_q0_m1_R2SCAN-3C E -148.489393874776
  B      -4.280561      0.000000     -0.000000
  B      -2.379716     -0.000000      0.000000
  B      -0.789292     -0.000000      0.000000
  B       0.789288     -0.000000      0.000000
  B       2.379715     -0.000000      0.000000
  B       4.280566      0.000000     -0.000000
6
Coordinates from ORCA-job B6_linear_chain_d2.50_q0_m1_R2SCAN-3C E -148.493143462234
  B      -4.048787      0.000000     -0.000000
  B      -2.306695     -0.000000      0.000000
  B      -0.709922     -0.000000      0.000000
  B       0.709904     -0.000000     -0.000000
  B       2.306701     -0.000000      0.000000
  B       4.048799      0.000000     -0.000000
6
Coordinates from ORCA-job B6_linear_chain_d2.50_q0_m1_R2SCAN-3C E -148.469652552973
  B      -3.831682      0.000000      0.000000
  B      -2.227324     -0.000000      0.000000
  B      -0.789305     -0.000000     -0.000000
  B       0.789275     -0.000000     -0.000000
  B       2.227318     -0.000000      0.000000
  B       3.831718      0.000000      0.000000
6
Coordinates from ORCA-job B6_linear_chain_d2.50_q0_m1_R2SCAN-3C E -148.499496208115
  B      -4.078169      0.000000     -0.000000
  B      -2.340610     -0.000000      0.000000
  B      -0.789620     -0.000000      0.000000
  B       0.789649     -0.000000      0.000000
  B       2.340595     -0.000000      0.000000
  B       4.078155      0.000000     -0.000000
6
Coordinates from ORCA-job B6_linear_chain_d2.50_q0_m1_R2SCAN-3C E -148.497458382564
  B      -4.062133      0.000000     -0.000000
  B      -2.247901     -0.000000      0.000000
  B      -0.736396     -0.000000      0.000000
  B       0.736000     -0.000000      0.000000
  B       2.248079     -0.000000      0.000000
  B       4.062351      0.000000     -0.000000
6
Coordinates from ORCA-job B6_linear_chain_d2.50_q0_m1_R2SCAN-3C E -148.499506686897
  B      -4.032666      0.000000     -0.000000
  B      -2.314023     -0.000000      0.000000
  B      -0.736703     -0.000000      0.000000
  B       0.738309     -0.000000      0.000000
  B       2.313175     -0.000000      0.000000
  B       4.031908      0.000000     -0.000000
6
Coordinates from ORCA-job B6_linear_chain_d2.50_q0_m1_R2SCAN-3C E -148.500034832291
  B      -4.090997      0.000000     -0.000000
  B      -2.336544     -0.000000      0.000000
  B      -0.790057     -0.000000      0.000000
  B       0.781330     -0.000000      0.000000
  B       2.341453     -0.000000      0.000000
  B       4.094815      0.000000     -0.000000
6
Coordinates from ORCA-job B6_linear_chain_d2.50_q0_m1_R2SCAN-3C E -148.498750206929
  B      -4.086386      0.000000     -0.000000
  B      -2.328630     -0.000000      0.000000
  B      -0.727245     -0.000000      0.000000
  B       0.796224     -0.000000      0.000000
  B       2.290270     -0.000000      0.000000
  B       4.055767      0.000001     -0.000000
6
Coordinates from ORCA-job B6_linear_chain_d2.50_q0_m1_R2SCAN-3C E -148.501390070166
  B      -4.055996      0.000001     -0.000000
  B      -2.298127     -0.000000      0.000000
  B      -0.738613     -0.000000      0.000000
  B       0.749533     -0.000000      0.000000
  B       2.291742     -0.000001      0.000000
  B       4.051460      0.000001     -0.000000
6
Coordinates from ORCA-job B6_linear_chain_d2.50_q0_m1_R2SCAN-3C E -148.501598067498
  B      -4.071446      0.000001     -0.000000
  B      -2.318618     -0.000000     -0.000000
  B      -0.772278     -0.000000      0.000000
  B       0.761944     -0.000000     -0.000000
  B       2.324433     -0.000001      0.000001
  B       4.075965      0.000001     -0.000001
6
Coordinates from ORCA-job B6_linear_chain_d2.50_q0_m1_R2SCAN-3C E -148.501912232060
  B      -4.063026      0.000001     -0.000000
  B      -2.308724     -0.000001     -0.000000
  B      -0.757739     -0.000001      0.000000
  B       0.757643     -0.000000     -0.000000
  B       2.309156     -0.000002      0.000002
  B       4.062689      0.000002     -0.000001
6
Coordinates from ORCA-job B6_linear_chain_d2.50_q0_m1_R2SCAN-3C E -148.501909941837
  B      -4.059134      0.000002     -0.000000
  B      -2.308676     -0.000001     -0.000001
  B      -0.758218     -0.000001      0.000001
  B       0.755988     -0.000000     -0.000000
  B       2.306848     -0.000004      0.000004
  B       4.063192      0.000004     -0.000003
6
Coordinates from ORCA-job B6_linear_chain_d2.50_q0_m1_R2SCAN-3C E -148.501911204151
  B      -4.059896      0.000004     -0.000001
  B      -2.306060     -0.000001     -0.000002
  B      -0.755765     -0.000002      0.000002
  B       0.757034     -0.000001     -0.000000
  B       2.306562     -0.000008      0.000007
  B       4.058126      0.000008     -0.000006
6
Coordinates from ORCA-job B6_linear_chain_d2.50_q0_m1_R2SCAN-3C E -148.501913633627
  B      -4.061656      0.000005     -0.000001
  B      -2.307993     -0.000001     -0.000003
  B      -0.757313     -0.000003      0.000002
  B       0.757445     -0.000001     -0.000000
  B       2.308266     -0.000009      0.000009
  B       4.061250      0.000009     -0.000007
6
Coordinates from ORCA-job B6_linear_chain_d2.50_q0_m1_R2SCAN-3C E -148.501913860028
  B      -4.060783      0.000007     -0.000000
  B      -2.307722     -0.000000     -0.000006
  B      -0.757188     -0.000005      0.000004
  B       0.757101     -0.000002     -0.000000
  B       2.307643     -0.000017      0.000015
  B       4.060949      0.000016     -0.000012
6
Coordinates from ORCA-job B6_linear_chain_d2.50_q0_m1_R2SCAN-3C E -148.501913867712
  B      -4.060887      0.000010     -0.000000
  B      -2.307702      0.000000     -0.000010
  B      -0.757154     -0.000007      0.000006
  B       0.757162     -0.000003      0.000000
  B       2.307706     -0.000025      0.000024
  B       4.060877      0.000025     -0.000019
