6
Coordinates from ORCA-job B6_random_3d_seed1000_d2.50_q0_m3_R2SCAN-3C E -148.743347149551
  B           0.97937746703673     -0.23384266320565      0.98503532885350
  B           1.39632955551415     -1.47294616779726      0.20951737959141
  B           0.18875829799657     -0.74633224620421     -0.54658519833076
  B          -0.18878507891636      0.74632166461150      0.54662246732814
  B          -1.39632627488641      1.47292422186221     -0.20949711473862
  B          -0.97935395674469      0.23387519073340     -0.98509286270368
