6
Coordinates from ORCA-job B6_random_3d_seed1000_d2.50_q0_m3_R2SCAN-3C E -148.181449703907
  B       0.769497     -0.791239      1.567437
  B       1.974748     -0.208730     -0.572847
  B      -0.037640     -1.822347     -0.676393
  B      -0.858908      0.904332      1.333443
  B      -0.103949      1.877160     -0.845414
  B      -1.743748      0.040824     -0.806226
6
Coordinates from ORCA-job B6_random_3d_seed1000_d2.50_q0_m3_R2SCAN-3C E -148.208672111689
  B       0.747720     -0.764845      1.535749
  B       1.944033     -0.211115     -0.558448
  B      -0.043203     -1.785304     -0.666479
  B      -0.834067      0.877709      1.305970
  B      -0.111254      1.844886     -0.828737
  B      -1.703229      0.038669     -0.788055
6
Coordinates from ORCA-job B6_random_3d_seed1000_d2.50_q0_m3_R2SCAN-3C E -148.237349685399
  B       0.725722     -0.737941      1.504393
  B       1.913637     -0.213643     -0.544095
  B      -0.049248     -1.747950     -0.656989
  B      -0.808905      0.850888      1.278585
  B      -0.118652      1.812616     -0.811959
  B      -1.662554      0.036031     -0.769934
6
Coordinates from ORCA-job B6_random_3d_seed1000_d2.50_q0_m3_R2SCAN-3C E -148.282770375709
  B       0.693032     -0.697697      1.457652
  B       1.867971     -0.217528     -0.522656
  B      -0.058681     -1.690891     -0.643062
  B      -0.771302      0.811136      1.237649
  B      -0.129624      1.763609     -0.786570
  B      -1.601396      0.031370     -0.743013
6
Coordinates from ORCA-job B6_random_3d_seed1000_d2.50_q0_m3_R2SCAN-3C E -148.355672154205
  B       0.645611     -0.638574      1.388105
  B       1.798962     -0.224058     -0.490589
  B      -0.073281     -1.602555     -0.622641
  B      -0.715889      0.753676      1.176720
  B      -0.146485      1.688405     -0.747937
  B      -1.508918      0.023106     -0.703658
6
Coordinates from ORCA-job B6_random_3d_seed1000_d2.50_q0_m3_R2SCAN-3C E -148.433801459776
  B       0.598917     -0.578369      1.316526
  B       1.728684     -0.233891     -0.456549
  B      -0.088778     -1.508502     -0.602521
  B      -0.659550      0.696862      1.114245
  B      -0.167319      1.609697     -0.707394
  B      -1.411954      0.014202     -0.664307
6
Coordinates from ORCA-job B6_random_3d_seed1000_d2.50_q0_m3_R2SCAN-3C E -148.506988298470
  B       0.557330     -0.519960      1.245072
  B       1.661750     -0.251227     -0.419967
  B      -0.103446     -1.411666     -0.583859
  B      -0.605386      0.644557      1.051046
  B      -0.197417      1.529959     -0.665538
  B      -1.312831      0.008337     -0.626754
6
Coordinates from ORCA-job B6_random_3d_seed1000_d2.50_q0_m3_R2SCAN-3C E -148.567798935815
  B       0.543516     -0.481380      1.163791
  B       1.590227     -0.274336     -0.369142
  B      -0.109648     -1.316695     -0.558920
  B      -0.566948      0.607196      0.979632
  B      -0.233686      1.451155     -0.624146
  B      -1.223461      0.014060     -0.591215
6
Coordinates from ORCA-job B6_random_3d_seed1000_d2.50_q0_m3_R2SCAN-3C E -148.611603143480
  B       0.571978     -0.456025      1.098956
  B       1.510366     -0.298418     -0.302213
  B      -0.122197     -1.223165     -0.541195
  B      -0.529781      0.582786      0.924145
  B      -0.274195      1.374642     -0.589336
  B      -1.156170      0.020180     -0.590359
6
Coordinates from ORCA-job B6_random_3d_seed1000_d2.50_q0_m3_R2SCAN-3C E -148.630209883858
  B       0.620152     -0.417146      1.064990
  B       1.400659     -0.341383     -0.245387
  B      -0.117191     -1.143431     -0.545176
  B      -0.486539      0.578335      0.908354
  B      -0.300431      1.331901     -0.547771
  B      -1.116650     -0.008276     -0.635010
6
Coordinates from ORCA-job B6_random_3d_seed1000_d2.50_q0_m3_R2SCAN-3C E -148.636460676948
  B       0.626207     -0.406072      1.101201
  B       1.349268     -0.396657     -0.292835
  B      -0.039776     -1.133445     -0.532670
  B      -0.498083      0.597088      0.900002
  B      -0.318628      1.324204     -0.514526
  B      -1.118988      0.014882     -0.661172
6
Coordinates from ORCA-job B6_random_3d_seed1000_d2.50_q0_m3_R2SCAN-3C E -148.640629046668
  B       0.641954     -0.400014      1.141190
  B       1.359429     -0.416507     -0.319185
  B      -0.062754     -1.108678     -0.544259
  B      -0.513386      0.603246      0.920281
  B      -0.314149      1.349695     -0.513936
  B      -1.111094     -0.027741     -0.684092
6
Coordinates from ORCA-job B6_random_3d_seed1000_d2.50_q0_m3_R2SCAN-3C E -148.643040635532
  B       0.661136     -0.382391      1.137887
  B       1.382201     -0.435221     -0.295900
  B      -0.068842     -1.128613     -0.554647
  B      -0.507786      0.597836      0.922027
  B      -0.330978      1.362756     -0.505524
  B      -1.135731     -0.014367     -0.703843
6
Coordinates from ORCA-job B6_random_3d_seed1000_d2.50_q0_m3_R2SCAN-3C E -148.645156732282
  B       0.680716     -0.362091      1.143099
  B       1.382701     -0.470062     -0.283120
  B      -0.068775     -1.116777     -0.560366
  B      -0.501912      0.586973      0.920572
  B      -0.360419      1.364007     -0.498740
  B      -1.132312     -0.002051     -0.721444
6
Coordinates from ORCA-job B6_random_3d_seed1000_d2.50_q0_m3_R2SCAN-3C E -148.648751293079
  B       0.713473     -0.343786      1.145180
  B       1.394558     -0.521653     -0.263190
  B      -0.069129     -1.099851     -0.557126
  B      -0.504505      0.568752      0.900631
  B      -0.399961      1.386754     -0.487888
  B      -1.134436      0.009784     -0.737607
6
Coordinates from ORCA-job B6_random_3d_seed1000_d2.50_q0_m3_R2SCAN-3C E -148.655262424742
  B       0.753335     -0.317408      1.161786
  B       1.424219     -0.598161     -0.239518
  B      -0.073801     -1.076751     -0.557552
  B      -0.498789      0.540335      0.877422
  B      -0.470278      1.413620     -0.481612
  B      -1.134687      0.038365     -0.760526
6
Coordinates from ORCA-job B6_random_3d_seed1000_d2.50_q0_m3_R2SCAN-3C E -148.667035283480
  B       0.813681     -0.288435      1.166990
  B       1.422563     -0.694605     -0.187450
  B      -0.061720     -1.034383     -0.551481
  B      -0.475352      0.503974      0.822116
  B      -0.558485      1.454007     -0.455958
  B      -1.140686      0.059442     -0.794217
6
Coordinates from ORCA-job B6_random_3d_seed1000_d2.50_q0_m3_R2SCAN-3C E -148.684609712942
  B       0.882250     -0.298924      1.213475
  B       1.450104     -0.777677     -0.124391
  B      -0.065258     -0.964185     -0.561954
  B      -0.420227      0.475463      0.778910
  B      -0.676615      1.446585     -0.478231
  B      -1.170253      0.118739     -0.827809
6
Coordinates from ORCA-job B6_random_3d_seed1000_d2.50_q0_m3_R2SCAN-3C E -148.696030571911
  B       0.924612     -0.330093      1.229738
  B       1.440814     -0.821080     -0.075344
  B      -0.039098     -0.910343     -0.547919
  B      -0.370113      0.466484      0.734940
  B      -0.743889      1.478587     -0.479314
  B      -1.212325      0.116446     -0.862100
6
Coordinates from ORCA-job B6_random_3d_seed1000_d2.50_q0_m3_R2SCAN-3C E -148.702479717309
  B       0.922998     -0.331427      1.259445
  B       1.454731     -0.857173     -0.074712
  B      -0.035360     -0.885265     -0.553828
  B      -0.336142      0.479645      0.717978
  B      -0.778966      1.491501     -0.467287
  B      -1.227262      0.102720     -0.881595
6
Coordinates from ORCA-job B6_random_3d_seed1000_d2.50_q0_m3_R2SCAN-3C E -148.708707904207
  B       0.935230     -0.348204      1.278194
  B       1.468098     -0.910387     -0.040040
  B      -0.030146     -0.833747     -0.552381
  B      -0.278101      0.486074      0.674384
  B      -0.855651      1.499859     -0.459324
  B      -1.239431      0.106406     -0.900833
6
Coordinates from ORCA-job B6_random_3d_seed1000_d2.50_q0_m3_R2SCAN-3C E -148.715079369453
  B       0.931746     -0.352545      1.284707
  B       1.469398     -0.991165     -0.012536
  B       0.002770     -0.810386     -0.555709
  B      -0.224837      0.525383      0.617246
  B      -0.955846      1.531208     -0.420285
  B      -1.223231      0.097506     -0.913423
6
Coordinates from ORCA-job B6_random_3d_seed1000_d2.50_q0_m3_R2SCAN-3C E -148.721489647502
  B       0.923728     -0.337670      1.259705
  B       1.467087     -1.077025      0.021451
  B       0.037186     -0.814351     -0.556111
  B      -0.185165      0.555304      0.567620
  B      -1.066426      1.559021     -0.378392
  B      -1.176410      0.114721     -0.914273
6
Coordinates from ORCA-job B6_random_3d_seed1000_d2.50_q0_m3_R2SCAN-3C E -148.726605586243
  B       0.913082     -0.320491      1.223237
  B       1.469489     -1.133615      0.050806
  B       0.058961     -0.839304     -0.560022
  B      -0.177505      0.583166      0.527945
  B      -1.135616      1.571281     -0.339863
  B      -1.128411      0.138963     -0.902103
6
Coordinates from ORCA-job B6_random_3d_seed1000_d2.50_q0_m3_R2SCAN-3C E -148.729213903821
  B       0.912367     -0.311083      1.196055
  B       1.474855     -1.175261      0.071473
  B       0.076258     -0.850964     -0.556000
  B      -0.175860      0.593109      0.508204
  B      -1.185013      1.580582     -0.324304
  B      -1.102606      0.163616     -0.895428
6
Coordinates from ORCA-job B6_random_3d_seed1000_d2.50_q0_m3_R2SCAN-3C E -148.732043661319
  B       0.919067     -0.297280      1.164335
  B       1.483733     -1.243948      0.099833
  B       0.095845     -0.845037     -0.545789
  B      -0.175424      0.611896      0.480606
  B      -1.248974      1.587363     -0.296189
  B      -1.074246      0.187005     -0.902797
6
Coordinates from ORCA-job B6_random_3d_seed1000_d2.50_q0_m3_R2SCAN-3C E -148.725742480797
  B       0.961985     -0.242691      0.976979
  B       1.498781     -1.500323      0.224399
  B       0.183669     -0.797517     -0.453818
  B      -0.202913      0.644500      0.395460
  B      -1.473984      1.579989     -0.200009
  B      -0.967537      0.316043     -0.943012
6
Coordinates from ORCA-job B6_random_3d_seed1000_d2.50_q0_m3_R2SCAN-3C E -148.734279772280
  B       1.024081     -0.243248      1.121685
  B       1.449391     -1.392172      0.167864
  B       0.108319     -0.788541     -0.522564
  B      -0.174566      0.630070      0.479308
  B      -1.367335      1.543219     -0.234686
  B      -1.039889      0.250672     -1.011606
6
Coordinates from ORCA-job B6_random_3d_seed1000_d2.50_q0_m3_R2SCAN-3C E -148.737334849506
  B       0.990293     -0.235481      1.085469
  B       1.435184     -1.354837      0.159559
  B       0.105512     -0.811795     -0.517739
  B      -0.190525      0.625928      0.484708
  B      -1.331978      1.531289     -0.230646
  B      -1.008486      0.244896     -0.981351
6
Coordinates from ORCA-job B6_random_3d_seed1000_d2.50_q0_m3_R2SCAN-3C E -148.739181609964
  B       0.987667     -0.227454      1.053096
  B       1.432958     -1.378997      0.157074
  B       0.119667     -0.821261     -0.512676
  B      -0.205093      0.642493      0.514118
  B      -1.352454      1.537576     -0.239774
  B      -0.982746      0.247643     -0.971837
6
Coordinates from ORCA-job B6_random_3d_seed1000_d2.50_q0_m3_R2SCAN-3C E -148.740752201457
  B       0.983990     -0.223751      0.988883
  B       1.438263     -1.427250      0.153643
  B       0.135968     -0.826620     -0.505910
  B      -0.239613      0.698811      0.586691
  B      -1.374754      1.524919     -0.264989
  B      -0.943853      0.253891     -0.958318
6
Coordinates from ORCA-job B6_random_3d_seed1000_d2.50_q0_m3_R2SCAN-3C E -148.741581615644
  B       0.978094     -0.225918      0.988926
  B       1.443775     -1.433587      0.164087
  B       0.137401     -0.812967     -0.504160
  B      -0.238426      0.702548      0.563479
  B      -1.370056      1.523993     -0.241512
  B      -0.950788      0.245931     -0.970819
6
Coordinates from ORCA-job B6_random_3d_seed1000_d2.50_q0_m3_R2SCAN-3C E -148.742219837110
  B       0.963387     -0.244447      0.991164
  B       1.450118     -1.429605      0.168030
  B       0.140972     -0.796197     -0.497451
  B      -0.220175      0.713047      0.550149
  B      -1.368488      1.516083     -0.235846
  B      -0.965814      0.241119     -0.976046
6
Coordinates from ORCA-job B6_random_3d_seed1000_d2.50_q0_m3_R2SCAN-3C E -148.742096292301
  B       0.963725     -0.253883      0.969518
  B       1.454998     -1.449265      0.172460
  B       0.146510     -0.770429     -0.491182
  B      -0.226540      0.742084      0.583891
  B      -1.360956      1.496043     -0.245077
  B      -0.977736      0.235450     -0.989611
6
Coordinates from ORCA-job B6_random_3d_seed1000_d2.50_q0_m3_R2SCAN-3C E -148.742558525948
  B       0.970362     -0.253294      1.001227
  B       1.448289     -1.434329      0.170976
  B       0.142046     -0.767649     -0.495433
  B      -0.211243      0.717869      0.553242
  B      -1.360857      1.501246     -0.237196
  B      -0.988597      0.236157     -0.992815
6
Coordinates from ORCA-job B6_random_3d_seed1000_d2.50_q0_m3_R2SCAN-3C E -148.742674767778
  B       0.966874     -0.250298      0.995875
  B       1.443324     -1.438637      0.170704
  B       0.144119     -0.774604     -0.498092
  B      -0.209607      0.726975      0.551351
  B      -1.371604      1.499831     -0.232708
  B      -0.973107      0.236733     -0.987131
6
Coordinates from ORCA-job B6_random_3d_seed1000_d2.50_q0_m3_R2SCAN-3C E -148.742763970510
  B       0.969056     -0.249183      0.992847
  B       1.439007     -1.442309      0.173723
  B       0.145409     -0.773369     -0.499365
  B      -0.206633      0.731207      0.553346
  B      -1.376497      1.494202     -0.231010
  B      -0.970342      0.239452     -0.989541
6
Coordinates from ORCA-job B6_random_3d_seed1000_d2.50_q0_m3_R2SCAN-3C E -148.742937879762
  B       0.974198     -0.244430      0.991299
  B       1.424157     -1.453365      0.183851
  B       0.150182     -0.766784     -0.504803
  B      -0.192698      0.742676      0.547905
  B      -1.391089      1.475776     -0.217500
  B      -0.964750      0.246126     -1.000752
6
Coordinates from ORCA-job B6_random_3d_seed1000_d2.50_q0_m3_R2SCAN-3C E -148.742975062229
  B       0.975727     -0.241198      0.992060
  B       1.416938     -1.456043      0.188382
  B       0.151827     -0.765349     -0.508959
  B      -0.185653      0.745239      0.544031
  B      -1.397028      1.469680     -0.210213
  B      -0.961810      0.247671     -1.005300
6
Coordinates from ORCA-job B6_random_3d_seed1000_d2.50_q0_m3_R2SCAN-3C E -148.742994131220
  B       0.978778     -0.238000      0.988958
  B       1.410812     -1.458638      0.191269
  B       0.153145     -0.766612     -0.513625
  B      -0.184678      0.749495      0.548324
  B      -1.400162      1.464291     -0.208976
  B      -0.957896      0.249464     -1.005950
6
Coordinates from ORCA-job B6_random_3d_seed1000_d2.50_q0_m3_R2SCAN-3C E -148.743035431800
  B       0.979886     -0.234913      0.989339
  B       1.406807     -1.459696      0.194091
  B       0.155846     -0.766761     -0.518091
  B      -0.184415      0.749256      0.546345
  B      -1.400113      1.462879     -0.205041
  B      -0.958010      0.249234     -1.006643
6
Coordinates from ORCA-job B6_random_3d_seed1000_d2.50_q0_m3_R2SCAN-3C E -148.743139116004
  B       0.981085     -0.230988      0.988503
  B       1.402036     -1.461096      0.198932
  B       0.162901     -0.765895     -0.527973
  B      -0.186599      0.746828      0.547199
  B      -1.397758      1.465613     -0.203066
  B      -0.961664      0.245538     -1.003595
6
Coordinates from ORCA-job B6_random_3d_seed1000_d2.50_q0_m3_R2SCAN-3C E -148.743268203958
  B       0.981288     -0.228842      0.986313
  B       1.398136     -1.465108      0.204753
  B       0.175678     -0.760840     -0.540506
  B      -0.191155      0.744275      0.549117
  B      -1.394048      1.471379     -0.204898
  B      -0.969898      0.239136     -0.994780
6
Coordinates from ORCA-job B6_random_3d_seed1000_d2.50_q0_m3_R2SCAN-3C E -148.743333001466
  B       0.980409     -0.230666      0.984472
  B       1.396415     -1.469854      0.208422
  B       0.185506     -0.752868     -0.547215
  B      -0.191920      0.744837      0.550175
  B      -1.393641      1.474066     -0.208589
  B      -0.976768      0.234486     -0.987265
6
Coordinates from ORCA-job B6_random_3d_seed1000_d2.50_q0_m3_R2SCAN-3C E -148.743346248252
  B       0.979399     -0.233198      0.984719
  B       1.396662     -1.472372      0.209336
  B       0.188606     -0.747383     -0.547001
  B      -0.190004      0.745645      0.547771
  B      -1.395097      1.473872     -0.209706
  B      -0.979565      0.233436     -0.985119
6
Coordinates from ORCA-job B6_random_3d_seed1000_d2.50_q0_m3_R2SCAN-3C E -148.743347127190
  B       0.979344     -0.233824      0.984943
  B       1.396367     -1.472925      0.209531
  B       0.188851     -0.746305     -0.546634
  B      -0.188926      0.746250      0.546774
  B      -1.396147      1.473047     -0.209568
  B      -0.979489      0.233757     -0.985046
6
Coordinates from ORCA-job B6_random_3d_seed1000_d2.50_q0_m3_R2SCAN-3C E -148.743347149551
  B       0.979377     -0.233843      0.985035
  B       1.396330     -1.472946      0.209517
  B       0.188758     -0.746332     -0.546585
  B      -0.188785      0.746322      0.546622
  B      -1.396326      1.472924     -0.209497
  B      -0.979354      0.233875     -0.985093
