6
Coordinates from ORCA-job B6_random_3d_seed1001_d2.50_q0_m1_R2SCAN-3C E -148.633284255994
  B          -0.19225883831945     -0.93924520699587     -0.20608236703076
  B           0.57591199177416      1.74868592330545      0.24730503542700
  B          -0.00228258594391      0.56210901560575     -0.80327206495271
  B           0.20527156668392     -1.18618888232447      1.41464043947496
  B           0.82576610906169      0.10231398752685      0.51960324459185
  B          -1.41240824325641     -0.28767482711770     -1.17219428751035
