6
Coordinates from ORCA-job B6_random_3d_seed1001_d2.50_q0_m1_R2SCAN-3C E -148.186008586832
  B       0.160425     -1.769446     -0.520969
  B      -0.079291      1.635644      0.562039
  B       0.448005      0.628776     -1.582202
  B      -0.507912     -0.779248      1.634876
  B       1.699566      0.100717      0.524570
  B      -1.720794      0.183558     -0.618314
6
Coordinates from ORCA-job B6_random_3d_seed1001_d2.50_q0_m1_R2SCAN-3C E -148.211755448962
  B       0.149150     -1.747526     -0.504381
  B      -0.064139      1.608799      0.544070
  B       0.429394      0.627894     -1.551260
  B      -0.490970     -0.778758      1.607997
  B       1.666433      0.108411      0.524224
  B      -1.689868      0.181180     -0.620651
6
Coordinates from ORCA-job B6_random_3d_seed1001_d2.50_q0_m1_R2SCAN-3C E -148.238571658333
  B       0.137783     -1.725831     -0.487748
  B      -0.048522      1.582109      0.526333
  B       0.410299      0.627222     -1.520456
  B      -0.473949     -0.778292      1.581284
  B       1.633284      0.116193      0.524109
  B      -1.658895      0.178599     -0.623521
6
Coordinates from ORCA-job B6_random_3d_seed1001_d2.50_q0_m1_R2SCAN-3C E -148.280300325118
  B       0.120927     -1.692762     -0.462935
  B      -0.025547      1.542222      0.500488
  B       0.381675      0.625813     -1.474482
  B      -0.448466     -0.776862      1.540986
  B       1.583629      0.127207      0.523702
  B      -1.612218      0.174382     -0.627760
6
Coordinates from ORCA-job B6_random_3d_seed1001_d2.50_q0_m1_R2SCAN-3C E -148.345347591854
  B       0.096209     -1.641316     -0.425836
  B       0.007054      1.482744      0.463708
  B       0.339422      0.622295     -1.406320
  B      -0.410357     -0.772848      1.479445
  B       1.509561      0.141746      0.522332
  B      -1.541889      0.167379     -0.633328
6
Coordinates from ORCA-job B6_random_3d_seed1001_d2.50_q0_m1_R2SCAN-3C E -148.412562996023
  B       0.071752     -1.587322     -0.388155
  B       0.039849      1.420938      0.426949
  B       0.296085      0.617659     -1.335341
  B      -0.371668     -0.766941      1.415919
  B       1.433266      0.155694      0.519556
  B      -1.469284      0.159971     -0.638929
6
Coordinates from ORCA-job B6_random_3d_seed1001_d2.50_q0_m1_R2SCAN-3C E -148.474081160437
  B       0.046689     -1.532376     -0.348867
  B       0.071287      1.362072      0.391417
  B       0.250888      0.612650     -1.264511
  B      -0.330850     -0.761129      1.350962
  B       1.359387      0.166669      0.518289
  B      -1.397401      0.152113     -0.647290
6
Coordinates from ORCA-job B6_random_3d_seed1001_d2.50_q0_m1_R2SCAN-3C E -148.520634777210
  B       0.022699     -1.467196     -0.312492
  B       0.092053      1.308376      0.359110
  B       0.214409      0.602336     -1.194744
  B      -0.286382     -0.746889      1.280821
  B       1.287180      0.164358      0.516967
  B      -1.329959      0.139016     -0.649662
6
Coordinates from ORCA-job B6_random_3d_seed1001_d2.50_q0_m1_R2SCAN-3C E -148.548276386091
  B      -0.003033     -1.383685     -0.293649
  B       0.090726      1.272152      0.335760
  B       0.201970      0.583003     -1.137848
  B      -0.234242     -0.712435      1.209203
  B       1.220609      0.133251      0.522448
  B      -1.276031      0.107715     -0.635914
6
Coordinates from ORCA-job B6_random_3d_seed1001_d2.50_q0_m1_R2SCAN-3C E -148.561948261328
  B      -0.034933     -1.296459     -0.321357
  B       0.077330      1.264909      0.335490
  B       0.222423      0.550788     -1.109897
  B      -0.180392     -0.656871      1.168556
  B       1.162282      0.087040      0.536174
  B      -1.246711      0.050592     -0.608966
6
Coordinates from ORCA-job B6_random_3d_seed1001_d2.50_q0_m1_R2SCAN-3C E -148.567410726728
  B      -0.080401     -1.222684     -0.354305
  B       0.069599      1.300996      0.336478
  B       0.241708      0.520557     -1.096893
  B      -0.155598     -0.652227      1.167792
  B       1.149546      0.064535      0.544383
  B      -1.224853     -0.011177     -0.597455
6
Coordinates from ORCA-job B6_random_3d_seed1001_d2.50_q0_m1_R2SCAN-3C E -148.571859459403
  B      -0.104250     -1.183825     -0.369037
  B       0.073506      1.348938      0.330427
  B       0.263043      0.500286     -1.084771
  B      -0.142152     -0.690509      1.197017
  B       1.145796      0.064785      0.536935
  B      -1.235943     -0.039674     -0.610570
6
Coordinates from ORCA-job B6_random_3d_seed1001_d2.50_q0_m1_R2SCAN-3C E -148.576264516874
  B      -0.103045     -1.173100     -0.369924
  B       0.076943      1.385397      0.326032
  B       0.275570      0.487358     -1.078211
  B      -0.131941     -0.725769      1.224163
  B       1.141383      0.065253      0.527787
  B      -1.258910     -0.039140     -0.629846
6
Coordinates from ORCA-job B6_random_3d_seed1001_d2.50_q0_m1_R2SCAN-3C E -148.579631539328
  B      -0.096686     -1.168081     -0.365847
  B       0.081369      1.405215      0.322178
  B       0.279807      0.477760     -1.068560
  B      -0.122715     -0.748097      1.238907
  B       1.132794      0.065966      0.519519
  B      -1.274569     -0.032763     -0.646197
6
Coordinates from ORCA-job B6_random_3d_seed1001_d2.50_q0_m1_R2SCAN-3C E -148.585037245276
  B      -0.082169     -1.163112     -0.353723
  B       0.090088      1.427088      0.314245
  B       0.280132      0.463509     -1.048370
  B      -0.105468     -0.778957      1.254887
  B       1.113465      0.067696      0.506661
  B      -1.296049     -0.016223     -0.673699
6
Coordinates from ORCA-job B6_random_3d_seed1001_d2.50_q0_m1_R2SCAN-3C E -148.592867425314
  B      -0.067220     -1.148574     -0.338977
  B       0.104702      1.462136      0.302797
  B       0.280251      0.439765     -1.018584
  B      -0.076696     -0.825730      1.279013
  B       1.084332      0.070392      0.491128
  B      -1.325370      0.002011     -0.715377
6
Coordinates from ORCA-job B6_random_3d_seed1001_d2.50_q0_m1_R2SCAN-3C E -148.603138584610
  B      -0.050424     -1.123749     -0.309259
  B       0.136688      1.501940      0.282465
  B       0.263620      0.408769     -0.970546
  B      -0.020049     -0.889601      1.302173
  B       1.030435      0.074911      0.481798
  B      -1.360269      0.027730     -0.786630
6
Coordinates from ORCA-job B6_random_3d_seed1001_d2.50_q0_m1_R2SCAN-3C E -148.610068660774
  B      -0.063677     -1.092749     -0.304027
  B       0.166805      1.572849      0.267927
  B       0.265525      0.389335     -0.948448
  B       0.024730     -0.965450      1.348893
  B       1.006614      0.076854      0.483994
  B      -1.399998      0.019162     -0.848340
6
Coordinates from ORCA-job B6_random_3d_seed1001_d2.50_q0_m1_R2SCAN-3C E -148.617502412508
  B      -0.084309     -1.070875     -0.278313
  B       0.229237      1.584456      0.256250
  B       0.213661      0.394183     -0.925794
  B       0.089983     -1.006207      1.357599
  B       0.959328      0.091954      0.516333
  B      -1.407900      0.006489     -0.926075
6
Coordinates from ORCA-job B6_random_3d_seed1001_d2.50_q0_m1_R2SCAN-3C E -148.621802371650
  B      -0.109595     -1.060466     -0.254412
  B       0.272080      1.623287      0.240268
  B       0.208730      0.420195     -0.905520
  B       0.110202     -1.056085      1.360235
  B       0.934749      0.102743      0.517474
  B      -1.416168     -0.029675     -0.958045
6
Coordinates from ORCA-job B6_random_3d_seed1001_d2.50_q0_m1_R2SCAN-3C E -148.626831773723
  B      -0.142963     -1.023948     -0.242186
  B       0.338359      1.679354      0.230307
  B       0.173638      0.434141     -0.889136
  B       0.153221     -1.119063      1.385785
  B       0.901950      0.107324      0.534767
  B      -1.424204     -0.077807     -1.019537
6
Coordinates from ORCA-job B6_random_3d_seed1001_d2.50_q0_m1_R2SCAN-3C E -148.630257349674
  B      -0.180955     -0.989940     -0.224304
  B       0.412799      1.721530      0.219813
  B       0.134936      0.474396     -0.867358
  B       0.180531     -1.162528      1.385331
  B       0.864985      0.106457      0.546888
  B      -1.412296     -0.149916     -1.060372
6
Coordinates from ORCA-job B6_random_3d_seed1001_d2.50_q0_m1_R2SCAN-3C E -148.631740176163
  B      -0.200715     -0.955439     -0.207779
  B       0.477374      1.741996      0.216621
  B       0.099917      0.488724     -0.836277
  B       0.213814     -1.193819      1.390442
  B       0.828260      0.115374      0.551723
  B      -1.418650     -0.196835     -1.114730
6
Coordinates from ORCA-job B6_random_3d_seed1001_d2.50_q0_m1_R2SCAN-3C E -148.632352205933
  B      -0.219342     -0.939054     -0.192968
  B       0.520796      1.763390      0.211521
  B       0.067779      0.518387     -0.825898
  B       0.232256     -1.213985      1.393181
  B       0.810194      0.106300      0.560383
  B      -1.411682     -0.235039     -1.146219
6
Coordinates from ORCA-job B6_random_3d_seed1001_d2.50_q0_m1_R2SCAN-3C E -148.632685046207
  B      -0.227843     -0.930686     -0.185681
  B       0.550991      1.763336      0.215179
  B       0.043145      0.530812     -0.814629
  B       0.242040     -1.222375      1.396872
  B       0.802067      0.115731      0.559249
  B      -1.410400     -0.256818     -1.170991
6
Coordinates from ORCA-job B6_random_3d_seed1001_d2.50_q0_m1_R2SCAN-3C E -148.632906394715
  B      -0.226922     -0.923036     -0.173818
  B       0.577316      1.759676      0.218733
  B       0.015867      0.544118     -0.804384
  B       0.249749     -1.227954      1.402677
  B       0.794880      0.119782      0.554528
  B      -1.410889     -0.272587     -1.197736
6
Coordinates from ORCA-job B6_random_3d_seed1001_d2.50_q0_m1_R2SCAN-3C E -148.633001850383
  B      -0.226397     -0.921869     -0.175700
  B       0.586726      1.758039      0.222435
  B       0.004937      0.553013     -0.799653
  B       0.246399     -1.226496      1.406379
  B       0.796960      0.120069      0.548396
  B      -1.408626     -0.282757     -1.201857
6
Coordinates from ORCA-job B6_random_3d_seed1001_d2.50_q0_m1_R2SCAN-3C E -148.633147135962
  B      -0.217558     -0.923232     -0.183495
  B       0.592049      1.755198      0.232339
  B      -0.007283      0.563722     -0.796946
  B       0.232664     -1.215891      1.412601
  B       0.806641      0.113928      0.533972
  B      -1.406514     -0.293725     -1.198471
6
Coordinates from ORCA-job B6_random_3d_seed1001_d2.50_q0_m1_R2SCAN-3C E -148.633242724412
  B      -0.203373     -0.929623     -0.196553
  B       0.583923      1.749477      0.245370
  B      -0.007894      0.567423     -0.801019
  B       0.213473     -1.196929      1.417107
  B       0.822152      0.105203      0.519098
  B      -1.408280     -0.295551     -1.184002
6
Coordinates from ORCA-job B6_random_3d_seed1001_d2.50_q0_m1_R2SCAN-3C E -148.633267868522
  B      -0.195674     -0.935254     -0.203357
  B       0.573587      1.745668      0.251152
  B      -0.001561      0.564484     -0.806558
  B       0.204519     -1.185882      1.416780
  B       0.830394      0.101344      0.515048
  B      -1.411265     -0.290359     -1.173065
6
Coordinates from ORCA-job B6_random_3d_seed1001_d2.50_q0_m1_R2SCAN-3C E -148.633272820692
  B      -0.194361     -0.936335     -0.203768
  B       0.571556      1.745410      0.251093
  B       0.000524      0.562585     -0.807424
  B       0.204309     -1.184588      1.415669
  B       0.830419      0.101081      0.516064
  B      -1.412447     -0.288153     -1.171633
6
Coordinates from ORCA-job B6_random_3d_seed1001_d2.50_q0_m1_R2SCAN-3C E -148.633276728051
  B      -0.193774     -0.937163     -0.204107
  B       0.571023      1.746068      0.250051
  B       0.001749      0.561082     -0.807183
  B       0.204880     -1.184635      1.414636
  B       0.829277      0.101316      0.517676
  B      -1.413155     -0.286667     -1.171073
6
Coordinates from ORCA-job B6_random_3d_seed1001_d2.50_q0_m1_R2SCAN-3C E -148.633280480813
  B      -0.192990     -0.938141     -0.204885
  B       0.571983      1.747255      0.248715
  B       0.001473      0.560354     -0.805949
  B       0.205287     -1.185077      1.414027
  B       0.827652      0.101669      0.519087
  B      -1.413404     -0.286059     -1.170996
6
Coordinates from ORCA-job B6_random_3d_seed1001_d2.50_q0_m1_R2SCAN-3C E -148.633283042027
  B      -0.192668     -0.939016     -0.205577
  B       0.574883      1.748953      0.246304
  B      -0.000455      0.560548     -0.803393
  B       0.206557     -1.186913      1.413932
  B       0.824791      0.102649      0.521026
  B      -1.413109     -0.286222     -1.172292
6
Coordinates from ORCA-job B6_random_3d_seed1001_d2.50_q0_m1_R2SCAN-3C E -148.633284052877
  B      -0.192244     -0.939258     -0.206062
  B       0.575384      1.748831      0.247065
  B      -0.001531      0.561420     -0.803364
  B       0.205515     -1.186249      1.414359
  B       0.825576      0.102339      0.520000
  B      -1.412700     -0.287083     -1.171997
6
Coordinates from ORCA-job B6_random_3d_seed1001_d2.50_q0_m1_R2SCAN-3C E -148.633284244077
  B      -0.192269     -0.939222     -0.206076
  B       0.575909      1.748738      0.247313
  B      -0.002259      0.562067     -0.803243
  B       0.205265     -1.186183      1.414613
  B       0.825776      0.102290      0.519592
  B      -1.412421     -0.287691     -1.172199
6
Coordinates from ORCA-job B6_random_3d_seed1001_d2.50_q0_m1_R2SCAN-3C E -148.633284255994
  B      -0.192259     -0.939245     -0.206082
  B       0.575912      1.748686      0.247305
  B      -0.002283      0.562109     -0.803272
  B       0.205272     -1.186189      1.414640
  B       0.825766      0.102314      0.519603
  B      -1.412408     -0.287675     -1.172194
