6
Coordinates from ORCA-job B6_octahedral_3d_d2.50_q0_m3_R2SCAN-3C E -148.696303332349
  B           1.18295560208052     -0.00007359756732     -0.00014770405443
  B          -1.18296875963084     -0.00012916143270     -0.00004326979142
  B          -0.00010650288701      1.18298316005267      0.00002900359259
  B          -0.00006080782179     -1.18293576749061      0.00014421158705
  B           0.00015273116842      0.00011804510987      1.18297066173644
  B           0.00002773709070      0.00003732132808     -1.18295290307024
