6
Coordinates from ORCA-job B6_octahedral_3d_d2.50_q0_m3_R2SCAN-3C E -148.215592908930
  B       1.767767      0.000000      0.000000
  B      -1.767767      0.000000      0.000000
  B       0.000000      1.767767      0.000000
  B       0.000000     -1.767767      0.000000
  B       0.000000      0.000000      1.767767
  B       0.000000      0.000000     -1.767767
6
Coordinates from ORCA-job B6_octahedral_3d_d2.50_q0_m3_R2SCAN-3C E -148.239478380773
  B       1.734368     -0.000049     -0.000007
  B      -1.734335     -0.000005     -0.000017
  B      -0.000027      1.737494     -0.000001
  B       0.000017     -1.737454      0.000003
  B      -0.000006      0.000005      1.734341
  B      -0.000016      0.000009     -1.734319
6
Coordinates from ORCA-job B6_octahedral_3d_d2.50_q0_m3_R2SCAN-3C E -148.263958553008
  B       1.701054     -0.000100     -0.000014
  B      -1.700988     -0.000006     -0.000035
  B      -0.000058      1.707039     -0.000001
  B       0.000036     -1.706958      0.000006
  B      -0.000011      0.000009      1.701002
  B      -0.000033      0.000016     -1.700958
6
Coordinates from ORCA-job B6_octahedral_3d_d2.50_q0_m3_R2SCAN-3C E -148.301507916871
  B       1.651288     -0.000175     -0.000023
  B      -1.651175     -0.000001     -0.000059
  B      -0.000106      1.660910     -0.000003
  B       0.000068     -1.660773      0.000010
  B      -0.000019      0.000012      1.651206
  B      -0.000055      0.000026     -1.651130
6
Coordinates from ORCA-job B6_octahedral_3d_d2.50_q0_m3_R2SCAN-3C E -148.357681490974
  B       1.577038     -0.000292     -0.000036
  B      -1.576861      0.000030     -0.000089
  B      -0.000192      1.590858     -0.000008
  B       0.000129     -1.590645      0.000015
  B      -0.000031      0.000013      1.576922
  B      -0.000084      0.000036     -1.576805
6
Coordinates from ORCA-job B6_octahedral_3d_d2.50_q0_m3_R2SCAN-3C E -148.428233017607
  B       1.500329     -0.000535     -0.000054
  B      -1.500069      0.000168     -0.000126
  B      -0.000400      1.517640     -0.000020
  B       0.000300     -1.517313      0.000030
  B      -0.000045     -0.000005      1.500178
  B      -0.000116      0.000045     -1.500007
6
Coordinates from ORCA-job B6_octahedral_3d_d2.50_q0_m3_R2SCAN-3C E -148.498643859874
  B       1.422190     -0.003876      0.003013
  B      -1.420934     -0.001401     -0.001986
  B      -0.001808      1.447207      0.009666
  B       0.000647     -1.441047     -0.007853
  B       0.002450      0.008419      1.425058
  B      -0.002545     -0.009302     -1.427899
6
Coordinates from ORCA-job B6_octahedral_3d_d2.50_q0_m3_R2SCAN-3C E -148.580228617214
  B       1.323989     -0.006159      0.004318
  B      -1.321374     -0.002268     -0.002536
  B      -0.002155      1.389494      0.013272
  B       0.001763     -1.378086     -0.011340
  B       0.002378      0.010951      1.363713
  B      -0.004600     -0.013932     -1.367427
6
Coordinates from ORCA-job B6_octahedral_3d_d2.50_q0_m3_R2SCAN-3C E -148.650746959263
  B       1.246992     -0.008629      0.004409
  B      -1.244444     -0.004208     -0.003419
  B      -0.002547      1.329714      0.013427
  B       0.001923     -1.310576     -0.011501
  B       0.002978      0.009251      1.279599
  B      -0.004901     -0.015553     -1.282516
6
Coordinates from ORCA-job B6_octahedral_3d_d2.50_q0_m3_R2SCAN-3C E -148.691914780594
  B       1.185321     -0.010142      0.001979
  B      -1.184102     -0.008076     -0.001266
  B      -0.001388      1.243431      0.007470
  B       0.000753     -1.213299     -0.005851
  B       0.001392      0.000680      1.210667
  B      -0.001977     -0.012593     -1.212999
6
Coordinates from ORCA-job B6_octahedral_3d_d2.50_q0_m3_R2SCAN-3C E -148.694988351226
  B       1.170442      0.004662     -0.001460
  B      -1.171137      0.002864      0.002746
  B       0.000908      1.149654     -0.003388
  B      -0.000792     -1.164608      0.004391
  B      -0.001687     -0.000083      1.184044
  B       0.002266      0.007511     -1.186333
6
Coordinates from ORCA-job B6_octahedral_3d_d2.50_q0_m3_R2SCAN-3C E -148.696256861882
  B       1.181558     -0.002763      0.000582
  B      -1.181857     -0.001902     -0.001516
  B      -0.000809      1.190962      0.001088
  B       0.000155     -1.183333     -0.000240
  B       0.001641     -0.000723      1.180102
  B      -0.000689     -0.002241     -1.180017
6
Coordinates from ORCA-job B6_octahedral_3d_d2.50_q0_m3_R2SCAN-3C E -148.696296589894
  B       1.183240      0.000205     -0.001201
  B      -1.183056     -0.000490      0.000870
  B       0.000018      1.182967      0.000364
  B      -0.000575     -1.183557      0.000191
  B      -0.000733      0.000622      1.184529
  B       0.001107      0.000253     -1.184753
6
Coordinates from ORCA-job B6_octahedral_3d_d2.50_q0_m3_R2SCAN-3C E -148.696301873073
  B       1.183023     -0.000212      0.000357
  B      -1.183000      0.000145     -0.000831
  B      -0.000419      1.182266     -0.000052
  B       0.000039     -1.182947      0.000440
  B       0.000888      0.000226      1.183130
  B      -0.000530      0.000522     -1.183045
6
Coordinates from ORCA-job B6_octahedral_3d_d2.50_q0_m3_R2SCAN-3C E -148.696302985960
  B       1.182888     -0.000138     -0.000404
  B      -1.182927     -0.000313      0.000097
  B      -0.000111      1.183138      0.000164
  B      -0.000185     -1.182878      0.000137
  B       0.000032      0.000207      1.182559
  B       0.000303     -0.000015     -1.182553
6
Coordinates from ORCA-job B6_octahedral_3d_d2.50_q0_m3_R2SCAN-3C E -148.696303316835
  B       1.182972     -0.000109     -0.000183
  B      -1.182964     -0.000161     -0.000043
  B      -0.000144      1.183006      0.000091
  B      -0.000095     -1.182965      0.000172
  B       0.000160      0.000172      1.183008
  B       0.000070      0.000057     -1.183045
6
Coordinates from ORCA-job B6_octahedral_3d_d2.50_q0_m3_R2SCAN-3C E -148.696303332349
  B       1.182956     -0.000074     -0.000148
  B      -1.182969     -0.000129     -0.000043
  B      -0.000107      1.182983      0.000029
  B      -0.000061     -1.182936      0.000144
  B       0.000153      0.000118      1.182971
  B       0.000028      0.000037     -1.182953
