6
Coordinates from ORCA-job B6_planar_ring_d2.20_q0_m5_R2SCAN-3C E -148.649566440161
  B           1.93706212172555      0.00150716886312      0.00000272334160
  B           0.79393178766771      1.10217782357442      0.00000158963827
  B          -0.79560435336319      1.10090219237535     -0.00000135508122
  B          -1.93706528951741     -0.00148904747454     -0.00000299552055
  B          -0.79394106889773     -1.10218130892289     -0.00000143558342
  B           0.79561680238507     -1.10091682841546      0.00000147320531
