6
Coordinates from ORCA-job B6_planar_ring_d2.20_q0_m5_R2SCAN-3C E -148.231510940196
  B       2.200000     -0.000000      0.000000
  B       1.100000      1.905256      0.000000
  B      -1.100000      1.905256      0.000000
  B      -2.200000      0.000000      0.000000
  B      -1.100000     -1.905256      0.000000
  B       1.100000     -1.905256      0.000000
6
Coordinates from ORCA-job B6_planar_ring_d2.20_q0_m5_R2SCAN-3C E -148.267177185669
  B       2.135181      0.000000      0.000000
  B       1.067598      1.849131     -0.000000
  B      -1.067598      1.849131      0.000000
  B      -2.135181     -0.000000     -0.000000
  B      -1.067598     -1.849131     -0.000000
  B       1.067598     -1.849131      0.000000
6
Coordinates from ORCA-job B6_planar_ring_d2.20_q0_m5_R2SCAN-3C E -148.303475499194
  B       2.070432     -0.000000      0.000000
  B       1.035202      1.792962     -0.000000
  B      -1.035202      1.792962     -0.000000
  B      -2.070432      0.000000      0.000000
  B      -1.035202     -1.792962     -0.000000
  B       1.035202     -1.792962     -0.000000
6
Coordinates from ORCA-job B6_planar_ring_d2.20_q0_m5_R2SCAN-3C E -148.398742035211
  B       1.973215      0.000000      0.000000
  B       0.986574      1.708783     -0.000000
  B      -0.986574      1.708783      0.000000
  B      -1.973215     -0.000000      0.000000
  B      -0.986574     -1.708783     -0.000000
  B       0.986574     -1.708783      0.000000
6
Coordinates from ORCA-job B6_planar_ring_d2.20_q0_m5_R2SCAN-3C E -148.502839594586
  B       1.814242     -0.004679      0.000003
  B       0.916765      1.591671     -0.000002
  B      -0.911512      1.578803      0.000001
  B      -1.836912      0.001895     -0.000002
  B      -0.903017     -1.573451      0.000003
  B       0.920434     -1.594239     -0.000004
6
Coordinates from ORCA-job B6_planar_ring_d2.20_q0_m5_R2SCAN-3C E -148.559528180279
  B       1.720814     -0.008415      0.000002
  B       0.878756      1.511571     -0.000002
  B      -0.860776      1.490837      0.000002
  B      -1.748699     -0.005188     -0.000002
  B      -0.853025     -1.494254      0.000002
  B       0.862931     -1.494551     -0.000002
6
Coordinates from ORCA-job B6_planar_ring_d2.20_q0_m5_R2SCAN-3C E -148.619616716617
  B       1.645260     -0.007866      0.000002
  B       0.821410      1.348031     -0.000002
  B      -0.794666      1.318780      0.000002
  B      -1.677243     -0.007552     -0.000002
  B      -0.793190     -1.330206      0.000001
  B       0.798429     -1.321187     -0.000001
6
Coordinates from ORCA-job B6_planar_ring_d2.20_q0_m5_R2SCAN-3C E -148.626505486859
  B       1.658563      0.015518      0.000003
  B       0.832426      1.304546     -0.000008
  B      -0.773853      1.222686      0.000013
  B      -1.710957     -0.015765     -0.000012
  B      -0.796142     -1.245600      0.000008
  B       0.789962     -1.281386     -0.000004
6
Coordinates from ORCA-job B6_planar_ring_d2.20_q0_m5_R2SCAN-3C E -148.634799611610
  B       1.710896     -0.018722      0.000011
  B       0.789965      1.240211     -0.000015
  B      -0.731743      1.082679      0.000017
  B      -1.852283      0.012479     -0.000016
  B      -0.726327     -1.101417      0.000012
  B       0.809492     -1.215229     -0.000009
6
Coordinates from ORCA-job B6_planar_ring_d2.20_q0_m5_R2SCAN-3C E -148.642675393603
  B       1.812439      0.016667      0.000018
  B       0.851759      1.223363     -0.000018
  B      -0.733259      1.034079      0.000016
  B      -1.954454     -0.023439     -0.000012
  B      -0.760830     -1.060817      0.000009
  B       0.784345     -1.189854     -0.000012
6
Coordinates from ORCA-job B6_planar_ring_d2.20_q0_m5_R2SCAN-3C E -148.642259148217
  B       1.929112     -0.001392      0.000020
  B       0.817132      1.199216     -0.000019
  B      -0.795622      1.075751      0.000012
  B      -1.950310      0.008673     -0.000005
  B      -0.847754     -1.114865      0.000002
  B       0.847442     -1.167383     -0.000009
6
Coordinates from ORCA-job B6_planar_ring_d2.20_q0_m5_R2SCAN-3C E -148.648238514176
  B       1.931890      0.022353      0.000020
  B       0.804572      1.143371     -0.000016
  B      -0.771333      1.098913      0.000007
  B      -1.934512      0.008438      0.000000
  B      -0.822039     -1.149051     -0.000004
  B       0.791422     -1.124024     -0.000007
6
Coordinates from ORCA-job B6_planar_ring_d2.20_q0_m5_R2SCAN-3C E -148.644584329078
  B       1.930629     -0.039283      0.000013
  B       0.830705      1.102298     -0.000010
  B      -0.818431      1.085271      0.000007
  B      -1.954388     -0.028602     -0.000005
  B      -0.756683     -1.073136      0.000001
  B       0.768168     -1.046548     -0.000005
6
Coordinates from ORCA-job B6_planar_ring_d2.20_q0_m5_R2SCAN-3C E -148.649330649860
  B       1.942334     -0.000039      0.000009
  B       0.805014      1.113744     -0.000007
  B      -0.779848      1.084311      0.000006
  B      -1.945486     -0.013012     -0.000007
  B      -0.807288     -1.101878      0.000002
  B       0.785274     -1.083126     -0.000004
6
Coordinates from ORCA-job B6_planar_ring_d2.20_q0_m5_R2SCAN-3C E -148.648067795973
  B       1.934500      0.016094      0.000007
  B       0.798818      1.110595     -0.000004
  B      -0.804741      1.090471      0.000003
  B      -1.932434      0.030355     -0.000005
  B      -0.794367     -1.131476      0.000001
  B       0.798225     -1.116039     -0.000002
6
Coordinates from ORCA-job B6_planar_ring_d2.20_q0_m5_R2SCAN-3C E -148.649526763559
  B       1.933901      0.002887      0.000006
  B       0.801809      1.111836     -0.000003
  B      -0.788929      1.097263      0.000002
  B      -1.937273     -0.002694     -0.000005
  B      -0.799964     -1.113305      0.000001
  B       0.790455     -1.095987     -0.000002
6
Coordinates from ORCA-job B6_planar_ring_d2.20_q0_m5_R2SCAN-3C E -148.649473250875
  B       1.942375      0.000698      0.000005
  B       0.795062      1.109193     -0.000001
  B      -0.791407      1.090701      0.000001
  B      -1.936151     -0.003181     -0.000005
  B      -0.796806     -1.101353      0.000000
  B       0.786928     -1.096059     -0.000000
6
Coordinates from ORCA-job B6_planar_ring_d2.20_q0_m5_R2SCAN-3C E -148.649554746801
  B       1.937801      0.002045      0.000004
  B       0.797310      1.105178     -0.000000
  B      -0.791488      1.094086      0.000001
  B      -1.938956     -0.001660     -0.000004
  B      -0.797358     -1.104296     -0.000000
  B       0.792691     -1.095354      0.000000
6
Coordinates from ORCA-job B6_planar_ring_d2.20_q0_m5_R2SCAN-3C E -148.649559969082
  B       1.935687      0.001597      0.000004
  B       0.796745      1.106802      0.000001
  B      -0.793449      1.100235     -0.000001
  B      -1.935584     -0.002280     -0.000003
  B      -0.796291     -1.107047     -0.000001
  B       0.792893     -1.099307      0.000000
6
Coordinates from ORCA-job B6_planar_ring_d2.20_q0_m5_R2SCAN-3C E -148.649565020692
  B       1.936640      0.001639      0.000003
  B       0.795359      1.104217      0.000001
  B      -0.794245      1.099746     -0.000001
  B      -1.936664     -0.001753     -0.000003
  B      -0.795260     -1.104324     -0.000001
  B       0.794170     -1.099525      0.000001
6
Coordinates from ORCA-job B6_planar_ring_d2.20_q0_m5_R2SCAN-3C E -148.649566409308
  B       1.937101      0.001520      0.000003
  B       0.794065      1.102295      0.000002
  B      -0.795448      1.100622     -0.000002
  B      -1.937092     -0.001482     -0.000003
  B      -0.794102     -1.102313     -0.000002
  B       0.795476     -1.100641      0.000001
6
Coordinates from ORCA-job B6_planar_ring_d2.20_q0_m5_R2SCAN-3C E -148.649566440161
  B       1.937062      0.001507      0.000003
  B       0.793932      1.102178      0.000002
  B      -0.795604      1.100902     -0.000001
  B      -1.937065     -0.001489     -0.000003
  B      -0.793941     -1.102181     -0.000001
  B       0.795617     -1.100917      0.000001
