6
Coordinates from ORCA-job B6_rectangular_planar_d2.20_q0_m1_R2SCAN-3C E -148.318862633517
  B      -2.200000     -1.100000      0.000000
  B       0.000000     -1.100000      0.000000
  B       2.200000     -1.100000      0.000000
  B      -2.200000      1.100000      0.000000
  B       0.000000      1.100000      0.000000
  B       2.200000      1.100000      0.000000
6
Coordinates from ORCA-job B6_rectangular_planar_d2.20_q0_m1_R2SCAN-3C E -148.357668016633
  B      -2.134405     -1.074373      0.000000
  B       0.000000     -1.073840     -0.000000
  B       2.134405     -1.074373     -0.000000
  B      -2.134405      1.074373     -0.000000
  B      -0.000000      1.073840     -0.000000
  B       2.134405      1.074373      0.000000
6
Coordinates from ORCA-job B6_rectangular_planar_d2.20_q0_m1_R2SCAN-3C E -148.397069395164
  B      -2.068084     -1.049211      0.000000
  B      -0.000000     -1.048620     -0.000000
  B       2.068084     -1.049211      0.000000
  B      -2.068084      1.049211     -0.000000
  B      -0.000000      1.048620      0.000000
  B       2.068084      1.049211     -0.000000
6
Coordinates from ORCA-job B6_rectangular_planar_d2.20_q0_m1_R2SCAN-3C E -148.455135072185
  B      -1.967122     -1.011951      0.000000
  B      -0.000000     -1.013896     -0.000000
  B       1.967122     -1.011951     -0.000000
  B      -1.967122      1.011951     -0.000000
  B      -0.000000      1.013896      0.000000
  B       1.967122      1.011951      0.000000
6
Coordinates from ORCA-job B6_rectangular_planar_d2.20_q0_m1_R2SCAN-3C E -148.531518410110
  B      -1.812544     -0.958795      0.000000
  B      -0.000000     -0.965408     -0.000000
  B       1.812544     -0.958796      0.000000
  B      -1.812544      0.958795      0.000000
  B      -0.000000      0.965408     -0.000000
  B       1.812544      0.958796      0.000000
6
Coordinates from ORCA-job B6_rectangular_planar_d2.20_q0_m1_R2SCAN-3C E -148.576652573036
  B      -1.655699     -0.896742     -0.000000
  B      -0.000000     -0.920846      0.000000
  B       1.655699     -0.896744      0.000000
  B      -1.655699      0.896742     -0.000000
  B      -0.000000      0.920846      0.000000
  B       1.655699      0.896744     -0.000000
6
Coordinates from ORCA-job B6_rectangular_planar_d2.20_q0_m1_R2SCAN-3C E -148.577575725904
  B      -1.632715     -0.838079      0.000000
  B      -0.000000     -0.906416      0.000000
  B       1.632715     -0.838079     -0.000000
  B      -1.632715      0.838079      0.000000
  B      -0.000000      0.906416     -0.000000
  B       1.632715      0.838079      0.000000
6
Coordinates from ORCA-job B6_rectangular_planar_d2.20_q0_m1_R2SCAN-3C E -148.579053636542
  B      -1.629317     -0.869397      0.000000
  B       0.000008     -0.909394     -0.000000
  B       1.629309     -0.869381      0.000000
  B      -1.629317      0.869398     -0.000000
  B       0.000008      0.909394      0.000000
  B       1.629309      0.869381      0.000000
6
Coordinates from ORCA-job B6_rectangular_planar_d2.20_q0_m1_R2SCAN-3C E -148.579134137540
  B      -1.641292     -0.865634      0.000000
  B      -0.000007     -0.910538     -0.000000
  B       1.641301     -0.865611     -0.000000
  B      -1.641294      0.865635     -0.000000
  B      -0.000007      0.910538      0.000000
  B       1.641299      0.865610      0.000000
6
Coordinates from ORCA-job B6_rectangular_planar_d2.20_q0_m1_R2SCAN-3C E -148.579175588248
  B      -1.636184     -0.864303      0.000000
  B       0.000023     -0.908852     -0.000000
  B       1.636166     -0.864310     -0.000000
  B      -1.636188      0.864306     -0.000000
  B       0.000021      0.908852     -0.000000
  B       1.636162      0.864307      0.000000
6
Coordinates from ORCA-job B6_rectangular_planar_d2.20_q0_m1_R2SCAN-3C E -148.579176157468
  B      -1.636138     -0.864572      0.000010
  B      -0.000067     -0.908439     -0.000000
  B       1.636223     -0.864523     -0.000010
  B      -1.636153      0.864582     -0.000010
  B      -0.000073      0.908439      0.000000
  B       1.636208      0.864514      0.000010
6
Coordinates from ORCA-job B6_rectangular_planar_d2.20_q0_m1_R2SCAN-3C E -148.631329090662
  B      -1.636497     -0.864835      0.000163
  B       0.000467     -0.907076     -0.000000
  B       1.636144     -0.865194     -0.000163
  B      -1.636589      0.864896     -0.000163
  B       0.000423      0.907076     -0.000000
  B       1.636052      0.865133      0.000163
6
Coordinates from ORCA-job B6_rectangular_planar_d2.20_q0_m1_R2SCAN-3C E -148.631602624003
  B      -1.636396     -0.864351      0.001047
  B       0.000762     -0.905701     -0.001539
  B       1.635829     -0.864948      0.000492
  B      -1.636552      0.864455      0.000492
  B       0.000685      0.905701     -0.001540
  B       1.635672      0.864844      0.001048
6
Coordinates from ORCA-job B6_rectangular_planar_d2.20_q0_m1_R2SCAN-3C E -148.654005947146
  B      -1.618396     -0.829715      0.005423
  B       0.002046     -0.892560     -0.010439
  B       1.616004     -0.830870      0.005015
  B      -1.618123      0.829563      0.005008
  B       0.002337      0.892496     -0.010433
  B       1.616133      0.831086      0.005425
6
Coordinates from ORCA-job B6_rectangular_planar_d2.20_q0_m1_R2SCAN-3C E -148.667033771856
  B      -1.609723     -0.805723      0.004671
  B       0.001675     -0.887535     -0.009012
  B       1.607201     -0.806529      0.004340
  B      -1.609103      0.805307      0.004333
  B       0.002275      0.887468     -0.009004
  B       1.607675      0.807013      0.004671
6
Coordinates from ORCA-job B6_rectangular_planar_d2.20_q0_m1_R2SCAN-3C E -148.680221031035
  B      -1.595188     -0.770418      0.003388
  B       0.000398     -0.885810     -0.006519
  B       1.593256     -0.769906      0.003130
  B      -1.594178      0.769616      0.003118
  B       0.001480      0.885786     -0.006510
  B       1.594231      0.770732      0.003392
6
Coordinates from ORCA-job B6_rectangular_planar_d2.20_q0_m1_R2SCAN-3C E -148.683143580619
  B      -1.566566     -0.740038     -0.009587
  B      -0.004371     -0.933663      0.014595
  B       1.563776     -0.733359     -0.005007
  B      -1.561161      0.736555     -0.005047
  B      -0.000219      0.933361      0.014656
  B       1.568541      0.737145     -0.009610
6
Coordinates from ORCA-job B6_rectangular_planar_d2.20_q0_m1_R2SCAN-3C E -148.683260897680
  B      -1.578327     -0.735423      0.003486
  B      -0.000620     -0.883216     -0.001221
  B       1.576711     -0.745793     -0.002272
  B      -1.579157      0.733577     -0.002240
  B       0.003417      0.884120     -0.001320
  B       1.577976      0.746735      0.003567
6
Coordinates from ORCA-job B6_rectangular_planar_d2.20_q0_m1_R2SCAN-3C E -148.683112220121
  B      -1.583419     -0.761047      0.008061
  B       0.000227     -0.903926     -0.014851
  B       1.578076     -0.740096      0.006842
  B      -1.579822      0.758444      0.006842
  B       0.003692      0.903731     -0.015038
  B       1.581246      0.742894      0.008144
6
Coordinates from ORCA-job B6_rectangular_planar_d2.20_q0_m1_R2SCAN-3C E -148.683279917011
  B      -1.570628     -0.745420     -0.009986
  B      -0.005065     -0.927093      0.016451
  B       1.566735     -0.751329     -0.006395
  B      -1.562658      0.741412     -0.006418
  B      -0.001090      0.926080      0.016249
  B       1.572706      0.756352     -0.009901
6
Coordinates from ORCA-job B6_rectangular_planar_d2.20_q0_m1_R2SCAN-3C E -148.683622788696
  B      -1.572871     -0.739959      0.001095
  B      -0.002730     -0.900904      0.001902
  B       1.569177     -0.736516     -0.002928
  B      -1.571211      0.735812     -0.002937
  B       0.004048      0.902076      0.001645
  B       1.573588      0.739490      0.001224
6
Coordinates from ORCA-job B6_rectangular_planar_d2.20_q0_m1_R2SCAN-3C E -148.683818657270
  B      -1.578659     -0.747491      0.004123
  B      -0.002989     -0.906034     -0.005638
  B       1.573222     -0.742286      0.001580
  B      -1.571555      0.743646      0.001580
  B       0.002125      0.904923     -0.005907
  B       1.577856      0.747242      0.004262
6
Coordinates from ORCA-job B6_rectangular_planar_d2.20_q0_m1_R2SCAN-3C E -148.683773636135
  B      -1.574752     -0.749318     -0.004480
  B      -0.001851     -0.903894      0.011788
  B       1.566487     -0.742143     -0.007253
  B      -1.570612      0.743151     -0.007201
  B       0.006219      0.905551      0.011445
  B       1.574509      0.746653     -0.004299
6
Coordinates from ORCA-job B6_rectangular_planar_d2.20_q0_m1_R2SCAN-3C E -148.683839575941
  B      -1.575124     -0.746294      0.001552
  B      -0.005240     -0.907308      0.000792
  B       1.568916     -0.741253     -0.002316
  B      -1.569503      0.739771     -0.002180
  B       0.004049      0.908290      0.000353
  B       1.576902      0.746792      0.001799
6
Coordinates from ORCA-job B6_rectangular_planar_d2.20_q0_m1_R2SCAN-3C E -148.683839761422
  B      -1.580263     -0.747039      0.002975
  B      -0.003932     -0.906725     -0.000331
  B       1.570218     -0.739578     -0.002637
  B      -1.567126      0.741289     -0.002360
  B       0.004232      0.903875     -0.000998
  B       1.576871      0.748178      0.003350
6
Coordinates from ORCA-job B6_rectangular_planar_d2.20_q0_m1_R2SCAN-3C E -148.683852970947
  B      -1.578746     -0.749043      0.003738
  B      -0.005535     -0.905164     -0.000296
  B       1.567864     -0.740057     -0.003463
  B      -1.568859      0.740210     -0.003024
  B       0.005905      0.905842     -0.001249
  B       1.579371      0.748211      0.004293
6
Coordinates from ORCA-job B6_rectangular_planar_d2.20_q0_m1_R2SCAN-3C E -148.683868912993
  B      -1.579327     -0.750194      0.004794
  B      -0.009312     -0.906510      0.001891
  B       1.565673     -0.738321     -0.006796
  B      -1.566293      0.737965     -0.005857
  B       0.009163      0.907079      0.000123
  B       1.580097      0.749980      0.005845
6
Coordinates from ORCA-job B6_rectangular_planar_d2.20_q0_m1_R2SCAN-3C E -148.684103985203
  B      -1.589064     -0.762518      0.015739
  B      -0.035285     -0.911164      0.013791
  B       1.543087     -0.723309     -0.030378
  B      -1.545842      0.718781     -0.025378
  B       0.032654      0.914581      0.005370
  B       1.594450      0.763628      0.020855
6
Coordinates from ORCA-job B6_rectangular_planar_d2.20_q0_m1_R2SCAN-3C E -148.684697294059
  B      -1.603402     -0.774760      0.022153
  B      -0.055574     -0.912151      0.017592
  B       1.527133     -0.709486     -0.040930
  B      -1.529424      0.705107     -0.033888
  B       0.053030      0.915151      0.005814
  B       1.608237      0.776138      0.029259
6
Coordinates from ORCA-job B6_rectangular_planar_d2.20_q0_m1_R2SCAN-3C E -148.685734893165
  B      -1.618202     -0.787232      0.025974
  B      -0.076384     -0.911921      0.022013
  B       1.506545     -0.693940     -0.049392
  B      -1.509958      0.688101     -0.041175
  B       0.072772      0.916268      0.008272
  B       1.625228      0.788724      0.034309
6
Coordinates from ORCA-job B6_rectangular_planar_d2.20_q0_m1_R2SCAN-3C E -148.687219595710
  B      -1.635047     -0.800123      0.029918
  B      -0.097075     -0.911239      0.025073
  B       1.486722     -0.677402     -0.056508
  B      -1.490234      0.671518     -0.047502
  B       0.093476      0.915558      0.009983
  B       1.642158      0.801688      0.039036
6
Coordinates from ORCA-job B6_rectangular_planar_d2.20_q0_m1_R2SCAN-3C E -148.689135196645
  B      -1.651794     -0.812565      0.033910
  B      -0.117140     -0.909708      0.028326
  B       1.466033     -0.660393     -0.063814
  B      -1.469855      0.654346     -0.054304
  B       0.113244      0.914179      0.012328
  B       1.659511      0.814141      0.043555
6
Coordinates from ORCA-job B6_rectangular_planar_d2.20_q0_m1_R2SCAN-3C E -148.691483185064
  B      -1.668557     -0.824580      0.038139
  B      -0.136359     -0.907685      0.032004
  B       1.445096     -0.643173     -0.071737
  B      -1.449199      0.637160     -0.061913
  B       0.132267      0.912087      0.015379
  B       1.676753      0.826191      0.048128
6
Coordinates from ORCA-job B6_rectangular_planar_d2.20_q0_m1_R2SCAN-3C E -148.694236623354
  B      -1.685212     -0.836166      0.042511
  B      -0.154596     -0.905433      0.036363
  B       1.423917     -0.625968     -0.080443
  B      -1.428343      0.620118     -0.070470
  B       0.150342      0.909575      0.019344
  B       1.693892      0.837874      0.052695
6
Coordinates from ORCA-job B6_rectangular_planar_d2.20_q0_m1_R2SCAN-3C E -148.697312395609
  B      -1.701799     -0.847376      0.046920
  B      -0.171750     -0.903252      0.041499
  B       1.402588     -0.608952     -0.089923
  B      -1.407389      0.603372     -0.079950
  B       0.167391      0.906972      0.024285
  B       1.710958      0.849236      0.057169
6
Coordinates from ORCA-job B6_rectangular_planar_d2.20_q0_m1_R2SCAN-3C E -148.700562423723
  B      -1.718306     -0.858177      0.051297
  B      -0.187753     -0.901349      0.047425
  B       1.381211     -0.592227     -0.100126
  B      -1.386430      0.586973     -0.090287
  B       0.183356      0.904555      0.030195
  B       1.727921      0.860225      0.061497
6
Coordinates from ORCA-job B6_rectangular_planar_d2.20_q0_m1_R2SCAN-3C E -148.704964067936
  B      -1.738643     -0.871896      0.058146
  B      -0.211429     -0.899186      0.058394
  B       1.349238     -0.567868     -0.117837
  B      -1.355795      0.561945     -0.108259
  B       0.206119      0.902549      0.041296
  B       1.750510      0.874456      0.068259
6
Coordinates from ORCA-job B6_rectangular_planar_d2.20_q0_m1_R2SCAN-3C E -148.711167149096
  B      -1.792312     -0.897288      0.064305
  B      -0.224407     -0.897613      0.069057
  B       1.308580     -0.535641     -0.133516
  B      -1.312244      0.537367     -0.125943
  B       0.225770      0.893872      0.053466
  B       1.794613      0.899302      0.072631
6
Coordinates from ORCA-job B6_rectangular_planar_d2.20_q0_m1_R2SCAN-3C E -148.714824743212
  B      -1.817992     -0.909160      0.091836
  B      -0.249784     -0.903558      0.091340
  B       1.253810     -0.495759     -0.182613
  B      -1.258867      0.493851     -0.179861
  B       0.247784      0.906311      0.083465
  B       1.825048      0.908316      0.095833
6
Coordinates from ORCA-job B6_rectangular_planar_d2.20_q0_m1_R2SCAN-3C E -148.717456680262
  B      -1.812106     -0.890062      0.160826
  B      -0.231468     -0.919187      0.093164
  B       1.254324     -0.486036     -0.253006
  B      -1.257906      0.489122     -0.248165
  B       0.238053      0.917004      0.081012
  B       1.809102      0.889159      0.166169
6
Coordinates from ORCA-job B6_rectangular_planar_d2.20_q0_m1_R2SCAN-3C E -148.717552927637
  B      -1.802864     -0.878060      0.201815
  B      -0.233507     -0.918948      0.070876
  B       1.257951     -0.487664     -0.268536
  B      -1.248440      0.479300     -0.285685
  B       0.223106      0.922749      0.096804
  B       1.803754      0.882623      0.184726
6
Coordinates from ORCA-job B6_rectangular_planar_d2.20_q0_m1_R2SCAN-3C E -148.717696342242
  B      -1.802743     -0.880442      0.200095
  B      -0.230831     -0.924762      0.082476
  B       1.255642     -0.481826     -0.281406
  B      -1.255505      0.483315     -0.278333
  B       0.231585      0.925073      0.073922
  B       1.801851      0.878642      0.203245
6
Coordinates from ORCA-job B6_rectangular_planar_d2.20_q0_m1_R2SCAN-3C E -148.717717679394
  B      -1.804333     -0.881259      0.194183
  B      -0.228765     -0.925383      0.078786
  B       1.255746     -0.485978     -0.271303
  B      -1.256773      0.485378     -0.272254
  B       0.229980      0.925590      0.076587
  B       1.804145      0.881652      0.194001
6
Coordinates from ORCA-job B6_rectangular_planar_d2.20_q0_m1_R2SCAN-3C E -148.717725554359
  B      -1.802827     -0.880516      0.198031
  B      -0.230243     -0.924981      0.076024
  B       1.256884     -0.485611     -0.272177
  B      -1.256511      0.484974     -0.273981
  B       0.229868      0.925071      0.075295
  B       1.802830      0.881062      0.196809
6
Coordinates from ORCA-job B6_rectangular_planar_d2.20_q0_m1_R2SCAN-3C E -148.717727782210
  B      -1.802127     -0.880101      0.200369
  B      -0.230044     -0.925254      0.074422
  B       1.256985     -0.485414     -0.272982
  B      -1.256738      0.485058     -0.274263
  B       0.229680      0.925292      0.072795
  B       1.802244      0.880420      0.199659
6
Coordinates from ORCA-job B6_rectangular_planar_d2.20_q0_m1_R2SCAN-3C E -148.717729021463
  B      -1.801089     -0.879316      0.204082
  B      -0.229661     -0.925706      0.070180
  B       1.257982     -0.485914     -0.272447
  B      -1.257960      0.485431     -0.273891
  B       0.229637      0.925686      0.068815
  B       1.801090      0.879819      0.203261
6
Coordinates from ORCA-job B6_rectangular_planar_d2.20_q0_m1_R2SCAN-3C E -148.717729261889
  B      -1.801308     -0.879581      0.203092
  B      -0.229559     -0.925380      0.070794
  B       1.258039     -0.486005     -0.272087
  B      -1.257943      0.485638     -0.273333
  B       0.229459      0.925432      0.069097
  B       1.801312      0.879897      0.202437
6
Coordinates from ORCA-job B6_rectangular_planar_d2.20_q0_m1_R2SCAN-3C E -148.717729300326
  B      -1.801450     -0.879587      0.202928
  B      -0.229546     -0.925223      0.070852
  B       1.258106     -0.486020     -0.271973
  B      -1.258003      0.485544     -0.273345
  B       0.229525      0.925327      0.069391
  B       1.801369      0.879959      0.202147
