6
Coordinates from ORCA-job B6_rectangular_planar_d2.20_q0_m1_R2SCAN-3C E -148.717729300326
  B          -1.80145038859498     -0.87958711393857      0.20292779380450
  B          -0.22954564232834     -0.92522323153607      0.07085231756299
  B           1.25810583444093     -0.48601971118431     -0.27197263569665
  B          -1.25800349295846      0.48554386860346     -0.27334537571580
  B           0.22952461721947      0.92532731883092      0.06939067023670
  B           1.80136907222138      0.87995886922457      0.20214722980827
