6
Coordinates from ORCA-job B6_rectangular_planar_d1.80_q0_m3_R2SCAN-3C E -148.594220165226
  B      -1.800000     -0.900000      0.000000
  B       0.000000     -0.900000      0.000000
  B       1.800000     -0.900000      0.000000
  B      -1.800000      0.900000      0.000000
  B       0.000000      0.900000      0.000000
  B       1.800000      0.900000      0.000000
6
Coordinates from ORCA-job B6_rectangular_planar_d1.80_q0_m3_R2SCAN-3C E -148.637621852546
  B      -1.743859     -0.862079     -0.000000
  B      -0.000000     -0.886499      0.000000
  B       1.743859     -0.862079     -0.000000
  B      -1.743859      0.862079     -0.000000
  B       0.000000      0.886499     -0.000000
  B       1.743859      0.862079      0.000000
6
Coordinates from ORCA-job B6_rectangular_planar_d1.80_q0_m3_R2SCAN-3C E -148.672356667765
  B      -1.687389     -0.823695      0.000000
  B       0.000000     -0.880208     -0.000000
  B       1.687389     -0.823695      0.000000
  B      -1.687389      0.823695      0.000000
  B      -0.000000      0.880208     -0.000000
  B       1.687389      0.823695      0.000000
6
Coordinates from ORCA-job B6_rectangular_planar_d1.80_q0_m3_R2SCAN-3C E -148.700198927642
  B      -1.599161     -0.768420      0.000000
  B       0.000000     -0.883500      0.000000
  B       1.599161     -0.768420     -0.000000
  B      -1.599161      0.768420      0.000000
  B      -0.000000      0.883500     -0.000000
  B       1.599161      0.768420      0.000000
6
Coordinates from ORCA-job B6_rectangular_planar_d1.80_q0_m3_R2SCAN-3C E -148.701727721322
  B      -1.568048     -0.757733     -0.000000
  B      -0.000000     -0.900356      0.000000
  B       1.568048     -0.757733      0.000000
  B      -1.568051      0.757732      0.000000
  B       0.000000      0.900359      0.000000
  B       1.568051      0.757732     -0.000000
6
Coordinates from ORCA-job B6_rectangular_planar_d1.80_q0_m3_R2SCAN-3C E -148.702171809390
  B      -1.572763     -0.758104      0.000000
  B      -0.000000     -0.910383     -0.000000
  B       1.572763     -0.758104      0.000000
  B      -1.572763      0.758104      0.000000
  B       0.000000      0.910383     -0.000000
  B       1.572763      0.758104      0.000000
6
Coordinates from ORCA-job B6_rectangular_planar_d1.80_q0_m3_R2SCAN-3C E -148.702524118949
  B      -1.573183     -0.759505     -0.000000
  B      -0.000000     -0.932908      0.000001
  B       1.573183     -0.759505     -0.000000
  B      -1.573159      0.759517     -0.000000
  B       0.000000      0.932884      0.000001
  B       1.573159      0.759517     -0.000000
6
Coordinates from ORCA-job B6_rectangular_planar_d1.80_q0_m3_R2SCAN-3C E -148.702541516662
  B      -1.572579     -0.757846      0.000002
  B      -0.000000     -0.938314     -0.000003
  B       1.572579     -0.757846      0.000002
  B      -1.572581      0.757843      0.000002
  B       0.000000      0.938319     -0.000003
  B       1.572581      0.757843      0.000002
6
Coordinates from ORCA-job B6_rectangular_planar_d1.80_q0_m3_R2SCAN-3C E -148.702543361782
  B      -1.572053     -0.758382     -0.000006
  B      -0.000000     -0.939113      0.000011
  B       1.572053     -0.758382     -0.000006
  B      -1.572056      0.758379     -0.000006
  B       0.000000      0.939119      0.000011
  B       1.572056      0.758379     -0.000006
6
Coordinates from ORCA-job B6_rectangular_planar_d1.80_q0_m3_R2SCAN-3C E -148.702543383156
  B      -1.572112     -0.758342      0.000022
  B      -0.000000     -0.938950     -0.000044
  B       1.572112     -0.758342      0.000022
  B      -1.572108      0.758342      0.000022
  B       0.000000      0.938952     -0.000044
  B       1.572108      0.758342      0.000022
