6
Coordinates from ORCA-job B6_rectangular_planar_d1.80_q0_m3_R2SCAN-3C E -148.702543383156
  B          -1.57211201360823     -0.75834233994345      0.00002194729455
  B          -0.00000000480652     -0.93895036673267     -0.00004397027868
  B           1.57211200441966     -0.75834233331683      0.00002201494149
  B          -1.57210823046839      0.75834173401073      0.00002205630684
  B           0.00000000461345      0.93895156415793     -0.00004403692380
  B           1.57210823985003      0.75834174182429      0.00002198865961
