6
Coordinates from ORCA-job B6_random_3d_seed1001_d1.80_q0_m1_R2SCAN-3C E -148.659856923674
  B           0.10840925030696     -1.16320323814747     -0.41549011589374
  B          -0.10856086474193      1.16207939626991      0.41697768543772
  B           0.35382599114020      0.43051932908103     -1.10712767911308
  B          -0.35413914104000     -0.42867110693197      1.10731756274542
  B           1.03426971880032     -0.01945767760692      0.32233869459482
  B          -1.03380495446555      0.01873328733541     -0.32401613777113
