6
Coordinates from ORCA-job B6_random_3d_seed1001_d1.80_q0_m1_R2SCAN-3C E -148.589832263005
  B       0.119858     -1.283895     -0.365851
  B      -0.054950      1.176853      0.398707
  B       0.320761      0.451743     -1.139454
  B      -0.368686     -0.572121      1.181593
  B       1.223598      0.086552      0.381535
  B      -1.240580      0.140868     -0.456531
6
Coordinates from ORCA-job B6_random_3d_seed1001_d1.80_q0_m1_R2SCAN-3C E -148.613403439359
  B       0.117689     -1.259222     -0.352723
  B      -0.061242      1.160393      0.392655
  B       0.319344      0.443104     -1.122280
  B      -0.365671     -0.566351      1.155104
  B       1.187221      0.082642      0.363452
  B      -1.197340      0.139435     -0.436208
6
Coordinates from ORCA-job B6_random_3d_seed1001_d1.80_q0_m1_R2SCAN-3C E -148.631823939578
  B       0.115659     -1.234836     -0.343213
  B      -0.068424      1.145609      0.389867
  B       0.319290      0.432840     -1.107720
  B      -0.363323     -0.558154      1.131000
  B       1.149879      0.078209      0.345175
  B      -1.153081      0.136331     -0.415109
6
Coordinates from ORCA-job B6_random_3d_seed1001_d1.80_q0_m1_R2SCAN-3C E -148.648811197615
  B       0.112738     -1.197189     -0.337269
  B      -0.081647      1.128944      0.394030
  B       0.323946      0.414788     -1.092776
  B      -0.362023     -0.537821      1.097897
  B       1.095885      0.067401      0.318671
  B      -1.088899      0.123878     -0.380554
6
Coordinates from ORCA-job B6_random_3d_seed1001_d1.80_q0_m1_R2SCAN-3C E -148.654626584640
  B       0.108749     -1.165984     -0.344583
  B      -0.094059      1.125965      0.408655
  B       0.333693      0.399864     -1.091925
  B      -0.363128     -0.509434      1.075634
  B       1.055698      0.051191      0.301542
  B      -1.040952      0.098398     -0.349322
6
Coordinates from ORCA-job B6_random_3d_seed1001_d1.80_q0_m1_R2SCAN-3C E -148.657018690114
  B       0.105830     -1.160133     -0.356334
  B      -0.099463      1.136217      0.421462
  B       0.340779      0.397818     -1.103147
  B      -0.362746     -0.493612      1.075864
  B       1.046472      0.039807      0.302410
  B      -1.030872      0.079903     -0.340255
6
Coordinates from ORCA-job B6_random_3d_seed1001_d1.80_q0_m1_R2SCAN-3C E -148.659423379110
  B       0.102314     -1.161045     -0.379560
  B      -0.109091      1.158805      0.442723
  B       0.352805      0.399111     -1.127206
  B      -0.357966     -0.469596      1.086481
  B       1.038559      0.019477      0.310949
  B      -1.026622      0.053248     -0.333386
6
Coordinates from ORCA-job B6_random_3d_seed1001_d1.80_q0_m1_R2SCAN-3C E -148.659586713854
  B       0.102891     -1.162421     -0.386935
  B      -0.113053      1.162973      0.446923
  B       0.356122      0.399422     -1.131303
  B      -0.354703     -0.461704      1.090437
  B       1.035710      0.012930      0.313148
  B      -1.026966      0.048800     -0.332269
6
Coordinates from ORCA-job B6_random_3d_seed1001_d1.80_q0_m1_R2SCAN-3C E -148.659635881186
  B       0.103482     -1.163602     -0.391466
  B      -0.115412      1.163424      0.447430
  B       0.357792      0.399847     -1.130792
  B      -0.352561     -0.456731      1.092765
  B       1.034683      0.009622      0.313905
  B      -1.027984      0.047440     -0.331842
6
Coordinates from ORCA-job B6_random_3d_seed1001_d1.80_q0_m1_R2SCAN-3C E -148.659678045512
  B       0.103638     -1.164786     -0.396406
  B      -0.117442      1.162544      0.445935
  B       0.359200      0.401095     -1.127580
  B      -0.350489     -0.451168      1.094944
  B       1.034345      0.006551      0.314414
  B      -1.029253      0.045764     -0.331308
6
Coordinates from ORCA-job B6_random_3d_seed1001_d1.80_q0_m1_R2SCAN-3C E -148.659716634618
  B       0.103204     -1.165730     -0.401207
  B      -0.118475      1.161115      0.442191
  B       0.359981      0.403903     -1.122259
  B      -0.348941     -0.445699      1.096911
  B       1.034864      0.003460      0.315032
  B      -1.030632      0.042952     -0.330669
6
Coordinates from ORCA-job B6_random_3d_seed1001_d1.80_q0_m1_R2SCAN-3C E -148.659756073827
  B       0.102473     -1.166256     -0.405927
  B      -0.118212      1.159992      0.436050
  B       0.359931      0.409049     -1.115467
  B      -0.348084     -0.440178      1.098868
  B       1.035880     -0.000703      0.316169
  B      -1.031987      0.038096     -0.329693
6
Coordinates from ORCA-job B6_random_3d_seed1001_d1.80_q0_m1_R2SCAN-3C E -148.659795600963
  B       0.102135     -1.166183     -0.410254
  B      -0.116453      1.159965      0.428011
  B       0.358856      0.416688     -1.108520
  B      -0.348199     -0.434872      1.100945
  B       1.036799     -0.006660      0.318012
  B      -1.033138      0.031062     -0.328194
6
Coordinates from ORCA-job B6_random_3d_seed1001_d1.80_q0_m1_R2SCAN-3C E -148.659827492747
  B       0.102979     -1.165500     -0.412836
  B      -0.113761      1.161357      0.421154
  B       0.357073      0.424274     -1.104536
  B      -0.349457     -0.431389      1.102748
  B       1.036851     -0.012975      0.319959
  B      -1.033685      0.024234     -0.326489
6
Coordinates from ORCA-job B6_random_3d_seed1001_d1.80_q0_m1_R2SCAN-3C E -148.659846386511
  B       0.104879     -1.164676     -0.413283
  B      -0.111368      1.163184      0.418139
  B       0.355426      0.428736     -1.104760
  B      -0.351256     -0.430457      1.103983
  B       1.036035     -0.017230      0.321193
  B      -1.033717      0.020443     -0.325273
6
Coordinates from ORCA-job B6_random_3d_seed1001_d1.80_q0_m1_R2SCAN-3C E -148.659851934663
  B       0.106393     -1.164262     -0.413148
  B      -0.110306      1.163735      0.418056
  B       0.354684      0.429611     -1.106270
  B      -0.352332     -0.430546      1.104722
  B       1.035264     -0.018439      0.321540
  B      -1.033702      0.019901     -0.324899
6
Coordinates from ORCA-job B6_random_3d_seed1001_d1.80_q0_m1_R2SCAN-3C E -148.659854366821
  B       0.107407     -1.163964     -0.413629
  B      -0.109641      1.163493      0.417907
  B       0.354270      0.430012     -1.106949
  B      -0.353009     -0.430080      1.105527
  B       1.034713     -0.019055      0.321772
  B      -1.033739      0.019595     -0.324629
6
Coordinates from ORCA-job B6_random_3d_seed1001_d1.80_q0_m1_R2SCAN-3C E -148.659856295056
  B       0.108394     -1.163566     -0.414726
  B      -0.108852      1.162747      0.417414
  B       0.353859      0.430517     -1.107257
  B      -0.353798     -0.429084      1.106706
  B       1.034203     -0.019637      0.322109
  B      -1.033807      0.019023     -0.324246
6
Coordinates from ORCA-job B6_random_3d_seed1001_d1.80_q0_m1_R2SCAN-3C E -148.659856801418
  B       0.108512     -1.163358     -0.415285
  B      -0.108611      1.162258      0.417158
  B       0.353800      0.430559     -1.107201
  B      -0.354066     -0.428699      1.107177
  B       1.034180     -0.019575      0.322250
  B      -1.033814      0.018815     -0.324099
6
Coordinates from ORCA-job B6_random_3d_seed1001_d1.80_q0_m1_R2SCAN-3C E -148.659856923674
  B       0.108409     -1.163203     -0.415490
  B      -0.108561      1.162079      0.416978
  B       0.353826      0.430519     -1.107128
  B      -0.354139     -0.428671      1.107318
  B       1.034270     -0.019458      0.322339
  B      -1.033805      0.018733     -0.324016
