6
Coordinates from ORCA-job B6_random_3d_seed1003_d2.20_q0_m5_R2SCAN-3C E -148.645456557650
  B           0.21960193003442      0.68394045001231     -0.92899543869370
  B          -0.21987641361344     -0.68366612327305      0.92908710091354
  B          -1.32340103262857      0.06028947793544     -0.04542849956890
  B           1.32324888334524     -0.06063814847155      0.04514545310062
  B           0.17124899956690      0.86979301893390      0.77128348745432
  B          -0.17082236670454     -0.86971866513705     -0.77109210320587
