6
Coordinates from ORCA-job B6_random_3d_seed1003_d2.20_q0_m5_R2SCAN-3C E -148.322706813035
  B       0.220942      0.995121     -1.354569
  B      -0.164741     -0.949649      1.192565
  B      -1.613539      0.215048     -0.062361
  B       1.743084     -0.140170      0.167877
  B       0.085877      1.124318      1.015819
  B      -0.271623     -1.244667     -0.959331
6
Coordinates from ORCA-job B6_random_3d_seed1003_d2.20_q0_m5_R2SCAN-3C E -148.348545643644
  B       0.216102      0.972877     -1.330075
  B      -0.160327     -0.927198      1.165345
  B      -1.582793      0.209666     -0.062788
  B       1.712335     -0.131590      0.170245
  B       0.087888      1.096887      0.998489
  B      -0.273207     -1.220641     -0.941216
6
Coordinates from ORCA-job B6_random_3d_seed1003_d2.20_q0_m5_R2SCAN-3C E -148.377637922191
  B       0.211548      0.951116     -1.306329
  B      -0.155889     -0.905820      1.139549
  B      -1.550229      0.203671     -0.063722
  B       1.678904     -0.122297      0.172515
  B       0.090930      1.070480      0.981956
  B      -0.275265     -1.197151     -0.923968
6
Coordinates from ORCA-job B6_random_3d_seed1003_d2.20_q0_m5_R2SCAN-3C E -148.422512857493
  B       0.205181      0.920495     -1.270107
  B      -0.151847     -0.878086      1.101061
  B      -1.500068      0.194314     -0.065078
  B       1.628875     -0.105221      0.176373
  B       0.097747      1.031550      0.953982
  B      -0.279888     -1.163051     -0.896231
6
Coordinates from ORCA-job B6_random_3d_seed1003_d2.20_q0_m5_R2SCAN-3C E -148.495903661637
  B       0.200525      0.877466     -1.225055
  B      -0.146244     -0.842216      1.055543
  B      -1.439491      0.167090     -0.074128
  B       1.559182     -0.076455      0.186212
  B       0.119003      0.965876      0.906331
  B      -0.292974     -1.091761     -0.848903
6
Coordinates from ORCA-job B6_random_3d_seed1003_d2.20_q0_m5_R2SCAN-3C E -148.561444409647
  B       0.197723      0.830695     -1.173328
  B      -0.142571     -0.808197      1.009889
  B      -1.382674      0.133562     -0.087412
  B       1.489344     -0.041610      0.196996
  B       0.149636      0.903155      0.856608
  B      -0.311458     -1.017605     -0.802753
6
Coordinates from ORCA-job B6_random_3d_seed1003_d2.20_q0_m5_R2SCAN-3C E -148.609666266584
  B       0.197699      0.768138     -1.101308
  B      -0.141933     -0.777404      0.964982
  B      -1.328933      0.110833     -0.093883
  B       1.416146     -0.005643      0.194944
  B       0.175202      0.853615      0.805707
  B      -0.318183     -0.949538     -0.770442
6
Coordinates from ORCA-job B6_random_3d_seed1003_d2.20_q0_m5_R2SCAN-3C E -148.630597964917
  B       0.208651      0.698991     -1.029472
  B      -0.144624     -0.738832      0.901398
  B      -1.299107      0.106169     -0.071076
  B       1.336389      0.004448      0.167436
  B       0.176555      0.820758      0.769077
  B      -0.277864     -0.891534     -0.737363
6
Coordinates from ORCA-job B6_random_3d_seed1003_d2.20_q0_m5_R2SCAN-3C E -148.639449014666
  B       0.234747      0.622432     -0.965839
  B      -0.163188     -0.708026      0.872010
  B      -1.290145      0.111156     -0.032302
  B       1.310285      0.000383      0.104112
  B       0.136772      0.822741      0.767214
  B      -0.228471     -0.848686     -0.745195
6
Coordinates from ORCA-job B6_random_3d_seed1003_d2.20_q0_m5_R2SCAN-3C E -148.644468123589
  B       0.250171      0.640066     -0.962574
  B      -0.174995     -0.725790      0.888058
  B      -1.309305      0.114713     -0.022873
  B       1.327152     -0.003358      0.088429
  B       0.131453      0.851748      0.771890
  B      -0.224477     -0.877378     -0.762930
6
Coordinates from ORCA-job B6_random_3d_seed1003_d2.20_q0_m5_R2SCAN-3C E -148.645067467287
  B       0.251628      0.640769     -0.956929
  B      -0.186664     -0.720451      0.898875
  B      -1.312073      0.107070     -0.015589
  B       1.338827     -0.007857      0.082204
  B       0.129583      0.859496      0.771362
  B      -0.221302     -0.879027     -0.779923
6
Coordinates from ORCA-job B6_random_3d_seed1003_d2.20_q0_m5_R2SCAN-3C E -148.645192059718
  B       0.252648      0.645694     -0.947411
  B      -0.191952     -0.716091      0.903302
  B      -1.314376      0.100381     -0.013089
  B       1.341354     -0.011489      0.079637
  B       0.132174      0.862454      0.764112
  B      -0.219849     -0.880949     -0.786551
6
Coordinates from ORCA-job B6_random_3d_seed1003_d2.20_q0_m5_R2SCAN-3C E -148.645255939035
  B       0.247607      0.650260     -0.942576
  B      -0.193336     -0.711360      0.909577
  B      -1.315760      0.093476     -0.014428
  B       1.343230     -0.018489      0.081957
  B       0.136358      0.864508      0.758332
  B      -0.218099     -0.878396     -0.792863
6
Coordinates from ORCA-job B6_random_3d_seed1003_d2.20_q0_m5_R2SCAN-3C E -148.645288682559
  B       0.246096      0.652950     -0.938690
  B      -0.193348     -0.708077      0.912196
  B      -1.315928      0.088622     -0.015927
  B       1.339512     -0.023736      0.080974
  B       0.139068      0.866151      0.755630
  B      -0.215400     -0.875909     -0.794183
6
Coordinates from ORCA-job B6_random_3d_seed1003_d2.20_q0_m5_R2SCAN-3C E -148.645328016337
  B       0.243222      0.658715     -0.936184
  B      -0.193072     -0.702753      0.914904
  B      -1.315657      0.080486     -0.019047
  B       1.333463     -0.033725      0.079268
  B       0.142828      0.869276      0.754596
  B      -0.210783     -0.871999     -0.793537
6
Coordinates from ORCA-job B6_random_3d_seed1003_d2.20_q0_m5_R2SCAN-3C E -148.645368196334
  B       0.240894      0.665991     -0.935124
  B      -0.193190     -0.696546      0.917360
  B      -1.317546      0.071030     -0.022502
  B       1.325960     -0.046001      0.075693
  B       0.147479      0.873582      0.755999
  B      -0.203596     -0.868056     -0.791427
6
Coordinates from ORCA-job B6_random_3d_seed1003_d2.20_q0_m5_R2SCAN-3C E -148.645403674700
  B       0.238978      0.674344     -0.934938
  B      -0.195459     -0.689841      0.918739
  B      -1.321333      0.060469     -0.025503
  B       1.320072     -0.059076      0.070410
  B       0.152638      0.878460      0.758863
  B      -0.194896     -0.864356     -0.787571
6
Coordinates from ORCA-job B6_random_3d_seed1003_d2.20_q0_m5_R2SCAN-3C E -148.645420711232
  B       0.238813      0.677187     -0.936053
  B      -0.197910     -0.687540      0.918903
  B      -1.325067      0.056992     -0.026376
  B       1.319957     -0.062640      0.067360
  B       0.155102      0.879375      0.761253
  B      -0.190895     -0.863374     -0.785087
6
Coordinates from ORCA-job B6_random_3d_seed1003_d2.20_q0_m5_R2SCAN-3C E -148.645426541364
  B       0.238426      0.678366     -0.936106
  B      -0.200266     -0.686766      0.919246
  B      -1.327011      0.055923     -0.026829
  B       1.321230     -0.063337      0.065361
  B       0.156413      0.878916      0.761864
  B      -0.188792     -0.863102     -0.783536
6
Coordinates from ORCA-job B6_random_3d_seed1003_d2.20_q0_m5_R2SCAN-3C E -148.645430404499
  B       0.237504      0.679347     -0.935910
  B      -0.202280     -0.686291      0.920263
  B      -1.327928      0.055550     -0.027755
  B       1.321716     -0.063747      0.063434
  B       0.157637      0.878002      0.762167
  B      -0.186649     -0.862862     -0.782199
6
Coordinates from ORCA-job B6_random_3d_seed1003_d2.20_q0_m5_R2SCAN-3C E -148.645438444295
  B       0.234739      0.681308     -0.935147
  B      -0.206925     -0.685868      0.922970
  B      -1.328218      0.055753     -0.030381
  B       1.322519     -0.063877      0.058982
  B       0.160074      0.875496      0.762687
  B      -0.182189     -0.862811     -0.779110
6
Coordinates from ORCA-job B6_random_3d_seed1003_d2.20_q0_m5_R2SCAN-3C E -148.645446363515
  B       0.230016      0.684429     -0.934139
  B      -0.213782     -0.685366      0.927375
  B      -1.327319      0.056497     -0.035049
  B       1.322541     -0.064198      0.051813
  B       0.163729      0.871801      0.764204
  B      -0.175185     -0.863163     -0.774205
6
Coordinates from ORCA-job B6_random_3d_seed1003_d2.20_q0_m5_R2SCAN-3C E -148.645450013115
  B       0.227867      0.684524     -0.933787
  B      -0.216344     -0.686281      0.929081
  B      -1.325322      0.058670     -0.037174
  B       1.322908     -0.062274      0.049255
  B       0.164560      0.869854      0.765230
  B      -0.173669     -0.864494     -0.772605
6
Coordinates from ORCA-job B6_random_3d_seed1003_d2.20_q0_m5_R2SCAN-3C E -148.645451980035
  B       0.225744      0.684594     -0.933128
  B      -0.218176     -0.686718      0.930142
  B      -1.323449      0.060368     -0.039322
  B       1.322763     -0.061044      0.047062
  B       0.165476      0.868834      0.766653
  B      -0.172358     -0.866033     -0.771406
6
Coordinates from ORCA-job B6_random_3d_seed1003_d2.20_q0_m5_R2SCAN-3C E -148.645452885755
  B       0.226158      0.683852     -0.933001
  B      -0.216691     -0.686613      0.929111
  B      -1.323298      0.060344     -0.038922
  B       1.322513     -0.060961      0.048447
  B       0.165094      0.869811      0.766857
  B      -0.173776     -0.866434     -0.772492
6
Coordinates from ORCA-job B6_random_3d_seed1003_d2.20_q0_m5_R2SCAN-3C E -148.645454131065
  B       0.225171      0.683281     -0.932145
  B      -0.216272     -0.686210      0.928509
  B      -1.323011      0.060720     -0.039865
  B       1.322537     -0.060631      0.048694
  B       0.165758      0.870311      0.767750
  B      -0.174183     -0.867471     -0.772942
6
Coordinates from ORCA-job B6_random_3d_seed1003_d2.20_q0_m5_R2SCAN-3C E -148.645455747394
  B       0.222739      0.683044     -0.930435
  B      -0.216690     -0.684844      0.927906
  B      -1.323208      0.060555     -0.042221
  B       1.322760     -0.060752      0.048124
  B       0.167992      0.870828      0.769500
  B      -0.173594     -0.868831     -0.772874
6
Coordinates from ORCA-job B6_random_3d_seed1003_d2.20_q0_m5_R2SCAN-3C E -148.645456307539
  B       0.221071      0.683246     -0.929537
  B      -0.217881     -0.684077      0.928125
  B      -1.323395      0.060401     -0.043899
  B       1.323025     -0.060693      0.047011
  B       0.169712      0.870570      0.770556
  B      -0.172532     -0.869447     -0.772256
6
Coordinates from ORCA-job B6_random_3d_seed1003_d2.20_q0_m5_R2SCAN-3C E -148.645456517130
  B       0.219553      0.683685     -0.928836
  B      -0.219498     -0.683587      0.928781
  B      -1.323379      0.060367     -0.045426
  B       1.323274     -0.060554      0.045521
  B       0.171231      0.869998      0.771353
  B      -0.171181     -0.869910     -0.771392
6
Coordinates from ORCA-job B6_random_3d_seed1003_d2.20_q0_m5_R2SCAN-3C E -148.645456557650
  B       0.219602      0.683940     -0.928995
  B      -0.219876     -0.683666      0.929087
  B      -1.323401      0.060289     -0.045428
  B       1.323249     -0.060638      0.045145
  B       0.171249      0.869793      0.771283
  B      -0.170822     -0.869719     -0.771092
