6
Coordinates from ORCA-job B6_random_3d_seed1001_d2.20_q0_m1_R2SCAN-3C E -148.349130027425
  B       0.146493     -1.569205     -0.447151
  B      -0.067161      1.438376      0.487309
  B       0.392042      0.552130     -1.392666
  B      -0.450617     -0.699258      1.444170
  B       1.495508      0.105786      0.466321
  B      -1.516265      0.172172     -0.557982
6
Coordinates from ORCA-job B6_random_3d_seed1001_d2.20_q0_m1_R2SCAN-3C E -148.377841060443
  B       0.133127     -1.547091     -0.429941
  B      -0.051616      1.414204      0.470179
  B       0.372655      0.552349     -1.363147
  B      -0.431907     -0.699240      1.416474
  B       1.463388      0.112173      0.467947
  B      -1.485648      0.167604     -0.561512
6
Coordinates from ORCA-job B6_random_3d_seed1001_d2.20_q0_m1_R2SCAN-3C E -148.406511398360
  B       0.119508     -1.526247     -0.411799
  B      -0.034845      1.390474      0.453000
  B       0.351985      0.553416     -1.333735
  B      -0.412989     -0.700537      1.389240
  B       1.431755      0.119408      0.470065
  B      -1.455414      0.163487     -0.566770
6
Coordinates from ORCA-job B6_random_3d_seed1001_d2.20_q0_m1_R2SCAN-3C E -148.448322355207
  B       0.099049     -1.494837     -0.384092
  B      -0.010339      1.354921      0.427125
  B       0.320703      0.555235     -1.289338
  B      -0.384622     -0.702417      1.348045
  B       1.385754      0.129684      0.473328
  B      -1.410545      0.157414     -0.575068
6
Coordinates from ORCA-job B6_random_3d_seed1001_d2.20_q0_m1_R2SCAN-3C E -148.502825959244
  B       0.069167     -1.445222     -0.342820
  B       0.023078      1.303540      0.389440
  B       0.276816      0.556521     -1.221748
  B      -0.340907     -0.702938      1.284736
  B       1.316813      0.140987      0.476661
  B      -1.344966      0.147112     -0.586268
6
Coordinates from ORCA-job B6_random_3d_seed1001_d2.20_q0_m1_R2SCAN-3C E -148.541992918823
  B       0.037666     -1.383996     -0.302968
  B       0.042907      1.256494      0.350904
  B       0.242021      0.553774     -1.152738
  B      -0.292848     -0.696289      1.213488
  B       1.247913      0.138723      0.479086
  B      -1.277660      0.131294     -0.587772
6
Coordinates from ORCA-job B6_random_3d_seed1001_d2.20_q0_m1_R2SCAN-3C E -148.567072550531
  B       0.010708     -1.308663     -0.271779
  B       0.020058      1.237509      0.321794
  B       0.248379      0.539925     -1.100134
  B      -0.245404     -0.677016      1.135698
  B       1.183217      0.101555      0.470298
  B      -1.216959      0.106689     -0.555877
6
Coordinates from ORCA-job B6_random_3d_seed1001_d2.20_q0_m1_R2SCAN-3C E -148.586551207999
  B      -0.003157     -1.234220     -0.262228
  B      -0.018220      1.232246      0.324631
  B       0.264231      0.501406     -1.073846
  B      -0.219224     -0.644362      1.071908
  B       1.116916      0.061086      0.444594
  B      -1.140546      0.083844     -0.505059
6
Coordinates from ORCA-job B6_random_3d_seed1001_d2.20_q0_m1_R2SCAN-3C E -148.615356131290
  B      -0.008538     -1.194043     -0.304398
  B      -0.057664      1.242575      0.344164
  B       0.297764      0.456443     -1.066900
  B      -0.221022     -0.601024      1.062210
  B       1.067164      0.036361      0.410055
  B      -1.077704      0.059688     -0.445131
6
Coordinates from ORCA-job B6_random_3d_seed1001_d2.20_q0_m1_R2SCAN-3C E -148.647921695625
  B       0.019144     -1.194810     -0.353225
  B      -0.103338      1.255063      0.372171
  B       0.356721      0.413422     -1.079060
  B      -0.273805     -0.569998      1.079612
  B       1.048047      0.032004      0.345124
  B      -1.046769      0.064319     -0.364621
6
Coordinates from ORCA-job B6_random_3d_seed1001_d2.20_q0_m1_R2SCAN-3C E -148.656485980325
  B       0.055163     -1.176199     -0.387864
  B      -0.131115      1.233450      0.395360
  B       0.374998      0.372247     -1.092798
  B      -0.304602     -0.519638      1.066558
  B       1.025120      0.016558      0.321519
  B      -1.019565      0.073582     -0.302775
6
Coordinates from ORCA-job B6_random_3d_seed1001_d2.20_q0_m1_R2SCAN-3C E -148.658578367987
  B       0.084776     -1.187058     -0.418883
  B      -0.123122      1.212844      0.414856
  B       0.367726      0.356942     -1.120741
  B      -0.325607     -0.493249      1.088733
  B       1.031697      0.023713      0.332905
  B      -1.035470      0.086808     -0.296869
6
Coordinates from ORCA-job B6_random_3d_seed1001_d2.20_q0_m1_R2SCAN-3C E -148.659147909543
  B       0.089101     -1.165877     -0.425941
  B      -0.109872      1.199388      0.426048
  B       0.364508      0.346015     -1.123495
  B      -0.337216     -0.473222      1.079498
  B       1.028912      0.026188      0.333789
  B      -1.035433      0.067509     -0.289900
6
Coordinates from ORCA-job B6_random_3d_seed1001_d2.20_q0_m1_R2SCAN-3C E -148.659352488003
  B       0.092256     -1.166224     -0.419099
  B      -0.106622      1.198416      0.423085
  B       0.359012      0.352907     -1.122468
  B      -0.335080     -0.476156      1.082587
  B       1.028291      0.021740      0.334018
  B      -1.037857      0.069318     -0.298122
6
Coordinates from ORCA-job B6_random_3d_seed1001_d2.20_q0_m1_R2SCAN-3C E -148.659481653429
  B       0.096758     -1.166058     -0.411596
  B      -0.101312      1.192987      0.420950
  B       0.351851      0.363440     -1.123296
  B      -0.340180     -0.474053      1.084429
  B       1.030094      0.016791      0.332399
  B      -1.037212      0.066893     -0.302888
6
Coordinates from ORCA-job B6_random_3d_seed1001_d2.20_q0_m1_R2SCAN-3C E -148.659579091937
  B       0.101933     -1.164265     -0.404891
  B      -0.095463      1.183762      0.420324
  B       0.346309      0.376120     -1.124038
  B      -0.347122     -0.466231      1.087785
  B       1.031610      0.009911      0.328155
  B      -1.037267      0.060703     -0.307334
6
Coordinates from ORCA-job B6_random_3d_seed1001_d2.20_q0_m1_R2SCAN-3C E -148.659662694977
  B       0.103453     -1.162948     -0.400274
  B      -0.092629      1.173676      0.419756
  B       0.344118      0.390354     -1.123772
  B      -0.352642     -0.455308      1.093055
  B       1.034386      0.002256      0.322855
  B      -1.036686      0.051969     -0.311621
6
Coordinates from ORCA-job B6_random_3d_seed1001_d2.20_q0_m1_R2SCAN-3C E -148.659753462693
  B       0.101860     -1.161848     -0.397233
  B      -0.093173      1.161584      0.419209
  B       0.345222      0.408525     -1.121734
  B      -0.355826     -0.438830      1.101650
  B       1.037694     -0.008874      0.315531
  B      -1.035777      0.039443     -0.317423
6
Coordinates from ORCA-job B6_random_3d_seed1001_d2.20_q0_m1_R2SCAN-3C E -148.659809625565
  B       0.097627     -1.163218     -0.398754
  B      -0.097134      1.158338      0.418805
  B       0.349242      0.416732     -1.119057
  B      -0.353629     -0.430206      1.107312
  B       1.039059     -0.014455      0.312026
  B      -1.035165      0.032809     -0.320331
6
Coordinates from ORCA-job B6_random_3d_seed1001_d2.20_q0_m1_R2SCAN-3C E -148.659837899118
  B       0.095084     -1.164924     -0.402087
  B      -0.101447      1.160267      0.418531
  B       0.352469      0.418309     -1.116627
  B      -0.349330     -0.426467      1.109839
  B       1.038045     -0.017890      0.311484
  B      -1.034821      0.030704     -0.321140
6
Coordinates from ORCA-job B6_random_3d_seed1001_d2.20_q0_m1_R2SCAN-3C E -148.659843769203
  B       0.094754     -1.165669     -0.403439
  B      -0.101739      1.161585      0.418012
  B       0.352344      0.419357     -1.115431
  B      -0.348346     -0.425082      1.110422
  B       1.037564     -0.019435      0.311950
  B      -1.034577      0.029244     -0.321515
6
Coordinates from ORCA-job B6_random_3d_seed1001_d2.20_q0_m1_R2SCAN-3C E -148.659849019113
  B       0.095646     -1.166628     -0.405234
  B      -0.101096      1.163241      0.417120
  B       0.351218      0.421001     -1.114042
  B      -0.348299     -0.422953      1.110661
  B       1.036919     -0.021833      0.312782
  B      -1.034389      0.027173     -0.321287
6
Coordinates from ORCA-job B6_random_3d_seed1001_d2.20_q0_m1_R2SCAN-3C E -148.659851547003
  B       0.096654     -1.167224     -0.406719
  B      -0.099964      1.164504      0.416141
  B       0.350130      0.421961     -1.112971
  B      -0.349029     -0.421761      1.110502
  B       1.036660     -0.023116      0.313565
  B      -1.034452      0.025636     -0.320519
6
Coordinates from ORCA-job B6_random_3d_seed1001_d2.20_q0_m1_R2SCAN-3C E -148.659852869655
  B       0.097534     -1.167143     -0.407584
  B      -0.099129      1.164460      0.415236
  B       0.349499      0.422971     -1.112310
  B      -0.349804     -0.420566      1.110665
  B       1.036601     -0.024212      0.313898
  B      -1.034701      0.024489     -0.319905
6
Coordinates from ORCA-job B6_random_3d_seed1001_d2.20_q0_m1_R2SCAN-3C E -148.659853957149
  B       0.098063     -1.166883     -0.408709
  B      -0.098512      1.164764      0.414046
  B       0.349287      0.422871     -1.111821
  B      -0.350288     -0.420623      1.110672
  B       1.036584     -0.024306      0.314660
  B      -1.035133      0.024177     -0.318847
6
Coordinates from ORCA-job B6_random_3d_seed1001_d2.20_q0_m1_R2SCAN-3C E -148.659854943583
  B       0.098458     -1.166110     -0.410009
  B      -0.098161      1.164850      0.412479
  B       0.349378      0.422528     -1.111367
  B      -0.350349     -0.420903      1.110932
  B       1.036377     -0.024444      0.315657
  B      -1.035702      0.024080     -0.317691
6
Coordinates from ORCA-job B6_random_3d_seed1001_d2.20_q0_m1_R2SCAN-3C E -148.659855429553
  B       0.098338     -1.165569     -0.410807
  B      -0.098234      1.165071      0.411481
  B       0.349691      0.422021     -1.111294
  B      -0.350014     -0.421566      1.111200
  B       1.036200     -0.024262      0.316444
  B      -1.035981      0.024304     -0.317024
6
Coordinates from ORCA-job B6_random_3d_seed1001_d2.20_q0_m1_R2SCAN-3C E -148.659855563365
  B       0.098263     -1.165225     -0.411119
  B      -0.098317      1.165207      0.411058
  B       0.349864      0.421771     -1.111413
  B      -0.349780     -0.421964      1.111432
  B       1.036019     -0.024227      0.316823
  B      -1.036050      0.024438     -0.316781
6
Coordinates from ORCA-job B6_random_3d_seed1001_d2.20_q0_m1_R2SCAN-3C E -148.659855588776
  B       0.098230     -1.165182     -0.411110
  B      -0.098325      1.165201      0.411053
  B       0.349880      0.421843     -1.111525
  B      -0.349775     -0.421975      1.111548
  B       1.035981     -0.024276      0.316841
  B      -1.035991      0.024388     -0.316807
