6
Coordinates from ORCA-job B6_random_3d_seed1001_d2.20_q0_m1_R2SCAN-3C E -148.659855588776
  B           0.09822986644791     -1.16518159053945     -0.41111015369618
  B          -0.09832501151668      1.16520091397951      0.41105295824813
  B           0.34988015877514      0.42184347493689     -1.11152522882289
  B          -0.34977492782914     -0.42197522286557      1.11154820976445
  B           1.03598120616791     -0.02427579662709      0.31684147663965
  B          -1.03599130204514      0.02438823111571     -0.31680725213317
