6
Coordinates from ORCA-job B6_rhombic_planar_d2.20_q0_m3_R2SCAN-3C E -148.341936629296
  B      -2.750000     -0.952628      0.000000
  B      -0.550000     -0.952628      0.000000
  B       1.650000     -0.952628      0.000000
  B      -1.650000      0.952628      0.000000
  B       0.550000      0.952628      0.000000
  B       2.750000      0.952628      0.000000
6
Coordinates from ORCA-job B6_rhombic_planar_d2.20_q0_m3_R2SCAN-3C E -148.381461589575
  B      -2.676496     -0.931873     -0.000000
  B      -0.528939     -0.939262     -0.000000
  B       1.597682     -0.937973      0.000000
  B      -1.597682      0.937973      0.000000
  B       0.528939      0.939262     -0.000000
  B       2.676496      0.931873      0.000000
6
Coordinates from ORCA-job B6_rhombic_planar_d2.20_q0_m3_R2SCAN-3C E -148.423506589271
  B      -2.601801     -0.909429     -0.000000
  B      -0.506494     -0.926355      0.000000
  B       1.547511     -0.923408      0.000000
  B      -1.547511      0.923408      0.000000
  B       0.506494      0.926355     -0.000000
  B       2.601801      0.909429     -0.000000
6
Coordinates from ORCA-job B6_rhombic_planar_d2.20_q0_m3_R2SCAN-3C E -148.491497231368
  B      -2.487821     -0.872903     -0.000000
  B      -0.471275     -0.906718      0.000000
  B       1.477051     -0.901592      0.000000
  B      -1.477051      0.901592      0.000000
  B       0.471275      0.906718     -0.000000
  B       2.487821      0.872903     -0.000000
6
Coordinates from ORCA-job B6_rhombic_planar_d2.20_q0_m3_R2SCAN-3C E -148.594737974469
  B      -2.311823     -0.811801     -0.000000
  B      -0.416187     -0.878251      0.000000
  B       1.382256     -0.869559     -0.000000
  B      -1.382256      0.869559      0.000000
  B       0.416187      0.878251     -0.000000
  B       2.311823      0.811801      0.000000
6
Coordinates from ORCA-job B6_rhombic_planar_d2.20_q0_m3_R2SCAN-3C E -148.679329929831
  B      -2.124482     -0.739285     -0.000000
  B      -0.357886     -0.856554     -0.000000
  B       1.296598     -0.834925      0.000000
  B      -1.296598      0.834925      0.000000
  B       0.357886      0.856554     -0.000000
  B       2.124482      0.739285      0.000000
6
Coordinates from ORCA-job B6_rhombic_planar_d2.20_q0_m3_R2SCAN-3C E -148.713725156033
  B      -1.973347     -0.666660     -0.000000
  B      -0.328464     -0.830376      0.000000
  B       1.228208     -0.770274      0.000000
  B      -1.228208      0.770274      0.000000
  B       0.328464      0.830376     -0.000000
  B       1.973347      0.666660     -0.000000
6
Coordinates from ORCA-job B6_rhombic_planar_d2.20_q0_m3_R2SCAN-3C E -148.716585377448
  B      -1.998437     -0.661648     -0.000000
  B      -0.342053     -0.809451      0.000000
  B       1.218474     -0.727716     -0.000000
  B      -1.218474      0.727716     -0.000000
  B       0.342053      0.809451      0.000000
  B       1.998437      0.661648     -0.000000
6
Coordinates from ORCA-job B6_rhombic_planar_d2.20_q0_m3_R2SCAN-3C E -148.716155175643
  B      -2.016119     -0.674127     -0.000000
  B      -0.344101     -0.797936      0.000000
  B       1.193098     -0.718832     -0.000000
  B      -1.193098      0.718832     -0.000000
  B       0.344101      0.797936      0.000000
  B       2.016119      0.674127     -0.000000
6
Coordinates from ORCA-job B6_rhombic_planar_d2.20_q0_m3_R2SCAN-3C E -148.716864185112
  B      -2.011545     -0.669098      0.000000
  B      -0.348215     -0.802124     -0.000000
  B       1.211214     -0.722290     -0.000000
  B      -1.211214      0.722290     -0.000000
  B       0.348215      0.802124     -0.000000
  B       2.011545      0.669098      0.000000
6
Coordinates from ORCA-job B6_rhombic_planar_d2.20_q0_m3_R2SCAN-3C E -148.716873792593
  B      -2.008941     -0.666570     -0.000000
  B      -0.343963     -0.802128      0.000000
  B       1.211701     -0.722636      0.000000
  B      -1.211701      0.722636      0.000000
  B       0.343963      0.802128      0.000000
  B       2.008941      0.666570     -0.000000
6
Coordinates from ORCA-job B6_rhombic_planar_d2.20_q0_m3_R2SCAN-3C E -148.716880304117
  B      -2.009403     -0.667734      0.000000
  B      -0.345612     -0.801620     -0.000000
  B       1.211064     -0.722697     -0.000000
  B      -1.211064      0.722697      0.000000
  B       0.345612      0.801620     -0.000000
  B       2.009403      0.667734      0.000000
6
Coordinates from ORCA-job B6_rhombic_planar_d2.20_q0_m3_R2SCAN-3C E -148.716880454813
  B      -2.009571     -0.667791     -0.000000
  B      -0.345559     -0.801374      0.000000
  B       1.211246     -0.722775      0.000000
  B      -1.211246      0.722773      0.000000
  B       0.345556      0.801374      0.000000
  B       2.009574      0.667793     -0.000000
6
Coordinates from ORCA-job B6_rhombic_planar_d2.20_q0_m3_R2SCAN-3C E -148.716880506255
  B      -2.009497     -0.667839      0.000000
  B      -0.345503     -0.801075     -0.000000
  B       1.211350     -0.722887     -0.000000
  B      -1.211348      0.722900     -0.000000
  B       0.345521      0.801076     -0.000000
  B       2.009477      0.667824      0.000000
6
Coordinates from ORCA-job B6_rhombic_planar_d2.20_q0_m3_R2SCAN-3C E -148.716880506083
  B      -2.009436     -0.667810     -0.000000
  B      -0.345527     -0.801100      0.000000
  B       1.211340     -0.722915      0.000000
  B      -1.211345      0.722893      0.000000
  B       0.345492      0.801091      0.000000
  B       2.009476      0.667841     -0.000000
