6
Coordinates from ORCA-job B6_rhombic_planar_d2.20_q0_m3_R2SCAN-3C E -148.716880506083
  B          -2.00943625709366     -0.66781030470537     -0.00000001566485
  B          -0.34552715468026     -0.80109975068679      0.00000000892268
  B           1.21134035425568     -0.72291513845391      0.00000000706945
  B          -1.21134474827552      0.72289272079722      0.00000000461763
  B           0.34549151804062      0.80109140158801      0.00000001286591
  B           2.00947628775314      0.66784107146084     -0.00000001781083
