6
Coordinates from ORCA-job B6_octahedral_3d_d1.80_q0_m5_R2SCAN-3C E -148.645468655753
  B           1.17185276166220     -0.07706413390425      0.03680940978811
  B          -1.17147963238587      0.07647862169215     -0.03630956410937
  B          -0.09459664048261      1.31875624123092      0.09321643867014
  B           0.09400668970986     -1.31865110045487     -0.09368007820889
  B           0.04049331514074      0.07800721500062      1.17138305729636
  B          -0.04027649364433     -0.07752684356457     -1.17141926343635
