6
Coordinates from ORCA-job B6_octahedral_3d_d1.80_q0_m5_R2SCAN-3C E -148.604348316378
  B       1.272792      0.000000      0.000000
  B      -1.272792      0.000000      0.000000
  B       0.000000      1.272792      0.000000
  B       0.000000     -1.272792      0.000000
  B       0.000000      0.000000      1.272792
  B       0.000000      0.000000     -1.272792
6
Coordinates from ORCA-job B6_octahedral_3d_d1.80_q0_m5_R2SCAN-3C E -148.619868790384
  B       1.247014     -0.013652     -0.013367
  B      -1.247099      0.013652      0.013530
  B      -0.013514      1.247055      0.013424
  B       0.013790     -1.247049     -0.013673
  B      -0.013544      0.013546      1.247105
  B       0.013353     -0.013552     -1.247020
6
Coordinates from ORCA-job B6_octahedral_3d_d1.80_q0_m5_R2SCAN-3C E -148.628972330864
  B       1.223322     -0.029200     -0.028203
  B      -1.223580      0.029189      0.028653
  B      -0.028787      1.223537      0.028428
  B       0.029607     -1.223513     -0.029137
  B      -0.028706      0.028770      1.223493
  B       0.028144     -0.028784     -1.223234
6
Coordinates from ORCA-job B6_octahedral_3d_d1.80_q0_m5_R2SCAN-3C E -148.630852747672
  B       1.209256     -0.044022     -0.042035
  B      -1.209526      0.044021      0.042688
  B      -0.043499      1.209803      0.042679
  B       0.044575     -1.209816     -0.043604
  B      -0.042746      0.043114      1.209009
  B       0.041940     -0.043101     -1.208738
6
Coordinates from ORCA-job B6_octahedral_3d_d1.80_q0_m5_R2SCAN-3C E -148.631070570791
  B       1.213498     -0.044581     -0.042128
  B      -1.213675      0.044611      0.042718
  B      -0.044184      1.214266      0.043091
  B       0.045078     -1.214341     -0.043862
  B      -0.042741      0.043424      1.212802
  B       0.042024     -0.043379     -1.212621
6
Coordinates from ORCA-job B6_octahedral_3d_d1.80_q0_m5_R2SCAN-3C E -148.631215517508
  B       1.217688     -0.048597     -0.044264
  B      -1.217738      0.048669      0.044749
  B      -0.048423      1.219361      0.046327
  B       0.049047     -1.219525     -0.046869
  B      -0.044681      0.046430      1.215679
  B       0.044107     -0.046337     -1.215622
6
Coordinates from ORCA-job B6_octahedral_3d_d1.80_q0_m5_R2SCAN-3C E -148.631275356381
  B       1.219160     -0.052091     -0.044726
  B      -1.219174      0.052168      0.045114
  B      -0.052112      1.222329      0.048540
  B       0.052580     -1.222511     -0.048946
  B      -0.044919      0.048351      1.215381
  B       0.044466     -0.048247     -1.215363
6
Coordinates from ORCA-job B6_octahedral_3d_d1.80_q0_m5_R2SCAN-3C E -148.631283164050
  B       1.235779     -0.097474     -0.044562
  B      -1.235413      0.097637      0.043719
  B      -0.100289      1.261876      0.075128
  B       0.098833     -1.262244     -0.073900
  B      -0.041624      0.070641      1.205645
  B       0.042714     -0.070436     -1.206030
6
Coordinates from ORCA-job B6_octahedral_3d_d1.80_q0_m5_R2SCAN-3C E -148.632065205345
  B       1.228816     -0.077934     -0.041404
  B      -1.228623      0.078001      0.041044
  B      -0.079942      1.247009      0.065568
  B       0.079230     -1.247208     -0.064998
  B      -0.039732      0.062493      1.208223
  B       0.040251     -0.062361     -1.208432
6
Coordinates from ORCA-job B6_octahedral_3d_d1.80_q0_m5_R2SCAN-3C E -148.634266077164
  B       1.228884     -0.081062     -0.028759
  B      -1.228675      0.081010      0.028264
  B      -0.084628      1.256806      0.074466
  B       0.083575     -1.256817     -0.073746
  B      -0.026750      0.069761      1.201339
  B       0.027594     -0.069698     -1.201564
6
Coordinates from ORCA-job B6_octahedral_3d_d1.80_q0_m5_R2SCAN-3C E -148.637506748866
  B       1.228512     -0.090425     -0.012578
  B      -1.228221      0.090250      0.011866
  B      -0.096271      1.273027      0.088208
  B       0.094668     -1.272884     -0.087180
  B      -0.009926      0.081158      1.192917
  B       0.011239     -0.081126     -1.193233
6
Coordinates from ORCA-job B6_octahedral_3d_d1.80_q0_m5_R2SCAN-3C E -148.642422990744
  B       1.216231     -0.091401      0.018248
  B      -1.216034      0.090743     -0.018690
  B      -0.100772      1.285453      0.099408
  B       0.099262     -1.285196     -0.098725
  B       0.021103      0.089231      1.178180
  B      -0.019790     -0.088830     -1.178421
6
Coordinates from ORCA-job B6_octahedral_3d_d1.80_q0_m5_R2SCAN-3C E -148.644447434330
  B       1.201103     -0.086987      0.037809
  B      -1.201038      0.085830     -0.038010
  B      -0.099296      1.292762      0.096991
  B       0.098168     -1.292657     -0.096687
  B       0.041179      0.084144      1.167854
  B      -0.040117     -0.083092     -1.167956
6
Coordinates from ORCA-job B6_octahedral_3d_d1.80_q0_m5_R2SCAN-3C E -148.645041981310
  B       1.193330     -0.090192      0.044871
  B      -1.193228      0.088874     -0.045196
  B      -0.104789      1.309984      0.094834
  B       0.103486     -1.309896     -0.094462
  B       0.049262      0.079545      1.162159
  B      -0.048061     -0.078314     -1.162208
6
Coordinates from ORCA-job B6_octahedral_3d_d1.80_q0_m5_R2SCAN-3C E -148.645315187274
  B       1.186247     -0.083754      0.041503
  B      -1.186163      0.082356     -0.041663
  B      -0.099423      1.310078      0.085651
  B       0.098444     -1.310063     -0.085633
  B       0.046181      0.069405      1.161240
  B      -0.045286     -0.068022     -1.161098
6
Coordinates from ORCA-job B6_octahedral_3d_d1.80_q0_m5_R2SCAN-3C E -148.645396917820
  B       1.186278     -0.086617      0.037162
  B      -1.186092      0.085370     -0.037413
  B      -0.102523      1.317407      0.086033
  B       0.101311     -1.317306     -0.085928
  B       0.042031      0.069515      1.160763
  B      -0.041006     -0.068369     -1.160617
6
Coordinates from ORCA-job B6_octahedral_3d_d1.80_q0_m5_R2SCAN-3C E -148.645411613938
  B       1.185238     -0.085358      0.036836
  B      -1.185024      0.084146     -0.037002
  B      -0.101356      1.316719      0.086546
  B       0.100178     -1.316599     -0.086540
  B       0.041505      0.070135      1.160264
  B      -0.040541     -0.069044     -1.160104
6
Coordinates from ORCA-job B6_octahedral_3d_d1.80_q0_m5_R2SCAN-3C E -148.645425329484
  B       1.183350     -0.083365      0.036502
  B      -1.183056      0.082262     -0.036502
  B      -0.099664      1.317044      0.088024
  B       0.098502     -1.316886     -0.088182
  B       0.040820      0.071757      1.159911
  B      -0.039952     -0.070811     -1.159753
6
Coordinates from ORCA-job B6_octahedral_3d_d1.80_q0_m5_R2SCAN-3C E -148.645432138933
  B       1.182083     -0.082157      0.036451
  B      -1.181736      0.081143     -0.036338
  B      -0.098690      1.317591      0.088919
  B       0.097545     -1.317425     -0.089167
  B       0.040585      0.072747      1.160572
  B      -0.039788     -0.071899     -1.160437
6
Coordinates from ORCA-job B6_octahedral_3d_d1.80_q0_m5_R2SCAN-3C E -148.645447709263
  B       1.178329     -0.079201      0.036522
  B      -1.177875      0.078428     -0.036108
  B      -0.096342      1.318995      0.091092
  B       0.095304     -1.318828     -0.091544
  B       0.040257      0.075213      1.163654
  B      -0.039673     -0.074607     -1.163617
6
Coordinates from ORCA-job B6_octahedral_3d_d1.80_q0_m5_R2SCAN-3C E -148.645459166817
  B       1.175134     -0.077369      0.036709
  B      -1.174623      0.076766     -0.036105
  B      -0.094896      1.319560      0.092526
  B       0.093998     -1.319413     -0.093086
  B       0.040244      0.076948      1.167164
  B      -0.039856     -0.076491     -1.167207
6
Coordinates from ORCA-job B6_octahedral_3d_d1.80_q0_m5_R2SCAN-3C E -148.645467327884
  B       1.172308     -0.076515      0.036905
  B      -1.171823      0.076003     -0.036241
  B      -0.094201      1.319281      0.093390
  B       0.093501     -1.319167     -0.093966
  B       0.040421      0.078132      1.170842
  B      -0.040206     -0.077733     -1.170931
6
Coordinates from ORCA-job B6_octahedral_3d_d1.80_q0_m5_R2SCAN-3C E -148.645468565778
  B       1.171838     -0.076860      0.036881
  B      -1.171421      0.076308     -0.036304
  B      -0.094449      1.318851      0.093311
  B       0.093833     -1.318743     -0.093822
  B       0.040502      0.078118      1.171522
  B      -0.040303     -0.077672     -1.171587
6
Coordinates from ORCA-job B6_octahedral_3d_d1.80_q0_m5_R2SCAN-3C E -148.645468655753
  B       1.171853     -0.077064      0.036809
  B      -1.171480      0.076479     -0.036310
  B      -0.094597      1.318756      0.093216
  B       0.094007     -1.318651     -0.093680
  B       0.040493      0.078007      1.171383
  B      -0.040276     -0.077527     -1.171419
