6
Coordinates from ORCA-job B6_compact_planar_triangle_d3.50_q0_m5_R2SCAN-3C E -148.681503030561
  B          -1.55296806801063     -0.90967875468313      0.00000051237087
  B           0.04847242734202     -1.06920507799327     -0.00005843996471
  B           1.60863932512922     -0.93978586964632      0.00004523947885
  B          -0.90896889557241      0.56535923563599      0.00005581373775
  B           0.83739397117986      0.49056561883592      0.00000011432821
  B          -0.03256876006806      1.86274484785080     -0.00004323995096
