6
Coordinates from ORCA-job B6_compact_planar_triangle_d3.50_q0_m5_R2SCAN-3C E -147.896817590899
  B      -3.500000     -2.020726      0.000000
  B       0.000000     -2.020726      0.000000
  B       3.500000     -2.020726      0.000000
  B      -1.750000      1.010363      0.000000
  B       1.750000      1.010363      0.000000
  B       0.000000      4.041452      0.000000
6
Coordinates from ORCA-job B6_compact_planar_triangle_d3.50_q0_m5_R2SCAN-3C E -147.904463825949
  B      -3.439196     -1.989993      0.000000
  B      -0.001336     -1.988775     -0.000000
  B       3.446051     -1.995822      0.000000
  B      -1.731010      0.995327      0.000000
  B       1.724008      0.999993      0.000000
  B       0.001483      3.979270     -0.000000
6
Coordinates from ORCA-job B6_compact_planar_triangle_d3.50_q0_m5_R2SCAN-3C E -147.912693886696
  B      -3.378380     -1.959310     -0.000001
  B      -0.002676     -1.957491     -0.000001
  B       3.391981     -1.970280      0.000001
  B      -1.713100      0.981243      0.000002
  B       1.698368      0.990863     -0.000001
  B       0.003808      3.914975     -0.000001
6
Coordinates from ORCA-job B6_compact_planar_triangle_d3.50_q0_m5_R2SCAN-3C E -147.926333973882
  B      -3.287989     -1.913009     -0.000001
  B      -0.004961     -1.911698     -0.000002
  B       3.311829     -1.930783      0.000002
  B      -1.687337      0.961461      0.000004
  B       1.659934      0.979095     -0.000002
  B       0.008524      3.814933     -0.000001
6
Coordinates from ORCA-job B6_compact_planar_triangle_d3.50_q0_m5_R2SCAN-3C E -147.949969176936
  B      -3.154788     -1.843096     -0.000002
  B      -0.009317     -1.844769     -0.000003
  B       3.195834     -1.870595      0.000002
  B      -1.650691      0.935311      0.000006
  B       1.601455      0.965732     -0.000002
  B       0.017508      3.657417     -0.000002
6
Coordinates from ORCA-job B6_compact_planar_triangle_d3.50_q0_m5_R2SCAN-3C E -147.978065145499
  B      -3.016189     -1.769070     -0.000002
  B      -0.013792     -1.777336     -0.000003
  B       3.079197     -1.813477      0.000002
  B      -1.611965      0.914470      0.000006
  B       1.543528      0.951760     -0.000002
  B       0.019222      3.493653     -0.000002
6
Coordinates from ORCA-job B6_compact_planar_triangle_d3.50_q0_m5_R2SCAN-3C E -148.010844282166
  B      -2.874397     -1.693283     -0.000002
  B      -0.018205     -1.711720     -0.000002
  B       2.961511     -1.755772      0.000002
  B      -1.575856      0.896895      0.000006
  B       1.487706      0.936901     -0.000002
  B       0.019242      3.326979     -0.000002
6
Coordinates from ORCA-job B6_compact_planar_triangle_d3.50_q0_m5_R2SCAN-3C E -148.036270337606
  B      -2.775925     -1.642274     -0.000002
  B      -0.021100     -1.668242     -0.000002
  B       2.881276     -1.715042      0.000002
  B      -1.557743      0.887389      0.000006
  B       1.451257      0.926939     -0.000002
  B       0.022235      3.211229     -0.000002
6
Coordinates from ORCA-job B6_compact_planar_triangle_d3.50_q0_m5_R2SCAN-3C E -148.054736789812
  B      -2.708755     -1.608359     -0.000002
  B      -0.022528     -1.639346     -0.000002
  B       2.826634     -1.688123      0.000002
  B      -1.547588      0.882108      0.000006
  B       1.428121      0.920104     -0.000002
  B       0.024115      3.133617     -0.000002
6
Coordinates from ORCA-job B6_compact_planar_triangle_d3.50_q0_m5_R2SCAN-3C E -148.084569387849
  B      -2.608184     -1.557148     -0.000002
  B      -0.024287     -1.596017     -0.000002
  B       2.744023     -1.647791      0.000002
  B      -1.531908      0.874293      0.000006
  B       1.394292      0.910178     -0.000002
  B       0.026065      3.016485     -0.000002
6
Coordinates from ORCA-job B6_compact_planar_triangle_d3.50_q0_m5_R2SCAN-3C E -148.133283355437
  B      -2.459316     -1.478350     -0.000002
  B      -0.025913     -1.531253     -0.000002
  B       2.620991     -1.589962      0.000002
  B      -1.505161      0.862715      0.000006
  B       1.346852      0.894629     -0.000002
  B       0.022547      2.842221     -0.000002
6
Coordinates from ORCA-job B6_compact_planar_triangle_d3.50_q0_m5_R2SCAN-3C E -148.187153055664
  B      -2.314996     -1.396360     -0.000002
  B      -0.026165     -1.465152     -0.000002
  B       2.502130     -1.533908      0.000002
  B      -1.477124      0.851681      0.000006
  B       1.301888      0.880003     -0.000002
  B       0.014267      2.663736     -0.000002
6
Coordinates from ORCA-job B6_compact_planar_triangle_d3.50_q0_m5_R2SCAN-3C E -148.235991280887
  B      -2.222583     -1.338487     -0.000004
  B      -0.025295     -1.418122     -0.000001
  B       2.427173     -1.496817      0.000001
  B      -1.458082      0.845586      0.000009
  B       1.272038      0.872172     -0.000001
  B       0.006749      2.535667     -0.000004
6
Coordinates from ORCA-job B6_compact_planar_triangle_d3.50_q0_m5_R2SCAN-3C E -148.269361174958
  B      -2.150926     -1.303684     -0.000016
  B      -0.028802     -1.395069      0.000006
  B       2.368827     -1.470417     -0.000000
  B      -1.445730      0.841611      0.000024
  B       1.250126      0.868785     -0.000002
  B       0.006505      2.458774     -0.000012
6
Coordinates from ORCA-job B6_compact_planar_triangle_d3.50_q0_m5_R2SCAN-3C E -148.303908109587
  B      -2.078741     -1.268187     -0.000020
  B      -0.031937     -1.371761      0.000008
  B       2.310796     -1.444709     -0.000001
  B      -1.433325      0.837483      0.000030
  B       1.227556      0.864771     -0.000002
  B       0.005651      2.382403     -0.000015
6
Coordinates from ORCA-job B6_compact_planar_triangle_d3.50_q0_m5_R2SCAN-3C E -148.356768194212
  B      -1.969023     -1.212942     -0.000020
  B      -0.036032     -1.336379      0.000008
  B       2.223986     -1.407883     -0.000001
  B      -1.413672      0.829921      0.000030
  B       1.192665      0.856890     -0.000002
  B       0.002076      2.270394     -0.000015
6
Coordinates from ORCA-job B6_compact_planar_triangle_d3.50_q0_m5_R2SCAN-3C E -148.430266109137
  B      -1.805754     -1.121264     -0.000018
  B      -0.034709     -1.282341      0.000007
  B       2.095073     -1.356580     -0.000001
  B      -1.385783      0.816530      0.000029
  B       1.142769      0.840811     -0.000002
  B      -0.011596      2.102844     -0.000014
6
Coordinates from ORCA-job B6_compact_planar_triangle_d3.50_q0_m5_R2SCAN-3C E -148.519342893036
  B      -1.660191     -1.025073     -0.000022
  B      -0.015380     -1.226604      0.000006
  B       1.955050     -1.299202     -0.000002
  B      -1.347219      0.792773      0.000038
  B       1.101924      0.816511      0.000004
  B      -0.034183      1.941595     -0.000023
6
Coordinates from ORCA-job B6_compact_planar_triangle_d3.50_q0_m5_R2SCAN-3C E -148.575500692467
  B      -1.561521     -0.932039     -0.000023
  B       0.009463     -1.199740      0.000007
  B       1.818982     -1.229102     -0.000004
  B      -1.278172      0.752839      0.000040
  B       1.063998      0.809268      0.000008
  B      -0.052751      1.798773     -0.000027
6
Coordinates from ORCA-job B6_compact_planar_triangle_d3.50_q0_m5_R2SCAN-3C E -148.603011136412
  B      -1.532735     -0.905462     -0.000030
  B       0.046430     -1.204906      0.000011
  B       1.699455     -1.170358     -0.000006
  B      -1.216641      0.718507      0.000046
  B       1.066051      0.804314      0.000012
  B      -0.062560      1.757904     -0.000034
6
Coordinates from ORCA-job B6_compact_planar_triangle_d3.50_q0_m5_R2SCAN-3C E -148.618543966055
  B      -1.512698     -0.896761     -0.000032
  B       0.056849     -1.208760      0.000012
  B       1.629406     -1.121786     -0.000006
  B      -1.177334      0.679986      0.000049
  B       1.061049      0.775935      0.000014
  B      -0.057272      1.771387     -0.000038
6
Coordinates from ORCA-job B6_compact_planar_triangle_d3.50_q0_m5_R2SCAN-3C E -148.632301148947
  B      -1.517981     -0.885937     -0.000032
  B       0.061077     -1.212452      0.000012
  B       1.606854     -1.074964     -0.000005
  B      -1.130279      0.654516      0.000049
  B       1.041410      0.725511      0.000015
  B      -0.061081      1.793327     -0.000040
6
Coordinates from ORCA-job B6_compact_planar_triangle_d3.50_q0_m5_R2SCAN-3C E -148.651409047617
  B      -1.525721     -0.899532     -0.000032
  B       0.064154     -1.202124      0.000013
  B       1.576171     -1.009519     -0.000004
  B      -1.069114      0.622843      0.000049
  B       0.992410      0.651200      0.000014
  B      -0.037900      1.837132     -0.000041
6
Coordinates from ORCA-job B6_compact_planar_triangle_d3.50_q0_m5_R2SCAN-3C E -148.671850159332
  B      -1.543426     -0.879396     -0.000031
  B       0.055664     -1.178636      0.000013
  B       1.582033     -0.932227     -0.000001
  B      -0.967316      0.588471      0.000047
  B       0.926725      0.533971      0.000014
  B      -0.053679      1.867818     -0.000041
6
Coordinates from ORCA-job B6_compact_planar_triangle_d3.50_q0_m5_R2SCAN-3C E -148.676559753974
  B      -1.542231     -0.925461     -0.000031
  B       0.070733     -1.106703      0.000010
  B       1.559557     -0.969986      0.000003
  B      -0.864134      0.576391      0.000047
  B       0.845320      0.497815      0.000013
  B      -0.069245      1.927944     -0.000041
6
Coordinates from ORCA-job B6_compact_planar_triangle_d3.50_q0_m5_R2SCAN-3C E -148.675872032279
  B      -1.548929     -0.868528     -0.000023
  B       0.033531     -1.072680      0.000002
  B       1.613868     -0.935758      0.000008
  B      -0.875226      0.498313      0.000043
  B       0.824071      0.477352      0.000010
  B      -0.047315      1.901301     -0.000040
6
Coordinates from ORCA-job B6_compact_planar_triangle_d3.50_q0_m5_R2SCAN-3C E -148.679267936034
  B      -1.593409     -0.903152     -0.000012
  B       0.041807     -1.059638     -0.000010
  B       1.606635     -0.890759      0.000018
  B      -0.910297      0.550574      0.000031
  B       0.881785      0.479192      0.000001
  B      -0.026520      1.823783     -0.000028
6
Coordinates from ORCA-job B6_compact_planar_triangle_d3.50_q0_m5_R2SCAN-3C E -148.679900654405
  B      -1.560438     -0.904798     -0.000018
  B       0.061278     -1.063762     -0.000011
  B       1.630439     -0.982662      0.000018
  B      -0.932438      0.582869      0.000044
  B       0.866786      0.494631      0.000003
  B      -0.065627      1.873722     -0.000036
6
Coordinates from ORCA-job B6_compact_planar_triangle_d3.50_q0_m5_R2SCAN-3C E -148.680957660222
  B      -1.534256     -0.922248     -0.000014
  B       0.039502     -1.056074     -0.000017
  B       1.591810     -0.954302      0.000023
  B      -0.908792      0.560001      0.000043
  B       0.848003      0.496728      0.000000
  B      -0.036267      1.875895     -0.000035
6
Coordinates from ORCA-job B6_compact_planar_triangle_d3.50_q0_m5_R2SCAN-3C E -148.681263623422
  B      -1.565850     -0.901274     -0.000010
  B       0.054063     -1.059377     -0.000021
  B       1.608783     -0.931474      0.000025
  B      -0.905816      0.550746      0.000039
  B       0.838464      0.489196     -0.000001
  B      -0.029645      1.852183     -0.000032
6
Coordinates from ORCA-job B6_compact_planar_triangle_d3.50_q0_m5_R2SCAN-3C E -148.681449205773
  B      -1.556895     -0.906755     -0.000007
  B       0.046700     -1.072117     -0.000028
  B       1.610373     -0.940001      0.000029
  B      -0.906388      0.565392      0.000040
  B       0.845533      0.492556     -0.000001
  B      -0.039323      1.860925     -0.000033
6
Coordinates from ORCA-job B6_compact_planar_triangle_d3.50_q0_m5_R2SCAN-3C E -148.681487872504
  B      -1.552206     -0.910741     -0.000003
  B       0.049584     -1.066712     -0.000036
  B       1.608326     -0.941796      0.000033
  B      -0.910804      0.565617      0.000040
  B       0.838695      0.488052     -0.000001
  B      -0.033596      1.865580     -0.000033
6
Coordinates from ORCA-job B6_compact_planar_triangle_d3.50_q0_m5_R2SCAN-3C E -148.681501292888
  B      -1.552824     -0.909261     -0.000001
  B       0.048454     -1.068812     -0.000040
  B       1.607404     -0.940121      0.000035
  B      -0.908154      0.564057      0.000042
  B       0.838320      0.491486     -0.000001
  B      -0.033200      1.862650     -0.000034
6
Coordinates from ORCA-job B6_compact_planar_triangle_d3.50_q0_m5_R2SCAN-3C E -148.681502754323
  B      -1.553337     -0.909461     -0.000001
  B       0.048389     -1.069126     -0.000045
  B       1.608506     -0.939632      0.000038
  B      -0.908631      0.564990      0.000045
  B       0.838099      0.490548     -0.000000
  B      -0.033026      1.862680     -0.000037
6
Coordinates from ORCA-job B6_compact_planar_triangle_d3.50_q0_m5_R2SCAN-3C E -148.681503014081
  B      -1.552971     -0.909699      0.000000
  B       0.048410     -1.069262     -0.000052
  B       1.608536     -0.939807      0.000042
  B      -0.908724      0.565340      0.000050
  B       0.837505      0.490563      0.000000
  B      -0.032757      1.862865     -0.000040
6
Coordinates from ORCA-job B6_compact_planar_triangle_d3.50_q0_m5_R2SCAN-3C E -148.681503030561
  B      -1.552968     -0.909679      0.000001
  B       0.048472     -1.069205     -0.000058
  B       1.608639     -0.939786      0.000045
  B      -0.908969      0.565359      0.000056
  B       0.837394      0.490566      0.000000
  B      -0.032569      1.862745     -0.000043
