6
Coordinates from ORCA-job B6_compact_planar_triangle_d1.60_q0_m5_R2SCAN-3C E -148.680709389723
  B          -1.56846639008527     -0.93235910190368      0.00000002570585
  B          -0.00000000267169     -1.08772939002017     -0.00000002878793
  B           1.56846638645163     -0.93235909835988      0.00000003269378
  B          -0.85495259629964      0.53768807925046     -0.00000002331613
  B           0.85495260167637      0.53768808498193     -0.00000003593404
  B           0.00000000092860      1.87707143605134      0.00000002963847
