6
Coordinates from ORCA-job B6_compact_planar_triangle_d1.60_q0_m5_R2SCAN-3C E -148.657881786921
  B      -1.600000     -0.923760      0.000000
  B       0.000000     -0.923760      0.000000
  B       1.600000     -0.923760      0.000000
  B      -0.800000      0.461880      0.000000
  B       0.800000      0.461880      0.000000
  B       0.000000      1.847521      0.000000
6
Coordinates from ORCA-job B6_compact_planar_triangle_d1.60_q0_m5_R2SCAN-3C E -148.668491011948
  B      -1.592890     -0.934210     -0.000000
  B      -0.000000     -0.952820      0.000000
  B       1.592890     -0.934210     -0.000000
  B      -0.816923      0.482544      0.000000
  B       0.816923      0.482544      0.000000
  B       0.000000      1.856152     -0.000000
6
Coordinates from ORCA-job B6_compact_planar_triangle_d1.60_q0_m5_R2SCAN-3C E -148.678020349416
  B      -1.577297     -0.947414      0.000000
  B      -0.000000     -1.003596     -0.000000
  B       1.577297     -0.947414      0.000000
  B      -0.843665      0.516138     -0.000000
  B       0.843665      0.516138      0.000000
  B       0.000000      1.866147      0.000000
6
Coordinates from ORCA-job B6_compact_planar_triangle_d1.60_q0_m5_R2SCAN-3C E -148.680022110242
  B      -1.569438     -0.949581      0.000000
  B      -0.000000     -1.037024     -0.000000
  B       1.569438     -0.949581     -0.000000
  B      -0.857779      0.533416      0.000000
  B       0.857779      0.533416      0.000000
  B       0.000000      1.869353     -0.000000
6
Coordinates from ORCA-job B6_compact_planar_triangle_d1.60_q0_m5_R2SCAN-3C E -148.680415832612
  B      -1.568112     -0.946156      0.000000
  B      -0.000000     -1.057015     -0.000000
  B       1.568112     -0.946156      0.000000
  B      -0.863183      0.539523     -0.000000
  B       0.863183      0.539523     -0.000000
  B       0.000000      1.870281      0.000000
6
Coordinates from ORCA-job B6_compact_planar_triangle_d1.60_q0_m5_R2SCAN-3C E -148.680565092345
  B      -1.568839     -0.940902     -0.000000
  B      -0.000000     -1.071037      0.000000
  B       1.568839     -0.940902     -0.000000
  B      -0.864327      0.540878      0.000000
  B       0.864327      0.540878      0.000000
  B       0.000000      1.871086     -0.000000
6
Coordinates from ORCA-job B6_compact_planar_triangle_d1.60_q0_m5_R2SCAN-3C E -148.680648807145
  B      -1.569789     -0.935250      0.000000
  B      -0.000000     -1.081618     -0.000000
  B       1.569789     -0.935250      0.000000
  B      -0.862587      0.539828     -0.000000
  B       0.862587      0.539828     -0.000000
  B      -0.000000      1.872464      0.000000
6
Coordinates from ORCA-job B6_compact_planar_triangle_d1.60_q0_m5_R2SCAN-3C E -148.680687244405
  B      -1.569953     -0.931918     -0.000000
  B      -0.000000     -1.086454      0.000000
  B       1.569953     -0.931918     -0.000000
  B      -0.859390      0.538058      0.000000
  B       0.859390      0.538058      0.000000
  B       0.000000      1.874175     -0.000000
6
Coordinates from ORCA-job B6_compact_planar_triangle_d1.60_q0_m5_R2SCAN-3C E -148.680703308665
  B      -1.569401     -0.931079      0.000000
  B      -0.000000     -1.087535     -0.000000
  B       1.569401     -0.931079      0.000000
  B      -0.856493      0.536959     -0.000000
  B       0.856493      0.536959     -0.000000
  B       0.000000      1.875776      0.000000
6
Coordinates from ORCA-job B6_compact_planar_triangle_d1.60_q0_m5_R2SCAN-3C E -148.680708017318
  B      -1.568766     -0.931685     -0.000000
  B      -0.000000     -1.087228     -0.000000
  B       1.568766     -0.931685     -0.000000
  B      -0.855222      0.536973      0.000000
  B       0.855222      0.536973      0.000000
  B       0.000000      1.876650     -0.000000
6
Coordinates from ORCA-job B6_compact_planar_triangle_d1.60_q0_m5_R2SCAN-3C E -148.680709169974
  B      -1.568435     -0.932236      0.000000
  B      -0.000000     -1.087286     -0.000000
  B       1.568435     -0.932236      0.000000
  B      -0.854924      0.537373     -0.000000
  B       0.854924      0.537373     -0.000000
  B       0.000000      1.877012      0.000000
6
Coordinates from ORCA-job B6_compact_planar_triangle_d1.60_q0_m5_R2SCAN-3C E -148.680709362182
  B      -1.568411     -0.932365     -0.000000
  B      -0.000000     -1.087580     -0.000000
  B       1.568411     -0.932365     -0.000000
  B      -0.854940      0.537614      0.000000
  B       0.854940      0.537614      0.000000
  B       0.000000      1.877084     -0.000000
6
Coordinates from ORCA-job B6_compact_planar_triangle_d1.60_q0_m5_R2SCAN-3C E -148.680709389723
  B      -1.568466     -0.932359      0.000000
  B      -0.000000     -1.087729     -0.000000
  B       1.568466     -0.932359      0.000000
  B      -0.854953      0.537688     -0.000000
  B       0.854953      0.537688     -0.000000
  B       0.000000      1.877071      0.000000
