6
Coordinates from ORCA-job B6_random_3d_seed1001_d3.50_q0_m3_R2SCAN-3C E -147.916638393558
  B       0.202838     -2.427755     -0.775587
  B      -0.121704      2.293952      0.816657
  B       0.636220      0.885166     -2.213739
  B      -0.696126     -1.035639      2.266413
  B       2.379843      0.070824      0.715175
  B      -2.401071      0.213451     -0.808919
6
Coordinates from ORCA-job B6_random_3d_seed1001_d3.50_q0_m3_R2SCAN-3C E -147.925196955605
  B       0.199629     -2.406284     -0.757947
  B      -0.115765      2.263602      0.807889
  B       0.620401      0.871217     -2.178737
  B      -0.686302     -1.034435      2.241101
  B       2.349692      0.082500      0.699890
  B      -2.367656      0.223400     -0.812197
6
Coordinates from ORCA-job B6_random_3d_seed1001_d3.50_q0_m3_R2SCAN-3C E -147.934137936848
  B       0.196473     -2.385055     -0.740451
  B      -0.109400      2.233627      0.798944
  B       0.604119      0.857323     -2.143648
  B      -0.676372     -1.033448      2.215845
  B       2.319171      0.094245      0.684924
  B      -2.333991      0.233308     -0.815615
6
Coordinates from ORCA-job B6_random_3d_seed1001_d3.50_q0_m3_R2SCAN-3C E -147.948309430627
  B       0.191730     -2.353072     -0.714631
  B      -0.099392      2.189028      0.785003
  B       0.579393      0.836857     -2.091220
  B      -0.661393     -1.031895      2.178003
  B       2.272678      0.111510      0.663143
  B      -2.283017      0.247572     -0.820299
6
Coordinates from ORCA-job B6_random_3d_seed1001_d3.50_q0_m3_R2SCAN-3C E -147.971431763463
  B       0.184463     -2.305108     -0.676692
  B      -0.083315      2.122884      0.762993
  B       0.541562      0.806970     -2.013067
  B      -0.638642     -1.029699      2.121444
  B       2.201383      0.137001      0.631920
  B      -2.205451      0.267952     -0.826598
6
Coordinates from ORCA-job B6_random_3d_seed1001_d3.50_q0_m3_R2SCAN-3C E -147.998177204035
  B       0.176454     -2.257568     -0.637483
  B      -0.064137      2.056001      0.739065
  B       0.500048      0.776910     -1.931973
  B      -0.614408     -1.029501      2.063444
  B       2.125339      0.164890      0.601117
  B      -2.123297      0.289268     -0.834169
6
Coordinates from ORCA-job B6_random_3d_seed1001_d3.50_q0_m3_R2SCAN-3C E -148.028182070811
  B       0.167338     -2.212812     -0.598116
  B      -0.041900      1.990454      0.714067
  B       0.457016      0.748492     -1.852007
  B      -0.589401     -1.031841      2.006320
  B       2.047327      0.195104      0.572467
  B      -2.040380      0.310603     -0.842731
6
Coordinates from ORCA-job B6_random_3d_seed1001_d3.50_q0_m3_R2SCAN-3C E -148.062109161283
  B       0.156449     -2.171034     -0.557607
  B      -0.016142      1.925659      0.688169
  B       0.412448      0.722592     -1.773919
  B      -0.563746     -1.037009      1.949602
  B       1.968048      0.228224      0.546271
  B      -1.957056      0.331567     -0.852515
6
Coordinates from ORCA-job B6_random_3d_seed1001_d3.50_q0_m3_R2SCAN-3C E -148.087714718948
  B       0.148128     -2.146183     -0.528819
  B       0.003611      1.883244      0.670678
  B       0.378338      0.707014     -1.721883
  B      -0.546661     -1.043104      1.912016
  B       1.914770      0.252759      0.529693
  B      -1.898187      0.346269     -0.861686
6
Coordinates from ORCA-job B6_random_3d_seed1001_d3.50_q0_m3_R2SCAN-3C E -148.115638977878
  B       0.139403     -2.121944     -0.499057
  B       0.024371      1.840660      0.652515
  B       0.343560      0.693041     -1.670456
  B      -0.530179     -1.050402      1.874789
  B       1.861441      0.278004      0.513228
  B      -1.838596      0.360642     -0.871018
6
Coordinates from ORCA-job B6_random_3d_seed1001_d3.50_q0_m3_R2SCAN-3C E -148.160955873213
  B       0.126186     -2.083948     -0.453914
  B       0.055607      1.775380      0.623258
  B       0.297393      0.675082     -1.596023
  B      -0.506940     -1.061803      1.819541
  B       1.781431      0.315322      0.488284
  B      -1.753675      0.379966     -0.881147
6
Coordinates from ORCA-job B6_random_3d_seed1001_d3.50_q0_m3_R2SCAN-3C E -148.211284021276
  B       0.113249     -2.045973     -0.407562
  B       0.087176      1.709554      0.592082
  B       0.252705      0.659829     -1.522232
  B      -0.485165     -1.074935      1.765452
  B       1.699780      0.352660      0.461768
  B      -1.667745      0.398865     -0.889508
6
Coordinates from ORCA-job B6_random_3d_seed1001_d3.50_q0_m3_R2SCAN-3C E -148.248108920781
  B       0.104943     -2.020701     -0.375213
  B       0.107543      1.666145      0.570263
  B       0.222505      0.650570     -1.472452
  B      -0.471065     -1.085417      1.729691
  B       1.643455      0.377096      0.442162
  B      -1.607382      0.412307     -0.894450
6
Coordinates from ORCA-job B6_random_3d_seed1001_d3.50_q0_m3_R2SCAN-3C E -148.286590141377
  B       0.097184     -1.994886     -0.342606
  B       0.126824      1.623327      0.547707
  B       0.194259      0.642055     -1.423051
  B      -0.457383     -1.096445      1.694507
  B       1.585576      0.400231      0.421093
  B      -1.546461      0.425719     -0.897649
6
Coordinates from ORCA-job B6_random_3d_seed1001_d3.50_q0_m3_R2SCAN-3C E -148.343052185576
  B       0.086362     -1.952832     -0.292927
  B       0.152602      1.559700      0.512384
  B       0.159577      0.630126     -1.349200
  B      -0.436876     -1.112732      1.640800
  B       1.495462      0.431040      0.386350
  B      -1.457127      0.444698     -0.897406
6
Coordinates from ORCA-job B6_random_3d_seed1001_d3.50_q0_m3_R2SCAN-3C E -148.395082058081
  B       0.076088     -1.901185     -0.235165
  B       0.167245      1.504201      0.473269
  B       0.151733      0.618954     -1.271240
  B      -0.411791     -1.133322      1.579978
  B       1.400665      0.448117      0.342244
  B      -1.383940      0.463235     -0.889087
6
Coordinates from ORCA-job B6_random_3d_seed1001_d3.50_q0_m3_R2SCAN-3C E -148.442964117669
  B       0.063063     -1.841248     -0.173157
  B       0.167273      1.460078      0.432446
  B       0.166079      0.609322     -1.193999
  B      -0.383869     -1.149437      1.504878
  B       1.320248      0.448507      0.300279
  B      -1.332796      0.472778     -0.870447
6
Coordinates from ORCA-job B6_random_3d_seed1001_d3.50_q0_m3_R2SCAN-3C E -148.482374618848
  B       0.050866     -1.776343     -0.110053
  B       0.157401      1.430073      0.396798
  B       0.186779      0.594923     -1.119281
  B      -0.355315     -1.161528      1.420857
  B       1.257910      0.434924      0.262551
  B      -1.297642      0.477951     -0.850872
6
Coordinates from ORCA-job B6_random_3d_seed1001_d3.50_q0_m3_R2SCAN-3C E -148.504662040160
  B       0.050308     -1.722051     -0.086503
  B       0.133010      1.421666      0.381450
  B       0.213888      0.572357     -1.070144
  B      -0.334090     -1.150339      1.370334
  B       1.224010      0.399644      0.238131
  B      -1.287126      0.478722     -0.833268
6
Coordinates from ORCA-job B6_random_3d_seed1001_d3.50_q0_m3_R2SCAN-3C E -148.517091339322
  B       0.056522     -1.680390     -0.090778
  B       0.115601      1.419513      0.382070
  B       0.229592      0.548286     -1.050146
  B      -0.321369     -1.126776      1.347807
  B       1.207288      0.364994      0.232628
  B      -1.287635      0.474372     -0.821581
6
Coordinates from ORCA-job B6_random_3d_seed1001_d3.50_q0_m3_R2SCAN-3C E -148.533839349831
  B       0.069765     -1.612586     -0.107045
  B       0.095511      1.409698      0.386994
  B       0.240384      0.509524     -1.031719
  B      -0.302334     -1.083327      1.320812
  B       1.183791      0.310816      0.237692
  B      -1.287117      0.465875     -0.806734
6
Coordinates from ORCA-job B6_random_3d_seed1001_d3.50_q0_m3_R2SCAN-3C E -148.556176840742
  B       0.089868     -1.514593     -0.138439
  B       0.074190      1.383743      0.390062
  B       0.250026      0.457879     -1.011567
  B      -0.274274     -1.015291      1.288594
  B       1.148295      0.236088      0.257269
  B      -1.288105      0.452174     -0.785919
6
Coordinates from ORCA-job B6_random_3d_seed1001_d3.50_q0_m3_R2SCAN-3C E -148.576961946645
  B       0.108113     -1.413103     -0.169642
  B       0.053125      1.352913      0.390629
  B       0.247397      0.410676     -1.000728
  B      -0.241823     -0.949900      1.261311
  B       1.112767      0.159332      0.286453
  B      -1.279579      0.440082     -0.768023
6
Coordinates from ORCA-job B6_random_3d_seed1001_d3.50_q0_m3_R2SCAN-3C E -148.589016901989
  B       0.119442     -1.346893     -0.202537
  B       0.047022      1.319387      0.387468
  B       0.256628      0.384399     -0.998544
  B      -0.221232     -0.902991      1.257262
  B       1.080788      0.116598      0.310009
  B      -1.282649      0.429499     -0.753658
6
Coordinates from ORCA-job B6_random_3d_seed1001_d3.50_q0_m3_R2SCAN-3C E -148.595836492536
  B       0.120669     -1.304475     -0.215282
  B       0.039077      1.297798      0.387556
  B       0.250585      0.373700     -1.012621
  B      -0.204426     -0.878418      1.253984
  B       1.062676      0.088637      0.331384
  B      -1.268580      0.422758     -0.745022
6
Coordinates from ORCA-job B6_random_3d_seed1001_d3.50_q0_m3_R2SCAN-3C E -148.604595755553
  B       0.117835     -1.244535     -0.240257
  B       0.027980      1.250641      0.383887
  B       0.266661      0.364438     -1.041133
  B      -0.185956     -0.842200      1.261415
  B       1.032460      0.060491      0.357519
  B      -1.258980      0.411166     -0.721432
6
Coordinates from ORCA-job B6_random_3d_seed1001_d3.50_q0_m3_R2SCAN-3C E -148.617629668210
  B       0.103850     -1.157343     -0.266994
  B      -0.004329      1.178926      0.382927
  B       0.292554      0.356292     -1.102025
  B      -0.169060     -0.796466      1.275792
  B       1.003189      0.025364      0.386636
  B      -1.226204      0.393226     -0.676336
6
Coordinates from ORCA-job B6_random_3d_seed1001_d3.50_q0_m3_R2SCAN-3C E -148.641181378544
  B       0.088002     -1.086368     -0.294552
  B      -0.052345      1.107369      0.383645
  B       0.322401      0.339811     -1.163098
  B      -0.157718     -0.743379      1.275518
  B       0.986894     -0.001464      0.415159
  B      -1.187235      0.384031     -0.616671
6
Coordinates from ORCA-job B6_random_3d_seed1001_d3.50_q0_m3_R2SCAN-3C E -148.651648047711
  B       0.067323     -1.065388     -0.340209
  B      -0.114872      1.093619      0.354998
  B       0.339612      0.314143     -1.157170
  B      -0.179614     -0.730858      1.287068
  B       1.032245      0.001447      0.413615
  B      -1.144694      0.387037     -0.558302
6
Coordinates from ORCA-job B6_random_3d_seed1001_d3.50_q0_m3_R2SCAN-3C E -148.662241300876
  B       0.040967     -1.099332     -0.345964
  B      -0.108534      1.123264      0.378574
  B       0.357776      0.299803     -1.119483
  B      -0.197922     -0.717197      1.238160
  B       1.076459      0.030646      0.400895
  B      -1.168747      0.362816     -0.552181
6
Coordinates from ORCA-job B6_random_3d_seed1001_d3.50_q0_m3_R2SCAN-3C E -148.673557596551
  B       0.006196     -1.102945     -0.360329
  B      -0.111643      1.122949      0.390012
  B       0.390086      0.280548     -1.050866
  B      -0.215529     -0.661114      1.152213
  B       1.086417      0.049263      0.371284
  B      -1.155526      0.311298     -0.502314
6
Coordinates from ORCA-job B6_random_3d_seed1001_d3.50_q0_m3_R2SCAN-3C E -148.681600277892
  B      -0.028915     -1.120421     -0.382777
  B      -0.115504      1.115186      0.403548
  B       0.416650      0.299714     -1.016559
  B      -0.247584     -0.590183      1.099382
  B       1.106515      0.050921      0.349028
  B      -1.131162      0.244783     -0.452623
6
Coordinates from ORCA-job B6_random_3d_seed1001_d3.50_q0_m3_R2SCAN-3C E -148.687675265070
  B      -0.046576     -1.121228     -0.402401
  B      -0.119944      1.100660      0.417330
  B       0.429305      0.313334     -1.021715
  B      -0.275500     -0.530876      1.066363
  B       1.124622      0.043279      0.350730
  B      -1.111908      0.194831     -0.410307
6
Coordinates from ORCA-job B6_random_3d_seed1001_d3.50_q0_m3_R2SCAN-3C E -148.691157013872
  B      -0.038919     -1.130091     -0.408820
  B      -0.121902      1.098465      0.427546
  B       0.427770      0.332636     -1.046549
  B      -0.294531     -0.496704      1.055676
  B       1.134979      0.022487      0.361047
  B      -1.107396      0.173206     -0.388900
6
Coordinates from ORCA-job B6_random_3d_seed1001_d3.50_q0_m3_R2SCAN-3C E -148.693280503880
  B      -0.024679     -1.119908     -0.414784
  B      -0.107981      1.091783      0.439969
  B       0.419365      0.352647     -1.048295
  B      -0.331419     -0.444301      1.031018
  B       1.148589     -0.005149      0.356758
  B      -1.103876      0.124928     -0.364666
6
Coordinates from ORCA-job B6_random_3d_seed1001_d3.50_q0_m3_R2SCAN-3C E -148.695157417074
  B       0.014430     -1.124739     -0.402890
  B      -0.093795      1.099168      0.431815
  B       0.397391      0.386143     -1.056060
  B      -0.345458     -0.430189      1.036029
  B       1.142846     -0.047457      0.358526
  B      -1.115414      0.117075     -0.367420
6
Coordinates from ORCA-job B6_random_3d_seed1001_d3.50_q0_m3_R2SCAN-3C E -148.695948120265
  B       0.039098     -1.103908     -0.401221
  B      -0.070114      1.104748      0.425350
  B       0.375661      0.404992     -1.057102
  B      -0.358276     -0.419300      1.050235
  B       1.130829     -0.078617      0.359261
  B      -1.117198      0.092084     -0.376522
6
Coordinates from ORCA-job B6_random_3d_seed1001_d3.50_q0_m3_R2SCAN-3C E -148.696092635369
  B       0.053602     -1.107787     -0.401528
  B      -0.059162      1.103979      0.419175
  B       0.369132      0.418154     -1.046597
  B      -0.369998     -0.404941      1.042253
  B       1.125569     -0.090478      0.354576
  B      -1.119144      0.081072     -0.367879
6
Coordinates from ORCA-job B6_random_3d_seed1001_d3.50_q0_m3_R2SCAN-3C E -148.696187537220
  B       0.048032     -1.108610     -0.407536
  B      -0.058037      1.104563      0.420825
  B       0.371345      0.412074     -1.045836
  B      -0.366956     -0.407733      1.046532
  B       1.124823     -0.082166      0.356483
  B      -1.119206      0.081872     -0.370467
6
Coordinates from ORCA-job B6_random_3d_seed1001_d3.50_q0_m3_R2SCAN-3C E -148.696200773385
  B       0.050488     -1.107721     -0.409444
  B      -0.055520      1.104706      0.419518
  B       0.370510      0.411421     -1.046225
  B      -0.368527     -0.408273      1.047957
  B       1.123872     -0.081948      0.357672
  B      -1.120823      0.081815     -0.369478
6
Coordinates from ORCA-job B6_random_3d_seed1001_d3.50_q0_m3_R2SCAN-3C E -148.696210397877
  B       0.052697     -1.107339     -0.412279
  B      -0.052766      1.105545      0.416629
  B       0.369218      0.410952     -1.046430
  B      -0.369558     -0.409123      1.047740
  B       1.122582     -0.081736      0.360982
  B      -1.122174      0.081700     -0.366641
6
Coordinates from ORCA-job B6_random_3d_seed1001_d3.50_q0_m3_R2SCAN-3C E -148.696213529822
  B       0.053948     -1.106916     -0.413813
  B      -0.052390      1.105895      0.415508
  B       0.368678      0.409952     -1.047167
  B      -0.369937     -0.409392      1.046967
  B       1.122409     -0.081844      0.363040
  B      -1.122708      0.082305     -0.364536
6
Coordinates from ORCA-job B6_random_3d_seed1001_d3.50_q0_m3_R2SCAN-3C E -148.696214111722
  B       0.053770     -1.106783     -0.414166
  B      -0.052603      1.106429      0.414842
  B       0.368596      0.409705     -1.047169
  B      -0.369786     -0.409892      1.046517
  B       1.122538     -0.081894      0.363787
  B      -1.122515      0.082435     -0.363811
6
Coordinates from ORCA-job B6_random_3d_seed1001_d3.50_q0_m3_R2SCAN-3C E -148.696214213669
  B       0.053634     -1.106706     -0.414245
  B      -0.052919      1.106426      0.414840
  B       0.368702      0.409549     -1.047077
  B      -0.369565     -0.409850      1.046528
  B       1.122608     -0.081954      0.363788
  B      -1.122459      0.082534     -0.363833
