6
Coordinates from ORCA-job B6_random_3d_seed1001_d3.50_q0_m3_R2SCAN-3C E -148.696214213669
  B           0.05363356676896     -1.10670636311694     -0.41424532830098
  B          -0.05291920941930      1.10642647641924      0.41483959426990
  B           0.36870201735277      0.40954940029518     -1.04707734695814
  B          -0.36956522506514     -0.40984990188423      1.04652768744295
  B           1.12260802848801     -0.08195359739234      0.36378801372867
  B          -1.12245917812530      0.08253399567909     -0.36383264018239
