6
Coordinates from ORCA-job B6_random_3d_seed1002_d1.80_q0_m1_R2SCAN-3C E -148.563959042417
  B       0.461250     -0.517494     -1.129379
  B       0.890183      1.104613     -0.329559
  B      -0.920687      0.563049     -0.835271
  B       0.158844     -1.284473      0.455525
  B       0.543125      0.157343      1.249734
  B      -1.132716     -0.023037      0.588950
6
Coordinates from ORCA-job B6_random_3d_seed1002_d1.80_q0_m1_R2SCAN-3C E -148.584718725568
  B       0.429428     -0.471552     -1.134945
  B       0.888349      1.068865     -0.316080
  B      -0.897414      0.542537     -0.870849
  B       0.150404     -1.246994      0.472102
  B       0.549633      0.153854      1.247577
  B      -1.120401     -0.046710      0.602195
6
Coordinates from ORCA-job B6_random_3d_seed1002_d1.80_q0_m1_R2SCAN-3C E -148.598759027393
  B       0.404249     -0.423752     -1.145985
  B       0.891186      1.028143     -0.297843
  B      -0.879872      0.516357     -0.899556
  B       0.138086     -1.207771      0.486673
  B       0.555716      0.156198      1.241100
  B      -1.109364     -0.069176      0.615610
6
Coordinates from ORCA-job B6_random_3d_seed1002_d1.80_q0_m1_R2SCAN-3C E -148.607612779758
  B       0.395912     -0.376909     -1.166075
  B       0.899413      0.975658     -0.275039
  B      -0.878277      0.490011     -0.919568
  B       0.127316     -1.169335      0.496545
  B       0.558617      0.167027      1.232107
  B      -1.102980     -0.086451      0.632031
6
Coordinates from ORCA-job B6_random_3d_seed1002_d1.80_q0_m1_R2SCAN-3C E -148.617484432663
  B       0.408142     -0.314314     -1.203502
  B       0.918750      0.890968     -0.242679
  B      -0.898288      0.453673     -0.936803
  B       0.116780     -1.119783      0.500621
  B       0.556179      0.190619      1.221059
  B      -1.101563     -0.101164      0.661306
6
Coordinates from ORCA-job B6_random_3d_seed1002_d1.80_q0_m1_R2SCAN-3C E -148.629117321049
  B       0.436555     -0.244516     -1.259112
  B       0.953819      0.784338     -0.203087
  B      -0.938938      0.401848     -0.946436
  B       0.110631     -1.063516      0.485817
  B       0.543760      0.227331      1.220016
  B      -1.105828     -0.105484      0.702802
6
Coordinates from ORCA-job B6_random_3d_seed1002_d1.80_q0_m1_R2SCAN-3C E -148.645580565547
  B       0.461093     -0.199643     -1.319280
  B       0.998242      0.695791     -0.164307
  B      -0.983091      0.343487     -0.940268
  B       0.116202     -1.014786      0.439774
  B       0.519447      0.266076      1.243392
  B      -1.111893     -0.090925      0.740689
6
Coordinates from ORCA-job B6_random_3d_seed1002_d1.80_q0_m1_R2SCAN-3C E -148.671494611209
  B       0.488216     -0.185047     -1.378489
  B       1.053910      0.626061     -0.125137
  B      -1.030701      0.271230     -0.900082
  B       0.128951     -0.967638      0.341759
  B       0.477653      0.308403      1.289127
  B      -1.118029     -0.053009      0.772823
6
Coordinates from ORCA-job B6_random_3d_seed1002_d1.80_q0_m1_R2SCAN-3C E -148.698329940980
  B       0.508105     -0.191372     -1.394872
  B       1.110550      0.574001     -0.088935
  B      -1.066121      0.193667     -0.828655
  B       0.137683     -0.912499      0.205216
  B       0.425422      0.345211      1.318326
  B      -1.115638     -0.009009      0.788921
6
Coordinates from ORCA-job B6_random_3d_seed1002_d1.80_q0_m1_R2SCAN-3C E -148.715518249546
  B       0.509698     -0.181560     -1.373773
  B       1.169063      0.512924     -0.053334
  B      -1.090594      0.107715     -0.770797
  B       0.137859     -0.838725      0.078824
  B       0.380464      0.374159      1.320186
  B      -1.106490      0.025487      0.798894
6
Coordinates from ORCA-job B6_random_3d_seed1002_d1.80_q0_m1_R2SCAN-3C E -148.724589666266
  B       0.495404     -0.131643     -1.359094
  B       1.205228      0.460035     -0.039579
  B      -1.102944      0.049633     -0.794542
  B       0.123539     -0.795424      0.072565
  B       0.379452      0.386474      1.308448
  B      -1.100679      0.030925      0.812202
6
Coordinates from ORCA-job B6_random_3d_seed1002_d1.80_q0_m1_R2SCAN-3C E -148.732189414345
  B       0.444260     -0.076764     -1.303861
  B       1.289693      0.449426     -0.053297
  B      -1.090853     -0.006564     -0.827548
  B       0.084176     -0.774981      0.091543
  B       0.381760      0.379619      1.288251
  B      -1.109036      0.029265      0.804912
6
Coordinates from ORCA-job B6_random_3d_seed1002_d1.80_q0_m1_R2SCAN-3C E -148.733950989816
  B       0.422993     -0.039104     -1.302020
  B       1.305893      0.391588     -0.037013
  B      -1.112770     -0.021788     -0.849786
  B       0.122298     -0.749353      0.110668
  B       0.378545      0.398399      1.270566
  B      -1.116960      0.020258      0.807585
6
Coordinates from ORCA-job B6_random_3d_seed1002_d1.80_q0_m1_R2SCAN-3C E -148.735107063282
  B       0.427930     -0.027890     -1.304170
  B       1.319809      0.387879     -0.029046
  B      -1.117001     -0.047115     -0.836007
  B       0.111741     -0.744691      0.090829
  B       0.377145      0.397526      1.270626
  B      -1.119623      0.034291      0.807768
6
Coordinates from ORCA-job B6_random_3d_seed1002_d1.80_q0_m1_R2SCAN-3C E -148.735916562320
  B       0.431090     -0.006989     -1.310692
  B       1.333509      0.381491     -0.026383
  B      -1.119831     -0.072139     -0.827800
  B       0.102809     -0.744786      0.089796
  B       0.377699      0.394492      1.269302
  B      -1.125277      0.047931      0.805776
6
Coordinates from ORCA-job B6_random_3d_seed1002_d1.80_q0_m1_R2SCAN-3C E -148.736526451143
  B       0.427025      0.016997     -1.313778
  B       1.346393      0.367263     -0.025139
  B      -1.122178     -0.093689     -0.818367
  B       0.107695     -0.745081      0.092801
  B       0.374473      0.393123      1.265794
  B      -1.133409      0.061387      0.798689
6
Coordinates from ORCA-job B6_random_3d_seed1002_d1.80_q0_m1_R2SCAN-3C E -148.736862107866
  B       0.421925      0.032418     -1.316451
  B       1.345732      0.360855     -0.026036
  B      -1.117755     -0.105157     -0.813188
  B       0.112258     -0.750175      0.099913
  B       0.374064      0.389012      1.264642
  B      -1.136224      0.073047      0.791119
6
Coordinates from ORCA-job B6_random_3d_seed1002_d1.80_q0_m1_R2SCAN-3C E -148.737024671345
  B       0.417092      0.042420     -1.316501
  B       1.339841      0.356580     -0.026768
  B      -1.111274     -0.113920     -0.810931
  B       0.115096     -0.753831      0.102654
  B       0.374476      0.385630      1.265483
  B      -1.135230      0.083122      0.786063
6
Coordinates from ORCA-job B6_random_3d_seed1002_d1.80_q0_m1_R2SCAN-3C E -148.737073469113
  B       0.415455      0.045309     -1.316113
  B       1.333686      0.356250     -0.027435
  B      -1.107161     -0.117545     -0.811508
  B       0.115299     -0.756342      0.102419
  B       0.375801      0.383882      1.267952
  B      -1.133080      0.088446      0.784685
6
Coordinates from ORCA-job B6_random_3d_seed1002_d1.80_q0_m1_R2SCAN-3C E -148.737081209038
  B       0.415197      0.045385     -1.315562
  B       1.332108      0.356471     -0.027432
  B      -1.106779     -0.118462     -0.812566
  B       0.115139     -0.756955      0.101336
  B       0.376508      0.383870      1.269399
  B      -1.132173      0.089691      0.784825
6
Coordinates from ORCA-job B6_random_3d_seed1002_d1.80_q0_m1_R2SCAN-3C E -148.737082678691
  B       0.415126      0.045239     -1.315272
  B       1.332074      0.356735     -0.027322
  B      -1.107238     -0.118682     -0.813184
  B       0.115049     -0.757275      0.100868
  B       0.376806      0.384023      1.270059
  B      -1.131817      0.089959      0.784852
6
Coordinates from ORCA-job B6_random_3d_seed1002_d1.80_q0_m1_R2SCAN-3C E -148.737082994325
  B       0.415026      0.045397     -1.315151
  B       1.332257      0.356740     -0.027186
  B      -1.107644     -0.118929     -0.813414
  B       0.115075     -0.757454      0.100778
  B       0.376893      0.384099      1.270278
  B      -1.131607      0.090147      0.784696
6
Coordinates from ORCA-job B6_random_3d_seed1002_d1.80_q0_m1_R2SCAN-3C E -148.737083075428
  B       0.414931      0.045593     -1.315071
  B       1.332387      0.356687     -0.027093
  B      -1.107882     -0.119120     -0.813470
  B       0.115106     -0.757552      0.100819
  B       0.376899      0.384111      1.270312
  B      -1.131442      0.090280      0.784502
