6
Coordinates from ORCA-job B6_random_3d_seed1002_d1.80_q0_m1_R2SCAN-3C E -148.737083075428
  B           0.41493119783624      0.04559287312862     -1.31507055122819
  B           1.33238665540502      0.35668717977931     -0.02709265361132
  B          -1.10788183429718     -0.11911952389846     -0.81347009110169
  B           0.11510628415865     -0.75755154589692      0.10081872337624
  B           0.37689926083882      0.38411104279868      1.27031239829202
  B          -1.13144156394154      0.09027998408877      0.78450216427293
