6
Coordinates from ORCA-job B6_random_3d_seed1003_d1.80_q0_m1_R2SCAN-3C E -148.573470217327
  B       0.180771      0.814190     -1.108283
  B      -0.134788     -0.776986      0.975735
  B      -1.320168      0.175948     -0.051023
  B       1.426160     -0.114685      0.137354
  B       0.070263      0.919897      0.831125
  B      -0.222237     -1.018364     -0.784907
6
Coordinates from ORCA-job B6_random_3d_seed1003_d1.80_q0_m1_R2SCAN-3C E -148.601440719318
  B       0.179417      0.792815     -1.077774
  B      -0.130740     -0.766550      0.954502
  B      -1.296470      0.175657     -0.050499
  B       1.397461     -0.113167      0.129152
  B       0.064143      0.898990      0.804651
  B      -0.213812     -0.987745     -0.760031
6
Coordinates from ORCA-job B6_random_3d_seed1003_d1.80_q0_m1_R2SCAN-3C E -148.624462435332
  B       0.178104      0.771223     -1.047042
  B      -0.126843     -0.757071      0.934422
  B      -1.274090      0.176123     -0.049361
  B       1.369552     -0.112636      0.120270
  B       0.057166      0.878624      0.777204
  B      -0.203889     -0.956263     -0.735493
6
Coordinates from ORCA-job B6_random_3d_seed1003_d1.80_q0_m1_R2SCAN-3C E -148.647696024385
  B       0.177130      0.737949     -0.998323
  B      -0.120309     -0.746554      0.909654
  B      -1.245458      0.179087     -0.047094
  B       1.325274     -0.114923      0.103297
  B       0.046293      0.853366      0.734870
  B      -0.182929     -0.908926     -0.702404
6
Coordinates from ORCA-job B6_random_3d_seed1003_d1.80_q0_m1_R2SCAN-3C E -148.656239834509
  B       0.178550      0.707678     -0.947272
  B      -0.112297     -0.742054      0.899432
  B      -1.229167      0.183427     -0.045566
  B       1.274718     -0.126171      0.078396
  B       0.036858      0.839354      0.692624
  B      -0.148661     -0.862235     -0.677614
6
Coordinates from ORCA-job B6_random_3d_seed1003_d1.80_q0_m1_R2SCAN-3C E -148.657724426341
  B       0.180524      0.712215     -0.943224
  B      -0.110441     -0.745771      0.911850
  B      -1.238359      0.182268     -0.048212
  B       1.264597     -0.136290      0.069536
  B       0.038683      0.845653      0.689452
  B      -0.135004     -0.858075     -0.679402
6
Coordinates from ORCA-job B6_random_3d_seed1003_d1.80_q0_m1_R2SCAN-3C E -148.659145653529
  B       0.182808      0.728528     -0.941028
  B      -0.107039     -0.753634      0.940343
  B      -1.255946      0.176692     -0.056040
  B       1.243632     -0.157965      0.054283
  B       0.045677      0.855366      0.683132
  B      -0.109134     -0.848987     -0.680690
6
Coordinates from ORCA-job B6_random_3d_seed1003_d1.80_q0_m1_R2SCAN-3C E -148.659334996318
  B       0.181876      0.736133     -0.944482
  B      -0.106865     -0.755470      0.948601
  B      -1.257021      0.173318     -0.059032
  B       1.239611     -0.161652      0.054120
  B       0.049362      0.854363      0.681197
  B      -0.106961     -0.846693     -0.680404
6
Coordinates from ORCA-job B6_random_3d_seed1003_d1.80_q0_m1_R2SCAN-3C E -148.659608203460
  B       0.178423      0.752418     -0.953575
  B      -0.107955     -0.758965      0.965135
  B      -1.252618      0.165492     -0.064704
  B       1.229366     -0.167264      0.055581
  B       0.057123      0.847743      0.675127
  B      -0.104339     -0.839425     -0.677564
6
Coordinates from ORCA-job B6_random_3d_seed1003_d1.80_q0_m1_R2SCAN-3C E -148.659677813227
  B       0.176499      0.756501     -0.958388
  B      -0.110302     -0.759927      0.967873
  B      -1.247032      0.163957     -0.064553
  B       1.227774     -0.166635      0.057206
  B       0.058281      0.844552      0.674354
  B      -0.105220     -0.838449     -0.676492
6
Coordinates from ORCA-job B6_random_3d_seed1003_d1.80_q0_m1_R2SCAN-3C E -148.659732555699
  B       0.174127      0.758729     -0.962609
  B      -0.114606     -0.761126      0.968768
  B      -1.239534      0.163766     -0.062444
  B       1.225467     -0.165587      0.057333
  B       0.058296      0.842245      0.673996
  B      -0.103751     -0.838028     -0.675044
6
Coordinates from ORCA-job B6_random_3d_seed1003_d1.80_q0_m1_R2SCAN-3C E -148.659760912175
  B       0.172236      0.759016     -0.965061
  B      -0.118902     -0.762288      0.968209
  B      -1.234996      0.164353     -0.060148
  B       1.224763     -0.164102      0.056908
  B       0.058709      0.842355      0.674915
  B      -0.101810     -0.839334     -0.674824
6
Coordinates from ORCA-job B6_random_3d_seed1003_d1.80_q0_m1_R2SCAN-3C E -148.659787708463
  B       0.169257      0.759599     -0.967226
  B      -0.124784     -0.764107      0.968575
  B      -1.230809      0.164590     -0.058031
  B       1.222808     -0.162746      0.055851
  B       0.061209      0.843283      0.675662
  B      -0.097681     -0.840620     -0.674831
6
Coordinates from ORCA-job B6_random_3d_seed1003_d1.80_q0_m1_R2SCAN-3C E -148.659809400285
  B       0.165439      0.759509     -0.968423
  B      -0.130733     -0.765503      0.968453
  B      -1.228204      0.164684     -0.056638
  B       1.221963     -0.161017      0.055567
  B       0.065321      0.844640      0.676615
  B      -0.093786     -0.842313     -0.675573
6
Coordinates from ORCA-job B6_random_3d_seed1003_d1.80_q0_m1_R2SCAN-3C E -148.659826215948
  B       0.160719      0.759755     -0.968764
  B      -0.136027     -0.766195      0.968863
  B      -1.226776      0.164360     -0.056414
  B       1.221173     -0.160215      0.055782
  B       0.070469      0.845299      0.676738
  B      -0.089558     -0.843003     -0.676205
6
Coordinates from ORCA-job B6_random_3d_seed1003_d1.80_q0_m1_R2SCAN-3C E -148.659839411790
  B       0.155840      0.759629     -0.968250
  B      -0.139925     -0.765639      0.968467
  B      -1.226649      0.164213     -0.056865
  B       1.222141     -0.160073      0.056740
  B       0.074989      0.845335      0.676751
  B      -0.086396     -0.843466     -0.676843
6
Coordinates from ORCA-job B6_random_3d_seed1003_d1.80_q0_m1_R2SCAN-3C E -148.659850159998
  B       0.150980      0.760102     -0.967620
  B      -0.142918     -0.764240      0.968141
  B      -1.226824      0.164002     -0.057641
  B       1.223657     -0.161119      0.057713
  B       0.078507      0.844509      0.676325
  B      -0.083403     -0.843255     -0.676918
6
Coordinates from ORCA-job B6_random_3d_seed1003_d1.80_q0_m1_R2SCAN-3C E -148.659856492655
  B       0.147340      0.760587     -0.967100
  B      -0.144952     -0.762435      0.967317
  B      -1.227152      0.163921     -0.058072
  B       1.225912     -0.162464      0.058415
  B       0.080272      0.843559      0.676141
  B      -0.081419     -0.843168     -0.676701
6
Coordinates from ORCA-job B6_random_3d_seed1003_d1.80_q0_m1_R2SCAN-3C E -148.659858069560
  B       0.146243      0.761129     -0.967165
  B      -0.145958     -0.761714      0.967117
  B      -1.226983      0.163723     -0.057958
  B       1.226661     -0.163199      0.058271
  B       0.080527      0.843106      0.676055
  B      -0.080490     -0.843045     -0.676321
6
Coordinates from ORCA-job B6_random_3d_seed1003_d1.80_q0_m1_R2SCAN-3C E -148.659858437638
  B       0.146278      0.761315     -0.967254
  B      -0.146372     -0.761509      0.967005
  B      -1.226901      0.163553     -0.057729
  B       1.226979     -0.163307      0.058012
  B       0.080382      0.843054      0.676130
  B      -0.080365     -0.843106     -0.676164
6
Coordinates from ORCA-job B6_random_3d_seed1003_d1.80_q0_m1_R2SCAN-3C E -148.659858540808
  B       0.146526      0.761374     -0.967219
  B      -0.146520     -0.761452      0.967025
  B      -1.226947      0.163384     -0.057614
  B       1.227018     -0.163290      0.057784
  B       0.080300      0.843072      0.676124
  B      -0.080377     -0.843087     -0.676100
