6
Coordinates from ORCA-job B6_random_3d_seed1003_d1.80_q0_m1_R2SCAN-3C E -148.659858540808
  B           0.14652558920098      0.76137357961965     -0.96721860415956
  B          -0.14651982318950     -0.76145214421627      0.96702472071376
  B          -1.22694673554764      0.16338361241183     -0.05761375352967
  B           1.22701835863905     -0.16328966370749      0.05778379025722
  B           0.08029994773295      0.84307169683301      0.67612358840692
  B          -0.08037733683584     -0.84308708094073     -0.67609973168866
