6
Coordinates from ORCA-job B6_octahedral_3d_d3.00_q0_m3_R2SCAN-3C E -148.006539844949
  B       2.121320      0.000000      0.000000
  B      -2.121320      0.000000      0.000000
  B       0.000000      2.121320      0.000000
  B       0.000000     -2.121320      0.000000
  B       0.000000      0.000000      2.121320
  B       0.000000      0.000000     -2.121320
6
Coordinates from ORCA-job B6_octahedral_3d_d3.00_q0_m3_R2SCAN-3C E -148.021775498286
  B       2.086875      0.000042      0.000023
  B      -2.086802     -0.000038      0.000054
  B       0.000113      2.086839      0.000010
  B       0.000034     -2.086897     -0.000019
  B      -0.000126      0.000042      2.093239
  B      -0.000094      0.000012     -2.093306
6
Coordinates from ORCA-job B6_octahedral_3d_d3.00_q0_m3_R2SCAN-3C E -148.037744636167
  B       2.052560      0.000084      0.000044
  B      -2.052411     -0.000076      0.000108
  B       0.000228      2.052484      0.000022
  B       0.000068     -2.052602     -0.000038
  B      -0.000255      0.000085      2.064869
  B      -0.000192      0.000025     -2.065005
6
Coordinates from ORCA-job B6_octahedral_3d_d3.00_q0_m3_R2SCAN-3C E -148.082951643892
  B       2.001459      0.000143      0.000073
  B      -2.001190     -0.000130      0.000184
  B       0.000390      2.001314      0.000042
  B       0.000117     -2.001521     -0.000064
  B      -0.000443      0.000150      2.021509
  B      -0.000333      0.000044     -2.021743
6
Coordinates from ORCA-job B6_octahedral_3d_d3.00_q0_m3_R2SCAN-3C E -148.120328025128
  B       1.914553     -0.000173      0.002506
  B      -1.933577      0.000006     -0.005563
  B      -0.001755      1.944342     -0.000359
  B      -0.001577     -1.944209     -0.000406
  B       0.015173      0.000040      1.942172
  B       0.007184     -0.000006     -1.938350
6
Coordinates from ORCA-job B6_octahedral_3d_d3.00_q0_m3_R2SCAN-3C E -148.147733047108
  B       1.858235     -0.000425      0.004786
  B      -1.886297      0.000101     -0.009926
  B      -0.003218      1.905925     -0.000605
  B      -0.002696     -1.905539     -0.000634
  B       0.024276     -0.000016      1.889502
  B       0.009700     -0.000045     -1.883122
6
Coordinates from ORCA-job B6_octahedral_3d_d3.00_q0_m3_R2SCAN-3C E -148.192539752523
  B       1.774496     -0.000817      0.008681
  B      -1.815468      0.000263     -0.017194
  B      -0.005434      1.847529     -0.000909
  B      -0.004361     -1.846743     -0.000929
  B       0.038208     -0.000105      1.810801
  B       0.012559     -0.000126     -1.800450
6
Coordinates from ORCA-job B6_octahedral_3d_d3.00_q0_m3_R2SCAN-3C E -148.243736895866
  B       1.689063     -0.001239      0.013366
  B      -1.742388      0.000470     -0.025847
  B      -0.007495      1.784516     -0.001049
  B      -0.005799     -1.783290     -0.001091
  B       0.052761     -0.000207      1.730460
  B       0.013859     -0.000251     -1.715839
6
Coordinates from ORCA-job B6_octahedral_3d_d3.00_q0_m3_R2SCAN-3C E -148.299534555327
  B       1.605442     -0.001658      0.019405
  B      -1.670878      0.000747     -0.036667
  B      -0.009092      1.717888     -0.000922
  B      -0.006711     -1.716206     -0.001001
  B       0.068462     -0.000344      1.651986
  B       0.012777     -0.000427     -1.632802
6
Coordinates from ORCA-job B6_octahedral_3d_d3.00_q0_m3_R2SCAN-3C E -148.360867953387
  B       1.525274     -0.002201      0.029373
  B      -1.602164      0.001291     -0.052947
  B      -0.010001      1.646443     -0.000228
  B      -0.006563     -1.644315     -0.000167
  B       0.087654     -0.000639      1.575988
  B       0.005800     -0.000579     -1.552019
6
Coordinates from ORCA-job B6_octahedral_3d_d3.00_q0_m3_R2SCAN-3C E -148.425426471971
  B       1.448722     -0.006990      0.046793
  B      -1.539200      0.006174     -0.074827
  B      -0.013376      1.570567     -0.002107
  B      -0.000595     -1.568188      0.003767
  B       0.112645     -0.003762      1.501381
  B      -0.008196      0.002199     -1.475007
6
Coordinates from ORCA-job B6_octahedral_3d_d3.00_q0_m3_R2SCAN-3C E -148.497623975639
  B       1.375095     -0.012418      0.067688
  B      -1.478697      0.012340     -0.100084
  B      -0.017162      1.494506     -0.003040
  B       0.006679     -1.493616      0.007281
  B       0.140229     -0.005589      1.425304
  B      -0.026143      0.004777     -1.397148
6
Coordinates from ORCA-job B6_octahedral_3d_d3.00_q0_m3_R2SCAN-3C E -148.564142066906
  B       1.317304     -0.012904      0.084248
  B      -1.421580      0.013453     -0.122201
  B      -0.017928      1.427379      0.000303
  B       0.006969     -1.427083      0.006258
  B       0.158407     -0.003314      1.333638
  B      -0.043172      0.002469     -1.302247
6
Coordinates from ORCA-job B6_octahedral_3d_d3.00_q0_m3_R2SCAN-3C E -148.626763957889
  B       1.276260     -0.006588      0.082134
  B      -1.363206      0.010672     -0.137860
  B      -0.014715      1.349155      0.007469
  B      -0.000241     -1.360439     -0.001640
  B       0.156465      0.008468      1.249875
  B      -0.054562     -0.001269     -1.199978
6
Coordinates from ORCA-job B6_octahedral_3d_d3.00_q0_m3_R2SCAN-3C E -148.666755355742
  B       1.199928     -0.000879      0.055250
  B      -1.280369      0.012503     -0.120678
  B      -0.014143      1.271456      0.006045
  B      -0.003401     -1.299833     -0.001566
  B       0.132508      0.012402      1.186592
  B      -0.034523      0.004351     -1.125643
6
Coordinates from ORCA-job B6_octahedral_3d_d3.00_q0_m3_R2SCAN-3C E -148.685600540392
  B       1.175324      0.013733      0.001676
  B      -1.237929      0.008708     -0.068916
  B      -0.010714      1.185249      0.010234
  B      -0.018525     -1.238133      0.002058
  B       0.072510      0.019178      1.139727
  B       0.019333      0.011265     -1.084779
6
Coordinates from ORCA-job B6_octahedral_3d_d3.00_q0_m3_R2SCAN-3C E -148.692396951165
  B       1.184178     -0.002089     -0.003741
  B      -1.200232      0.000567     -0.035969
  B      -0.027130      1.189215      0.022300
  B      -0.025360     -1.185192      0.013635
  B       0.040443      0.002604      1.133357
  B       0.028100     -0.005105     -1.129581
6
Coordinates from ORCA-job B6_octahedral_3d_d3.00_q0_m3_R2SCAN-3C E -148.695705532162
  B       1.196599      0.000173     -0.000997
  B      -1.176311     -0.004329     -0.026225
  B      -0.025124      1.187745      0.008500
  B      -0.030390     -1.180612      0.016610
  B       0.020879     -0.006353      1.184159
  B       0.014347      0.003377     -1.182047
6
Coordinates from ORCA-job B6_octahedral_3d_d3.00_q0_m3_R2SCAN-3C E -148.695915275253
  B       1.182336     -0.005703     -0.002036
  B      -1.188698      0.005429     -0.010754
  B      -0.018395      1.181677      0.016863
  B      -0.008029     -1.179808     -0.001140
  B       0.011236      0.007465      1.187114
  B       0.021550     -0.009060     -1.190047
6
Coordinates from ORCA-job B6_octahedral_3d_d3.00_q0_m3_R2SCAN-3C E -148.696188510414
  B       1.179599      0.001150     -0.000675
  B      -1.188939     -0.001491     -0.004588
  B      -0.005187      1.181418      0.002945
  B      -0.008741     -1.178953      0.006819
  B       0.004062     -0.003720      1.180670
  B       0.019205      0.001596     -1.185172
6
Coordinates from ORCA-job B6_octahedral_3d_d3.00_q0_m3_R2SCAN-3C E -148.696265965514
  B       1.185296      0.000432      0.001057
  B      -1.179506      0.001436     -0.007815
  B      -0.008177      1.183420      0.002606
  B      -0.008120     -1.185702      0.003486
  B       0.000223     -0.000931      1.182096
  B       0.010284      0.001345     -1.181431
6
Coordinates from ORCA-job B6_octahedral_3d_d3.00_q0_m3_R2SCAN-3C E -148.696290514332
  B       1.181902      0.000926      0.002471
  B      -1.181963     -0.000341     -0.006865
  B      -0.003140      1.183581      0.002870
  B      -0.005328     -1.183747      0.000746
  B      -0.000546      0.000149      1.183837
  B       0.009075     -0.000568     -1.183058
6
Coordinates from ORCA-job B6_octahedral_3d_d3.00_q0_m3_R2SCAN-3C E -148.696292068128
  B       1.180941     -0.001628      0.003900
  B      -1.184398      0.001780     -0.004862
  B      -0.001542      1.182840      0.000151
  B       0.000929     -1.182613      0.000795
  B      -0.003070     -0.001205      1.183667
  B       0.007141      0.000826     -1.183652
6
Coordinates from ORCA-job B6_octahedral_3d_d3.00_q0_m3_R2SCAN-3C E -148.696302262903
  B       1.182363     -0.000041      0.004268
  B      -1.183059      0.000473     -0.004566
  B      -0.000276      1.183078      0.000626
  B      -0.000692     -1.183479      0.000053
  B      -0.004234     -0.000428      1.182793
  B       0.005899      0.000397     -1.183174
6
Coordinates from ORCA-job B6_octahedral_3d_d3.00_q0_m3_R2SCAN-3C E -148.696302940700
  B       1.182732     -0.000163      0.004494
  B      -1.182759      0.000235     -0.004915
  B      -0.000006      1.183126      0.000382
  B      -0.000538     -1.183027     -0.000335
  B      -0.004494     -0.000426      1.183167
  B       0.005064      0.000255     -1.182793
6
Coordinates from ORCA-job B6_octahedral_3d_d3.00_q0_m3_R2SCAN-3C E -148.696303069817
  B       1.182923     -0.000166      0.004812
  B      -1.182929      0.000257     -0.004750
  B       0.000286      1.182931      0.000355
  B      -0.000221     -1.183027     -0.000354
  B      -0.004733     -0.000343      1.182929
  B       0.004674      0.000346     -1.182992
6
Coordinates from ORCA-job B6_octahedral_3d_d3.00_q0_m3_R2SCAN-3C E -148.696303079726
  B       1.182973     -0.000233      0.004732
  B      -1.182970      0.000237     -0.004725
  B       0.000243      1.182992      0.000326
  B      -0.000216     -1.182947     -0.000377
  B      -0.004771     -0.000371      1.182961
  B       0.004742      0.000322     -1.182917
