6
Coordinates from ORCA-job B6_octahedral_3d_d3.00_q0_m3_R2SCAN-3C E -148.696303079726
  B           1.18297270377143     -0.00023318449467      0.00473163913465
  B          -1.18297042094793      0.00023734892659     -0.00472453507409
  B           0.00024283328495      1.18299186324024      0.00032606249150
  B          -0.00021621134571     -1.18294670500743     -0.00037749521809
  B          -0.00477066428993     -0.00037145881548      1.18296100390572
  B           0.00474175952719      0.00032213615076     -1.18291667523968
