6
Coordinates from ORCA-job B6_random_3d_seed1003_d2.20_q0_m3_R2SCAN-3C E -148.345308124681
  B       0.220942      0.995121     -1.354569
  B      -0.164741     -0.949649      1.192565
  B      -1.613539      0.215048     -0.062361
  B       1.743084     -0.140170      0.167877
  B       0.085877      1.124318      1.015819
  B      -0.271623     -1.244667     -0.959331
6
Coordinates from ORCA-job B6_random_3d_seed1003_d2.20_q0_m3_R2SCAN-3C E -148.373646839730
  B       0.214929      0.976775     -1.332364
  B      -0.160469     -0.928490      1.167541
  B      -1.577246      0.206119     -0.066126
  B       1.712007     -0.129618      0.173008
  B       0.090262      1.097373      0.999324
  B      -0.279483     -1.222158     -0.941383
6
Coordinates from ORCA-job B6_random_3d_seed1003_d2.20_q0_m3_R2SCAN-3C E -148.402333518702
  B       0.209249      0.958598     -1.310112
  B      -0.156886     -0.907682      1.143268
  B      -1.540881      0.196120     -0.070202
  B       1.681436     -0.118487      0.178057
  B       0.095254      1.070454      0.982470
  B      -0.288172     -1.199003     -0.923480
6
Coordinates from ORCA-job B6_random_3d_seed1003_d2.20_q0_m3_R2SCAN-3C E -148.446012235117
  B       0.201580      0.930830     -1.275420
  B      -0.152145     -0.877793      1.108075
  B      -1.487349      0.180111     -0.076730
  B       1.635122     -0.101043      0.184902
  B       0.104041      1.031055      0.956068
  B      -0.301250     -1.163160     -0.896894
6
Coordinates from ORCA-job B6_random_3d_seed1003_d2.20_q0_m3_R2SCAN-3C E -148.512940772044
  B       0.192636      0.888325     -1.219864
  B      -0.145796     -0.835770      1.058408
  B      -1.411753      0.154927     -0.086065
  B       1.565059     -0.074269      0.193422
  B       0.118990      0.972844      0.911460
  B      -0.319136     -1.106056     -0.857361
6
Coordinates from ORCA-job B6_random_3d_seed1003_d2.20_q0_m3_R2SCAN-3C E -148.575453722909
  B       0.186394      0.847252     -1.167613
  B      -0.137955     -0.794391      1.009579
  B      -1.342173      0.127945     -0.093321
  B       1.496331     -0.051211      0.201795
  B       0.130275      0.906375      0.858312
  B      -0.332873     -1.035970     -0.808751
6
Coordinates from ORCA-job B6_random_3d_seed1003_d2.20_q0_m3_R2SCAN-3C E -148.629275501426
  B       0.174431      0.789914     -1.100333
  B      -0.123767     -0.756666      0.954113
  B      -1.271411      0.129274     -0.088281
  B       1.417147     -0.038975      0.199967
  B       0.124954      0.855256      0.806776
  B      -0.321354     -0.978804     -0.772242
6
Coordinates from ORCA-job B6_random_3d_seed1003_d2.20_q0_m3_R2SCAN-3C E -148.666351397768
  B       0.162160      0.727039     -1.024482
  B      -0.116651     -0.726512      0.896158
  B      -1.197752      0.151476     -0.068532
  B       1.340487     -0.040157      0.177416
  B       0.097666      0.827842      0.763952
  B      -0.285910     -0.939687     -0.744512
6
Coordinates from ORCA-job B6_random_3d_seed1003_d2.20_q0_m3_R2SCAN-3C E -148.682561582198
  B       0.159748      0.686587     -0.947574
  B      -0.114851     -0.735190      0.862925
  B      -1.137663      0.182358     -0.050962
  B       1.264667     -0.047820      0.137987
  B       0.071175      0.846407      0.726667
  B      -0.243075     -0.932341     -0.729043
6
Coordinates from ORCA-job B6_random_3d_seed1003_d2.20_q0_m3_R2SCAN-3C E -148.689435393158
  B       0.170197      0.675030     -0.932281
  B      -0.109430     -0.742488      0.873781
  B      -1.137009      0.194684     -0.045994
  B       1.222646     -0.064656      0.105738
  B       0.063351      0.877058      0.740934
  B      -0.209756     -0.939629     -0.742178
6
Coordinates from ORCA-job B6_random_3d_seed1003_d2.20_q0_m3_R2SCAN-3C E -148.693849440857
  B       0.171009      0.687836     -0.937279
  B      -0.105149     -0.749758      0.887909
  B      -1.143878      0.203402     -0.042714
  B       1.183212     -0.105342      0.075149
  B       0.056808      0.914394      0.763552
  B      -0.162001     -0.950531     -0.746618
6
Coordinates from ORCA-job B6_random_3d_seed1003_d2.20_q0_m3_R2SCAN-3C E -148.694803793796
  B       0.164156      0.696840     -0.936350
  B      -0.116258     -0.747574      0.896514
  B      -1.150664      0.198725     -0.043917
  B       1.174289     -0.123019      0.060291
  B       0.064545      0.922006      0.766891
  B      -0.136068     -0.946978     -0.743429
6
Coordinates from ORCA-job B6_random_3d_seed1003_d2.20_q0_m3_R2SCAN-3C E -148.695749089778
  B       0.145308      0.713597     -0.931936
  B      -0.136928     -0.740411      0.909714
  B      -1.162044      0.186976     -0.049735
  B       1.169891     -0.149724      0.044530
  B       0.082862      0.923835      0.762268
  B      -0.099089     -0.934273     -0.734840
6
Coordinates from ORCA-job B6_random_3d_seed1003_d2.20_q0_m3_R2SCAN-3C E -148.696071292575
  B       0.139232      0.720971     -0.926822
  B      -0.146808     -0.735342      0.915253
  B      -1.169132      0.177195     -0.052103
  B       1.174256     -0.153770      0.044271
  B       0.094886      0.918432      0.752741
  B      -0.092432     -0.927486     -0.733339
6
Coordinates from ORCA-job B6_random_3d_seed1003_d2.20_q0_m3_R2SCAN-3C E -148.696170618931
  B       0.134889      0.725028     -0.922279
  B      -0.148342     -0.730023      0.918465
  B      -1.170149      0.171002     -0.053615
  B       1.171826     -0.157753      0.047687
  B       0.101296      0.913639      0.744324
  B      -0.089520     -0.921893     -0.734583
6
Coordinates from ORCA-job B6_random_3d_seed1003_d2.20_q0_m3_R2SCAN-3C E -148.696184937370
  B       0.136718      0.725990     -0.923316
  B      -0.147142     -0.729355      0.919151
  B      -1.170272      0.168906     -0.052432
  B       1.172505     -0.157722      0.050003
  B       0.100676      0.913680      0.743286
  B      -0.092485     -0.921498     -0.736692
6
Coordinates from ORCA-job B6_random_3d_seed1003_d2.20_q0_m3_R2SCAN-3C E -148.696196803170
  B       0.138769      0.727680     -0.923193
  B      -0.145605     -0.728203      0.920043
  B      -1.169833      0.165880     -0.051094
  B       1.170845     -0.160326      0.050835
  B       0.099440      0.915370      0.741928
  B      -0.093617     -0.920401     -0.738519
6
Coordinates from ORCA-job B6_random_3d_seed1003_d2.20_q0_m3_R2SCAN-3C E -148.696202473046
  B       0.139961      0.728649     -0.922248
  B      -0.143676     -0.727512      0.921074
  B      -1.169728      0.163713     -0.050881
  B       1.170256     -0.163220      0.051358
  B       0.097947      0.917444      0.740772
  B      -0.094761     -0.919074     -0.740075
6
Coordinates from ORCA-job B6_random_3d_seed1003_d2.20_q0_m3_R2SCAN-3C E -148.696204002121
  B       0.140831      0.728617     -0.921377
  B      -0.143134     -0.727261      0.921467
  B      -1.170020      0.162965     -0.050793
  B       1.170364     -0.164072      0.050934
  B       0.097154      0.918159      0.740232
  B      -0.095194     -0.918408     -0.740463
6
Coordinates from ORCA-job B6_random_3d_seed1003_d2.20_q0_m3_R2SCAN-3C E -148.696204645679
  B       0.141232      0.728373     -0.921026
  B      -0.142549     -0.727373      0.921613
  B      -1.170369      0.163100     -0.050990
  B       1.170669     -0.164255      0.050786
  B       0.096591      0.918271      0.740063
  B      -0.095574     -0.918116     -0.740446
6
Coordinates from ORCA-job B6_random_3d_seed1003_d2.20_q0_m3_R2SCAN-3C E -148.696204956563
  B       0.141631      0.728167     -0.921054
  B      -0.142178     -0.727583      0.921564
  B      -1.170593      0.163405     -0.051028
  B       1.170760     -0.164028      0.050701
  B       0.096227      0.918074      0.740035
  B      -0.095846     -0.918034     -0.740217
6
Coordinates from ORCA-job B6_random_3d_seed1003_d2.20_q0_m3_R2SCAN-3C E -148.696205073701
  B       0.141906      0.728039     -0.921293
  B      -0.141905     -0.727841      0.921500
  B      -1.170664      0.163678     -0.051022
  B       1.170733     -0.163765      0.050736
  B       0.095996      0.917877      0.740073
  B      -0.096065     -0.917988     -0.739994
