6
Coordinates from ORCA-job B6_random_3d_seed1003_d2.20_q0_m3_R2SCAN-3C E -148.696205073701
  B           0.14190556978384      0.72803913370392     -0.92129312889304
  B          -0.14190508523236     -0.72784127757348      0.92150028560139
  B          -1.17066356644896      0.16367810722276     -0.05102223465833
  B           1.17073290490113     -0.16376458546282      0.05073589271728
  B           0.09599555192843      0.91787676908886      0.74007333778360
  B          -0.09606537493207     -0.91798813697923     -0.73999415255090
