6
Coordinates from ORCA-job B6_linear_chain_d2.20_q0_m5_R2SCAN-3C E -148.199641727396
  B      -5.500000      0.000000      0.000000
  B      -3.300000      0.000000      0.000000
  B      -1.100000      0.000000      0.000000
  B       1.100000      0.000000      0.000000
  B       3.300000      0.000000      0.000000
  B       5.500000      0.000000      0.000000
6
Coordinates from ORCA-job B6_linear_chain_d2.20_q0_m5_R2SCAN-3C E -148.243127685930
  B      -5.325563     -0.000000      0.000000
  B      -3.180007      0.000000     -0.000000
  B      -1.063571      0.000000     -0.000000
  B       1.063571      0.000000     -0.000000
  B       3.180007     -0.000000      0.000000
  B       5.325563     -0.000000      0.000000
6
Coordinates from ORCA-job B6_linear_chain_d2.20_q0_m5_R2SCAN-3C E -148.288813030204
  B      -5.152443      0.000000     -0.000000
  B      -3.057694      0.000000     -0.000000
  B      -1.026730     -0.000000      0.000000
  B       1.026730     -0.000000      0.000000
  B       3.057694      0.000000     -0.000000
  B       5.152443      0.000000     -0.000000
6
Coordinates from ORCA-job B6_linear_chain_d2.20_q0_m5_R2SCAN-3C E -148.357862757365
  B      -4.894684     -0.000000     -0.000000
  B      -2.871582      0.000000     -0.000000
  B      -0.971221      0.000000      0.000000
  B       0.971221      0.000000      0.000000
  B       2.871582     -0.000000      0.000000
  B       4.894684     -0.000000     -0.000000
6
Coordinates from ORCA-job B6_linear_chain_d2.20_q0_m5_R2SCAN-3C E -148.437177275811
  B      -4.561314     -0.000000     -0.000000
  B      -2.633452      0.000000     -0.000000
  B      -0.891844      0.000000      0.000000
  B       0.891844      0.000000      0.000000
  B       2.633452     -0.000000      0.000000
  B       4.561314     -0.000000     -0.000000
6
Coordinates from ORCA-job B6_linear_chain_d2.20_q0_m5_R2SCAN-3C E -148.484941725216
  B      -4.203311     -0.000000     -0.000000
  B      -2.399087      0.000000     -0.000000
  B      -0.816232     -0.000000      0.000000
  B       0.816232      0.000000      0.000000
  B       2.399087     -0.000000     -0.000000
  B       4.203311     -0.000000     -0.000000
6
Coordinates from ORCA-job B6_linear_chain_d2.20_q0_m5_R2SCAN-3C E -148.484081945669
  B      -4.027187     -0.000000     -0.000000
  B      -2.381716      0.000000     -0.000000
  B      -0.833783     -0.000000      0.000000
  B       0.833783      0.000000      0.000000
  B       2.381716      0.000000     -0.000000
  B       4.027187     -0.000000     -0.000000
6
Coordinates from ORCA-job B6_linear_chain_d2.20_q0_m5_R2SCAN-3C E -148.488320773515
  B      -4.090457     -0.000000     -0.000000
  B      -2.357989      0.000000     -0.000000
  B      -0.804458     -0.000000      0.000000
  B       0.804458      0.000000      0.000000
  B       2.357989      0.000000     -0.000000
  B       4.090457     -0.000000     -0.000000
6
Coordinates from ORCA-job B6_linear_chain_d2.20_q0_m5_R2SCAN-3C E -148.488169256230
  B      -4.116354     -0.000000      0.000000
  B      -2.380003     -0.000000     -0.000000
  B      -0.826961     -0.000000     -0.000000
  B       0.826961      0.000000     -0.000000
  B       2.380003      0.000000     -0.000000
  B       4.116354     -0.000000      0.000000
6
Coordinates from ORCA-job B6_linear_chain_d2.20_q0_m5_R2SCAN-3C E -148.581150405111
  B      -4.105993      0.000000      0.000002
  B      -2.387949     -0.000000     -0.000000
  B      -0.814098     -0.000000     -0.000002
  B       0.814098      0.000000     -0.000002
  B       2.387949      0.000000     -0.000000
  B       4.105993     -0.000000      0.000002
6
Coordinates from ORCA-job B6_linear_chain_d2.20_q0_m5_R2SCAN-3C E -148.607339256094
  B      -3.961323      0.000000     -0.000002
  B      -2.351757     -0.000000     -0.000000
  B      -0.784605     -0.000000      0.000002
  B       0.784606     -0.000000      0.000002
  B       2.351756      0.000000      0.000000
  B       3.961322      0.000000     -0.000002
6
Coordinates from ORCA-job B6_linear_chain_d2.20_q0_m5_R2SCAN-3C E -148.613002650220
  B      -3.858132      0.000000     -0.000002
  B      -2.321861      0.000000      0.000000
  B      -0.770354     -0.000000      0.000002
  B       0.770360     -0.000000      0.000002
  B       2.321859     -0.000000      0.000000
  B       3.858128      0.000000     -0.000002
6
Coordinates from ORCA-job B6_linear_chain_d2.20_q0_m5_R2SCAN-3C E -148.613003488958
  B      -3.866200      0.000000     -0.000002
  B      -2.327195      0.000000      0.000000
  B      -0.768942     -0.000000      0.000002
  B       0.768934     -0.000000      0.000002
  B       2.327197     -0.000000      0.000000
  B       3.866206      0.000000     -0.000002
6
Coordinates from ORCA-job B6_linear_chain_d2.20_q0_m5_R2SCAN-3C E -148.613014065831
  B      -3.862822      0.000000     -0.000002
  B      -2.321558      0.000000      0.000000
  B      -0.768739     -0.000000      0.000002
  B       0.768689     -0.000000      0.000002
  B       2.321573     -0.000000      0.000000
  B       3.862858      0.000000     -0.000002
6
Coordinates from ORCA-job B6_linear_chain_d2.20_q0_m5_R2SCAN-3C E -148.613019900646
  B      -3.862266      0.000000     -0.000002
  B      -2.323635      0.000000      0.000000
  B      -0.769814     -0.000000      0.000002
  B       0.769972     -0.000000      0.000002
  B       2.323602     -0.000000      0.000000
  B       3.862141      0.000000     -0.000002
6
Coordinates from ORCA-job B6_linear_chain_d2.20_q0_m5_R2SCAN-3C E -148.613020825453
  B      -3.862584      0.000000     -0.000002
  B      -2.323550      0.000000      0.000000
  B      -0.769666     -0.000000      0.000002
  B       0.769090     -0.000000      0.000002
  B       2.323628     -0.000000      0.000000
  B       3.863081      0.000000     -0.000002
6
Coordinates from ORCA-job B6_linear_chain_d2.20_q0_m5_R2SCAN-3C E -148.613018651950
  B      -3.864048      0.000000     -0.000002
  B      -2.323497      0.000000      0.000000
  B      -0.768144     -0.000000      0.000002
  B       0.770167     -0.000000      0.000002
  B       2.323397     -0.000000      0.000000
  B       3.862125      0.000000     -0.000002
6
Coordinates from ORCA-job B6_linear_chain_d2.20_q0_m5_R2SCAN-3C E -148.613020958517
  B      -3.862715      0.000000     -0.000002
  B      -2.323586      0.000000      0.000000
  B      -0.769392     -0.000000      0.000002
  B       0.769483     -0.000000      0.000002
  B       2.323395     -0.000000      0.000000
  B       3.862815      0.000000     -0.000002
6
Coordinates from ORCA-job B6_linear_chain_d2.20_q0_m5_R2SCAN-3C E -148.613019876478
  B      -3.862876      0.000000     -0.000002
  B      -2.323019      0.000000      0.000000
  B      -0.769804     -0.000000      0.000002
  B       0.769134     -0.000000      0.000002
  B       2.324022     -0.000000      0.000000
  B       3.862543      0.000000     -0.000002
6
Coordinates from ORCA-job B6_linear_chain_d2.20_q0_m5_R2SCAN-3C E -148.613021000105
  B      -3.862762      0.000000     -0.000002
  B      -2.323503      0.000000      0.000000
  B      -0.769422     -0.000000      0.000002
  B       0.769424     -0.000000      0.000002
  B       2.323501     -0.000000      0.000000
  B       3.862762      0.000000     -0.000002
6
Coordinates from ORCA-job B6_linear_chain_d2.20_q0_m5_R2SCAN-3C E -148.613021000604
  B      -3.862766      0.000000     -0.000002
  B      -2.323503      0.000000      0.000000
  B      -0.769427     -0.000000      0.000001
  B       0.769427     -0.000000      0.000002
  B       2.323503     -0.000000      0.000000
  B       3.862766      0.000000     -0.000002
