6
Coordinates from ORCA-job B6_linear_chain_d2.20_q0_m5_R2SCAN-3C E -148.613021000604
  B          -3.86276582272900      0.00000013253819     -0.00000161213475
  B          -2.32350267719537      0.00000003504128      0.00000005372209
  B          -0.76942707471330     -0.00000005748550      0.00000145733636
  B           0.76942722078246     -0.00000029795607      0.00000159122561
  B           2.32350264793619     -0.00000005109370      0.00000028486118
  B           3.86276570591900      0.00000023895580     -0.00000177501049
