6
Coordinates from ORCA-job B6_random_3d_seed1004_d3.50_q0_m1_R2SCAN-3C E -148.717732891470
  B           0.38577279338072     -0.02698195730004      0.87428957427593
  B           0.29388418756029      1.47917592421495      1.33649070833885
  B           0.43410852520502     -1.30358546583608     -0.06981068810567
  B          -0.50933481799139      0.01171472497042     -0.80886893971667
  B           0.04476396087888      1.36270442289099     -0.18338675949870
  B          -0.64919463903353     -1.52302764894024     -1.14871390529373
