6
Coordinates from ORCA-job B6_random_3d_seed1004_d3.50_q0_m1_R2SCAN-3C E -147.856489846139
  B      -1.079845     -0.933219      2.178859
  B       1.589944      1.448135      1.663257
  B       1.793444     -1.893962      0.681715
  B      -2.473885      0.147412     -0.799988
  B       0.037298      2.362934     -1.404946
  B       0.133045     -1.131301     -2.318899
6
Coordinates from ORCA-job B6_random_3d_seed1004_d3.50_q0_m1_R2SCAN-3C E -147.868147761983
  B      -1.061020     -0.928301      2.139957
  B       1.573528      1.442850      1.637341
  B       1.754172     -1.871001      0.674133
  B      -2.423537      0.134894     -0.794053
  B       0.038195      2.344594     -1.377649
  B       0.118662     -1.123036     -2.279729
6
Coordinates from ORCA-job B6_random_3d_seed1004_d3.50_q0_m1_R2SCAN-3C E -147.880467302108
  B      -1.042172     -0.923272      2.100866
  B       1.557304      1.438181      1.611810
  B       1.714588     -1.848273      0.666370
  B      -2.372796      0.121949     -0.788161
  B       0.039157      2.326445     -1.350146
  B       0.103919     -1.115030     -2.240740
6
Coordinates from ORCA-job B6_random_3d_seed1004_d3.50_q0_m1_R2SCAN-3C E -147.900284783736
  B      -1.013925     -0.915298      2.041787
  B       1.532939      1.431532      1.573851
  B       1.655279     -1.814653      0.654413
  B      -2.296583      0.102222     -0.779174
  B       0.040611      2.299121     -1.308850
  B       0.081679     -1.102924     -2.182026
6
Coordinates from ORCA-job B6_random_3d_seed1004_d3.50_q0_m1_R2SCAN-3C E -147.932690834735
  B      -0.971946     -0.902093      1.952597
  B       1.496175      1.421971      1.517658
  B       1.566677     -1.765404      0.635637
  B      -2.186155      0.074610     -0.762441
  B       0.042293      2.256853     -1.247259
  B       0.052958     -1.085937     -2.096192
6
Coordinates from ORCA-job B6_random_3d_seed1004_d3.50_q0_m1_R2SCAN-3C E -147.970484982754
  B      -0.929008     -0.887422      1.859358
  B       1.458024      1.414014      1.460885
  B       1.474183     -1.716307      0.614587
  B      -2.072468      0.046062     -0.742417
  B       0.043842      2.213570     -1.183861
  B       0.025426     -1.069916     -2.008552
6
Coordinates from ORCA-job B6_random_3d_seed1004_d3.50_q0_m1_R2SCAN-3C E -147.999544056658
  B      -0.899950     -0.877943      1.796013
  B       1.432802      1.411172      1.424413
  B       1.410610     -1.684922      0.599604
  B      -1.990517      0.022905     -0.730941
  B       0.045440      2.187211     -1.141912
  B       0.001616     -1.058423     -1.947178
6
Coordinates from ORCA-job B6_random_3d_seed1004_d3.50_q0_m1_R2SCAN-3C E -148.020421844215
  B      -0.880670     -0.871505      1.753526
  B       1.416086      1.410148      1.400840
  B       1.367785     -1.664681      0.589025
  B      -1.935251      0.006825     -0.722921
  B       0.046594      2.170103     -1.114353
  B      -0.014544     -1.050891     -1.906117
6
Coordinates from ORCA-job B6_random_3d_seed1004_d3.50_q0_m1_R2SCAN-3C E -148.054111614281
  B      -0.851917     -0.861379      1.688950
  B       1.390951      1.408766      1.365834
  B       1.303830     -1.634918      0.572596
  B      -1.852800     -0.017393     -0.710325
  B       0.048319      2.144101     -1.073423
  B      -0.038382     -1.039177     -1.843633
6
Coordinates from ORCA-job B6_random_3d_seed1004_d3.50_q0_m1_R2SCAN-3C E -148.108124063685
  B      -0.810053     -0.844284      1.591176
  B       1.353060      1.406466      1.313867
  B       1.209109     -1.591459      0.546042
  B      -1.738229     -0.049140     -0.685006
  B       0.050498      2.102379     -1.012853
  B      -0.064385     -1.023963     -1.753226
6
Coordinates from ORCA-job B6_random_3d_seed1004_d3.50_q0_m1_R2SCAN-3C E -148.168050038841
  B      -0.768611     -0.826066      1.491040
  B       1.314723      1.405424      1.262476
  B       1.113387     -1.549045      0.516629
  B      -1.624210     -0.081607     -0.657220
  B       0.053273      2.059883     -0.952648
  B      -0.088561     -1.008589     -1.660277
6
Coordinates from ORCA-job B6_random_3d_seed1004_d3.50_q0_m1_R2SCAN-3C E -148.211269783751
  B      -0.740912     -0.812895      1.422220
  B       1.288286      1.405477      1.227903
  B       1.047879     -1.520866      0.494349
  B      -1.546937     -0.104100     -0.637211
  B       0.055580      2.030446     -0.911897
  B      -0.103896     -0.998062     -1.595363
6
Coordinates from ORCA-job B6_random_3d_seed1004_d3.50_q0_m1_R2SCAN-3C E -148.275783172663
  B      -0.700432     -0.791211      1.321539
  B       1.246395      1.403803      1.174181
  B       0.951314     -1.478794      0.456952
  B      -1.436589     -0.133562     -0.605480
  B       0.059294      1.982528     -0.849987
  B      -0.119982     -0.982765     -1.497206
6
Coordinates from ORCA-job B6_random_3d_seed1004_d3.50_q0_m1_R2SCAN-3C E -148.335098621866
  B      -0.662271     -0.761386      1.224577
  B       1.199566      1.399415      1.117355
  B       0.858171     -1.439505      0.415769
  B      -1.335434     -0.148431     -0.563208
  B       0.059485      1.925963     -0.783511
  B      -0.119517     -0.976056     -1.410982
6
Coordinates from ORCA-job B6_random_3d_seed1004_d3.50_q0_m1_R2SCAN-3C E -148.392889154173
  B      -0.633669     -0.711906      1.138894
  B       1.145927      1.385296      1.057826
  B       0.778109     -1.402326      0.363816
  B      -1.243969     -0.143335     -0.510889
  B       0.052651      1.853437     -0.709815
  B      -0.099049     -0.981167     -1.339832
6
Coordinates from ORCA-job B6_random_3d_seed1004_d3.50_q0_m1_R2SCAN-3C E -148.436238824489
  B      -0.620912     -0.668903      1.074026
  B       1.125586      1.381413      1.025674
  B       0.720296     -1.366491      0.318388
  B      -1.184548     -0.144299     -0.478027
  B       0.041094      1.800444     -0.649477
  B      -0.081515     -1.002164     -1.290583
6
Coordinates from ORCA-job B6_random_3d_seed1004_d3.50_q0_m1_R2SCAN-3C E -148.473115396369
  B      -0.604844     -0.628351      1.010145
  B       1.117206      1.385092      0.997223
  B       0.661174     -1.329586      0.274637
  B      -1.133112     -0.136115     -0.459269
  B       0.021379      1.740603     -0.581989
  B      -0.061804     -1.031642     -1.240748
6
Coordinates from ORCA-job B6_random_3d_seed1004_d3.50_q0_m1_R2SCAN-3C E -148.510301377202
  B      -0.561163     -0.567974      0.960766
  B       1.098208      1.387152      0.957216
  B       0.593933     -1.289091      0.239415
  B      -1.067249     -0.105401     -0.478489
  B      -0.012178      1.640519     -0.479807
  B      -0.051551     -1.065206     -1.199100
6
Coordinates from ORCA-job B6_random_3d_seed1004_d3.50_q0_m1_R2SCAN-3C E -148.546748946485
  B      -0.535238     -0.466474      0.920480
  B       1.073496      1.376889      0.920020
  B       0.576804     -1.260600      0.224310
  B      -1.010272     -0.074642     -0.500413
  B      -0.046036      1.528171     -0.365848
  B      -0.058753     -1.103344     -1.198549
6
Coordinates from ORCA-job B6_random_3d_seed1004_d3.50_q0_m1_R2SCAN-3C E -148.575136894225
  B      -0.506429     -0.392823      0.914337
  B       1.058699      1.358480      0.909856
  B       0.576263     -1.244544      0.226643
  B      -0.978850     -0.032555     -0.526982
  B      -0.084397      1.440800     -0.307569
  B      -0.065286     -1.129357     -1.216285
6
Coordinates from ORCA-job B6_random_3d_seed1004_d3.50_q0_m1_R2SCAN-3C E -148.592652684469
  B      -0.482554     -0.342444      0.923963
  B       1.060438      1.347377      0.921673
  B       0.582770     -1.241162      0.232819
  B      -0.970792     -0.001999     -0.554684
  B      -0.119192      1.387389     -0.285879
  B      -0.070670     -1.149162     -1.237891
6
Coordinates from ORCA-job B6_random_3d_seed1004_d3.50_q0_m1_R2SCAN-3C E -148.612023803019
  B      -0.424999     -0.259196      0.914534
  B       1.048147      1.329254      0.936678
  B       0.567300     -1.223821      0.234495
  B      -0.954673      0.011929     -0.591793
  B      -0.153986      1.317431     -0.237734
  B      -0.081789     -1.175598     -1.256179
6
Coordinates from ORCA-job B6_random_3d_seed1004_d3.50_q0_m1_R2SCAN-3C E -148.631993732706
  B      -0.355661     -0.127926      0.914029
  B       1.027072      1.316281      0.960479
  B       0.553445     -1.218980      0.211344
  B      -0.961304     -0.005414     -0.656652
  B      -0.170290      1.257411     -0.154376
  B      -0.093262     -1.221371     -1.274825
6
Coordinates from ORCA-job B6_random_3d_seed1004_d3.50_q0_m1_R2SCAN-3C E -148.643934202952
  B      -0.244591     -0.061537      0.887206
  B       0.999507      1.308625      0.991160
  B       0.481710     -1.176018      0.202658
  B      -0.930742     -0.031852     -0.696547
  B      -0.194759      1.217188     -0.101671
  B      -0.111125     -1.256406     -1.282807
6
Coordinates from ORCA-job B6_random_3d_seed1004_d3.50_q0_m1_R2SCAN-3C E -148.662427703679
  B      -0.125883     -0.001445      0.918596
  B       0.947620      1.315198      1.038834
  B       0.422312     -1.196419      0.144702
  B      -0.873494     -0.048070     -0.739874
  B      -0.225216      1.237980     -0.090344
  B      -0.145339     -1.307244     -1.271913
6
Coordinates from ORCA-job B6_random_3d_seed1004_d3.50_q0_m1_R2SCAN-3C E -148.675965434601
  B      -0.051055      0.010386      0.961289
  B       0.897268      1.327134      1.064063
  B       0.401856     -1.211982      0.128800
  B      -0.838279     -0.051403     -0.761214
  B      -0.226946      1.282194     -0.094808
  B      -0.182843     -1.356328     -1.298130
6
Coordinates from ORCA-job B6_random_3d_seed1004_d3.50_q0_m1_R2SCAN-3C E -148.684072562710
  B      -0.011867      0.026062      0.981191
  B       0.863686      1.350868      1.090783
  B       0.381421     -1.205732      0.099318
  B      -0.804745     -0.053990     -0.756517
  B      -0.215969      1.278441     -0.097186
  B      -0.212526     -1.395650     -1.317589
6
Coordinates from ORCA-job B6_random_3d_seed1004_d3.50_q0_m1_R2SCAN-3C E -148.693592892320
  B       0.025065      0.010904      1.016441
  B       0.816086      1.393913      1.112885
  B       0.364947     -1.187449      0.069354
  B      -0.771407     -0.057423     -0.747877
  B      -0.181264      1.278481     -0.106113
  B      -0.253427     -1.438427     -1.344691
6
Coordinates from ORCA-job B6_random_3d_seed1004_d3.50_q0_m1_R2SCAN-3C E -148.700527496500
  B       0.105340      0.032993      1.041212
  B       0.729694      1.415277      1.165699
  B       0.345853     -1.140607      0.021304
  B      -0.730412     -0.079277     -0.762131
  B      -0.128645      1.238978     -0.122608
  B      -0.321830     -1.467365     -1.343474
6
Coordinates from ORCA-job B6_random_3d_seed1004_d3.50_q0_m1_R2SCAN-3C E -148.707232042149
  B       0.137735     -0.007611      1.075646
  B       0.673988      1.481089      1.199954
  B       0.366488     -1.156880     -0.006489
  B      -0.726599     -0.054347     -0.762973
  B      -0.081297      1.225487     -0.158096
  B      -0.370315     -1.487738     -1.348042
6
Coordinates from ORCA-job B6_random_3d_seed1004_d3.50_q0_m1_R2SCAN-3C E -148.711298624616
  B       0.180693     -0.015644      1.078809
  B       0.608793      1.489470      1.218127
  B       0.389866     -1.149186     -0.014576
  B      -0.743347     -0.041212     -0.793232
  B      -0.026599      1.213390     -0.160707
  B      -0.409406     -1.496819     -1.328420
6
Coordinates from ORCA-job B6_random_3d_seed1004_d3.50_q0_m1_R2SCAN-3C E -148.714144475840
  B       0.232223     -0.018087      1.070470
  B       0.541029      1.495287      1.270782
  B       0.399585     -1.120411     -0.043497
  B      -0.743235     -0.040065     -0.822037
  B       0.025301      1.190053     -0.187572
  B      -0.454903     -1.506778     -1.288145
6
Coordinates from ORCA-job B6_random_3d_seed1004_d3.50_q0_m1_R2SCAN-3C E -148.714979590897
  B       0.254789     -0.029670      1.075740
  B       0.488408      1.497269      1.269839
  B       0.417447     -1.110282     -0.060083
  B      -0.741685     -0.026756     -0.821888
  B       0.063912      1.169424     -0.196831
  B      -0.482871     -1.499984     -1.266777
6
Coordinates from ORCA-job B6_random_3d_seed1004_d3.50_q0_m1_R2SCAN-3C E -148.715022937713
  B       0.272463     -0.033151      1.067874
  B       0.460980      1.513226      1.284053
  B       0.422279     -1.106778     -0.070428
  B      -0.737471     -0.023114     -0.828879
  B       0.086486      1.163912     -0.190998
  B      -0.504739     -1.514096     -1.261622
6
Coordinates from ORCA-job B6_random_3d_seed1004_d3.50_q0_m1_R2SCAN-3C E -148.715140076993
  B       0.268404     -0.035262      1.072438
  B       0.462021      1.504478      1.276958
  B       0.425153     -1.108181     -0.068395
  B      -0.736565     -0.021430     -0.823534
  B       0.082821      1.166663     -0.198190
  B      -0.501834     -1.506269     -1.259276
6
Coordinates from ORCA-job B6_random_3d_seed1004_d3.50_q0_m1_R2SCAN-3C E -148.715161898710
  B       0.267842     -0.034815      1.070263
  B       0.461164      1.503735      1.277678
  B       0.425635     -1.110741     -0.069263
  B      -0.734177     -0.021615     -0.822248
  B       0.082444      1.170126     -0.198501
  B      -0.502909     -1.506691     -1.257929
6
Coordinates from ORCA-job B6_random_3d_seed1004_d3.50_q0_m1_R2SCAN-3C E -148.715486693524
  B       0.263959     -0.030899      1.026966
  B       0.438499      1.493369      1.291397
  B       0.438270     -1.157342     -0.078749
  B      -0.689368     -0.020006     -0.800465
  B       0.077256      1.228776     -0.204436
  B      -0.528616     -1.513898     -1.234712
6
Coordinates from ORCA-job B6_random_3d_seed1004_d3.50_q0_m1_R2SCAN-3C E -148.715756754477
  B       0.265276     -0.027042      0.964750
  B       0.401671      1.482086      1.307300
  B       0.452904     -1.221708     -0.089989
  B      -0.623295     -0.017508     -0.771064
  B       0.069998      1.304223     -0.208389
  B      -0.566555     -1.520052     -1.202608
6
Coordinates from ORCA-job B6_random_3d_seed1004_d3.50_q0_m1_R2SCAN-3C E -148.716157428523
  B       0.272086     -0.025836      0.956289
  B       0.391961      1.488044      1.309584
  B       0.455294     -1.227680     -0.089264
  B      -0.617046     -0.017587     -0.769777
  B       0.072999      1.302505     -0.203856
  B      -0.575295     -1.519447     -1.202977
6
Coordinates from ORCA-job B6_random_3d_seed1004_d3.50_q0_m1_R2SCAN-3C E -148.716813489326
  B       0.287210     -0.028050      0.911986
  B       0.369264      1.493979      1.316385
  B       0.453777     -1.252089     -0.081610
  B      -0.585694     -0.010604     -0.759033
  B       0.069786      1.323311     -0.191768
  B      -0.594343     -1.526546     -1.195959
6
Coordinates from ORCA-job B6_random_3d_seed1004_d3.50_q0_m1_R2SCAN-3C E -148.716887293184
  B       0.292750     -0.025968      0.908765
  B       0.368669      1.495695      1.320604
  B       0.453804     -1.257531     -0.076008
  B      -0.587760     -0.008585     -0.763766
  B       0.067003      1.319766     -0.192584
  B      -0.594466     -1.523377     -1.197012
6
Coordinates from ORCA-job B6_random_3d_seed1004_d3.50_q0_m1_R2SCAN-3C E -148.716945796705
  B       0.296895     -0.025786      0.900984
  B       0.365892      1.494423      1.323033
  B       0.451885     -1.265661     -0.073369
  B      -0.581941     -0.007661     -0.764336
  B       0.063121      1.326827     -0.192570
  B      -0.595852     -1.522141     -1.193742
6
Coordinates from ORCA-job B6_random_3d_seed1004_d3.50_q0_m1_R2SCAN-3C E -148.717013843547
  B       0.312342     -0.028181      0.900198
  B       0.369157      1.490763      1.325265
  B       0.437880     -1.263881     -0.062607
  B      -0.588198     -0.002522     -0.780447
  B       0.054281      1.324444     -0.191281
  B      -0.585462     -1.520624     -1.191128
6
Coordinates from ORCA-job B6_random_3d_seed1004_d3.50_q0_m1_R2SCAN-3C E -148.717192739569
  B       0.325197     -0.022144      0.878737
  B       0.346354      1.485715      1.332207
  B       0.440680     -1.286985     -0.066049
  B      -0.563299     -0.000130     -0.773946
  B       0.054923      1.346188     -0.191735
  B      -0.603854     -1.522643     -1.179215
6
Coordinates from ORCA-job B6_random_3d_seed1004_d3.50_q0_m1_R2SCAN-3C E -148.717337697358
  B       0.330961     -0.023421      0.883844
  B       0.340915      1.488778      1.328672
  B       0.440286     -1.288083     -0.068656
  B      -0.559463     -0.001609     -0.773766
  B       0.055699      1.345800     -0.189583
  B      -0.608399     -1.521466     -1.180511
6
Coordinates from ORCA-job B6_random_3d_seed1004_d3.50_q0_m1_R2SCAN-3C E -148.717529881615
  B       0.352770     -0.025014      0.890088
  B       0.323530      1.490087      1.327306
  B       0.435759     -1.288975     -0.071629
  B      -0.549148      0.000050     -0.779039
  B       0.057173      1.346241     -0.188334
  B      -0.620085     -1.522389     -1.178392
6
Coordinates from ORCA-job B6_random_3d_seed1004_d3.50_q0_m1_R2SCAN-3C E -148.717599587276
  B       0.366655     -0.025532      0.885365
  B       0.313955      1.488685      1.329264
  B       0.431789     -1.296491     -0.068601
  B      -0.539734      0.002901     -0.783079
  B       0.053349      1.352062     -0.188119
  B      -0.626015     -1.521625     -1.174830
6
Coordinates from ORCA-job B6_random_3d_seed1004_d3.50_q0_m1_R2SCAN-3C E -148.717643503172
  B       0.382799     -0.025780      0.879770
  B       0.300062      1.485030      1.332746
  B       0.428850     -1.301456     -0.066985
  B      -0.530544      0.006814     -0.789384
  B       0.052802      1.356043     -0.189009
  B      -0.633970     -1.520652     -1.167138
6
Coordinates from ORCA-job B6_random_3d_seed1004_d3.50_q0_m1_R2SCAN-3C E -148.717653609876
  B       0.387453     -0.025650      0.876109
  B       0.296279      1.483621      1.333713
  B       0.427586     -1.304706     -0.065738
  B      -0.526025      0.007866     -0.791578
  B       0.051166      1.359001     -0.188277
  B      -0.636458     -1.520131     -1.164228
6
Coordinates from ORCA-job B6_random_3d_seed1004_d3.50_q0_m1_R2SCAN-3C E -148.717666602967
  B       0.391741     -0.025469      0.873444
  B       0.292328      1.481887      1.334641
  B       0.426812     -1.305997     -0.065464
  B      -0.521745      0.009000     -0.795085
  B       0.050274      1.360497     -0.187236
  B      -0.639410     -1.519918     -1.160299
6
Coordinates from ORCA-job B6_random_3d_seed1004_d3.50_q0_m1_R2SCAN-3C E -148.717686550721
  B       0.394638     -0.025096      0.870145
  B       0.288944      1.479972      1.335886
  B       0.427098     -1.307657     -0.065590
  B      -0.515591      0.010102     -0.799662
  B       0.048521      1.362861     -0.185472
  B      -0.643610     -1.520183     -1.155308
6
Coordinates from ORCA-job B6_random_3d_seed1004_d3.50_q0_m1_R2SCAN-3C E -148.717712639909
  B       0.394651     -0.025483      0.869561
  B       0.287897      1.478287      1.336693
  B       0.428918     -1.307060     -0.066997
  B      -0.509438      0.011384     -0.806092
  B       0.046052      1.363922     -0.183480
  B      -0.648081     -1.521050     -1.149686
6
Coordinates from ORCA-job B6_random_3d_seed1004_d3.50_q0_m1_R2SCAN-3C E -148.717728400005
  B       0.391002     -0.026112      0.870707
  B       0.289516      1.477872      1.337159
  B       0.432162     -1.305905     -0.068814
  B      -0.506043      0.012033     -0.809744
  B       0.044429      1.364390     -0.182613
  B      -0.651067     -1.522277     -1.146694
6
Coordinates from ORCA-job B6_random_3d_seed1004_d3.50_q0_m1_R2SCAN-3C E -148.717732265840
  B       0.387102     -0.026846      0.873327
  B       0.292723      1.478644      1.336681
  B       0.433795     -1.304156     -0.069704
  B      -0.507629      0.012012     -0.809971
  B       0.044202      1.363234     -0.182872
  B      -0.650193     -1.522888     -1.147462
6
Coordinates from ORCA-job B6_random_3d_seed1004_d3.50_q0_m1_R2SCAN-3C E -148.717732768755
  B       0.384815     -0.027075      0.874539
  B       0.294509      1.479285      1.336418
  B       0.434440     -1.303319     -0.070120
  B      -0.509374      0.011604     -0.808811
  B       0.044702      1.362700     -0.183334
  B      -0.649092     -1.523195     -1.148692
6
Coordinates from ORCA-job B6_random_3d_seed1004_d3.50_q0_m1_R2SCAN-3C E -148.717732887693
  B       0.385515     -0.026978      0.874301
  B       0.294002      1.479196      1.336481
  B       0.434225     -1.303532     -0.069892
  B      -0.509363      0.011685     -0.808799
  B       0.044805      1.362694     -0.183380
  B      -0.649185     -1.523066     -1.148710
6
Coordinates from ORCA-job B6_random_3d_seed1004_d3.50_q0_m1_R2SCAN-3C E -148.717732891470
  B       0.385773     -0.026982      0.874290
  B       0.293884      1.479176      1.336491
  B       0.434109     -1.303585     -0.069811
  B      -0.509335      0.011715     -0.808869
  B       0.044764      1.362704     -0.183387
  B      -0.649195     -1.523028     -1.148714
