6
Coordinates from ORCA-job B6_compact_planar_triangle_d2.50_q0_m3_R2SCAN-3C E -148.699661927371
  B          -1.56201053840923     -0.86159672812284     -0.08162325718935
  B          -0.04982052770395     -1.14505138462244     -0.29682463280830
  B           1.36712758736719     -0.79368072926648      0.31170591173824
  B          -0.69262861696917      0.39587541528507      0.39711863560710
  B           0.97050543623398      0.61984552780080     -0.27640607403683
  B          -0.03317334051882      1.78460791892590     -0.05397058331086
