6
Coordinates from ORCA-job B6_compact_planar_triangle_d2.50_q0_m3_R2SCAN-3C E -148.176936635676
  B      -2.500000     -1.443376      0.000000
  B       0.000000     -1.443376      0.000000
  B       2.500000     -1.443376      0.000000
  B      -1.250000      0.721688      0.000000
  B       1.250000      0.721688      0.000000
  B       0.000000      2.886751      0.000000
6
Coordinates from ORCA-job B6_compact_planar_triangle_d2.50_q0_m3_R2SCAN-3C E -148.200294353608
  B      -2.450262     -1.414660     -0.000000
  B      -0.000000     -1.409492     -0.000000
  B       2.450262     -1.414660     -0.000000
  B      -1.220657      0.704749      0.000000
  B       1.220657      0.704749      0.000000
  B      -0.000000      2.829313     -0.000000
6
Coordinates from ORCA-job B6_compact_planar_triangle_d2.50_q0_m3_R2SCAN-3C E -148.224350382041
  B      -2.401320     -1.386401      0.000000
  B      -0.000000     -1.374857      0.000000
  B       2.401320     -1.386401      0.000000
  B      -1.190669      0.687433     -0.000000
  B       1.190669      0.687433     -0.000000
  B       0.000000      2.772795      0.000000
6
Coordinates from ORCA-job B6_compact_planar_triangle_d2.50_q0_m3_R2SCAN-3C E -148.261582942287
  B      -2.328852     -1.344548      0.000000
  B      -0.000000     -1.322038      0.000000
  B       2.328852     -1.344548      0.000000
  B      -1.144947      0.661020     -0.000000
  B       1.144947      0.661020     -0.000000
  B       0.000000      2.689093      0.000000
6
Coordinates from ORCA-job B6_compact_planar_triangle_d2.50_q0_m3_R2SCAN-3C E -148.319128065132
  B      -2.221859     -1.282703      0.000000
  B      -0.000000     -1.241300     -0.000000
  B       2.221859     -1.282703      0.000000
  B      -1.075066      0.620647     -0.000000
  B       1.075066      0.620647     -0.000000
  B       0.000000      2.565412      0.000000
6
Coordinates from ORCA-job B6_compact_planar_triangle_d2.50_q0_m3_R2SCAN-3C E -148.378904845583
  B      -2.114604     -1.220776      0.000000
  B      -0.000000     -1.154404      0.000000
  B       2.114604     -1.220776      0.000000
  B      -0.999862      0.577218     -0.000000
  B       0.999862      0.577218     -0.000000
  B       0.000000      2.441520      0.000000
6
Coordinates from ORCA-job B6_compact_planar_triangle_d2.50_q0_m3_R2SCAN-3C E -148.432803257940
  B      -2.012026     -1.161544     -0.000000
  B      -0.000000     -1.063882      0.000000
  B       2.012026     -1.161544     -0.000000
  B      -0.921501      0.532004     -0.000000
  B       0.921501      0.532004     -0.000000
  B       0.000000      2.322963      0.000000
6
Coordinates from ORCA-job B6_compact_planar_triangle_d2.50_q0_m3_R2SCAN-3C E -148.468629442194
  B      -1.898826     -1.096344      0.000000
  B      -0.000000     -0.981514     -0.000000
  B       1.898827     -1.096344      0.000000
  B      -0.850222      0.490938     -0.000000
  B       0.850222      0.490938     -0.000000
  B      -0.000000      2.192326      0.000000
6
Coordinates from ORCA-job B6_compact_planar_triangle_d2.50_q0_m3_R2SCAN-3C E -148.627928475342
  B      -1.786051     -1.031440     -0.000000
  B      -0.000000     -0.955919      0.000002
  B       1.786051     -1.031440     -0.000000
  B      -0.828032      0.478447     -0.000002
  B       0.828032      0.478447     -0.000002
  B      -0.000000      2.061905      0.000002
6
Coordinates from ORCA-job B6_compact_planar_triangle_d2.50_q0_m3_R2SCAN-3C E -148.660920547077
  B      -1.650096     -0.946178     -0.000004
  B       0.004892     -0.967687      0.000001
  B       1.649987     -0.952801      0.000003
  B      -0.839635      0.484914      0.000007
  B       0.840632      0.479875     -0.000006
  B      -0.005779      1.901877     -0.000001
6
Coordinates from ORCA-job B6_compact_planar_triangle_d2.50_q0_m3_R2SCAN-3C E -148.660998847868
  B      -1.641479     -0.935893     -0.000013
  B       0.000328     -0.977645     -0.000009
  B       1.664910     -0.961062      0.000014
  B      -0.860657      0.495931      0.000035
  B       0.847012      0.487615     -0.000019
  B      -0.010113      1.891053     -0.000008
6
Coordinates from ORCA-job B6_compact_planar_triangle_d2.50_q0_m3_R2SCAN-3C E -148.660496972251
  B      -1.648799     -0.950626     -0.000027
  B       0.018807     -0.982629     -0.000023
  B       1.643315     -0.947969      0.000032
  B      -0.872601      0.505898      0.000078
  B       0.859807      0.476580     -0.000040
  B      -0.000529      1.898746     -0.000019
6
Coordinates from ORCA-job B6_compact_planar_triangle_d2.50_q0_m3_R2SCAN-3C E -148.661194176798
  B      -1.640126     -0.948949     -0.000033
  B       0.004646     -0.971178     -0.000030
  B       1.651095     -0.953804      0.000041
  B      -0.860251      0.496129      0.000095
  B       0.843338      0.480972     -0.000049
  B       0.001298      1.896829     -0.000024
6
Coordinates from ORCA-job B6_compact_planar_triangle_d2.50_q0_m3_R2SCAN-3C E -148.661100960314
  B      -1.649383     -0.937828     -0.000075
  B       0.009860     -0.971490     -0.000078
  B       1.661420     -0.957130      0.000095
  B      -0.856674      0.498488      0.000223
  B       0.845502      0.480564     -0.000102
  B      -0.010725      1.887396     -0.000062
6
Coordinates from ORCA-job B6_compact_planar_triangle_d2.50_q0_m3_R2SCAN-3C E -148.661172069647
  B      -1.641969     -0.939458     -0.000107
  B       0.006736     -0.973813     -0.000119
  B       1.656716     -0.956789      0.000137
  B      -0.861080      0.493979      0.000329
  B       0.847137      0.478434     -0.000145
  B      -0.007540      1.897646     -0.000096
6
Coordinates from ORCA-job B6_compact_planar_triangle_d2.50_q0_m3_R2SCAN-3C E -148.660944128836
  B      -1.639682     -0.964134     -0.000223
  B       0.001538     -0.972857     -0.000263
  B       1.643016     -0.949615      0.000277
  B      -0.861349      0.500868      0.000698
  B       0.842388      0.488098     -0.000271
  B       0.014089      1.897639     -0.000218
6
Coordinates from ORCA-job B6_compact_planar_triangle_d2.50_q0_m3_R2SCAN-3C E -148.661212638854
  B      -1.642852     -0.945185     -0.000313
  B       0.006217     -0.972493     -0.000408
  B       1.654093     -0.954974      0.000420
  B      -0.859625      0.496691      0.001015
  B       0.845339      0.480793     -0.000392
  B      -0.003171      1.895167     -0.000322
6
Coordinates from ORCA-job B6_compact_planar_triangle_d2.50_q0_m3_R2SCAN-3C E -148.661215172844
  B      -1.643025     -0.944755     -0.000811
  B       0.006237     -0.972833     -0.001137
  B       1.654403     -0.954805      0.001089
  B      -0.860095      0.496345      0.002712
  B       0.845448      0.481012     -0.000939
  B      -0.002967      1.895037     -0.000914
6
Coordinates from ORCA-job B6_compact_planar_triangle_d2.50_q0_m3_R2SCAN-3C E -148.661236113958
  B      -1.642286     -0.944918     -0.002417
  B       0.006334     -0.972671     -0.003354
  B       1.653893     -0.955571      0.003045
  B      -0.859728      0.496738      0.008054
  B       0.845398      0.480973     -0.002443
  B      -0.003612      1.895450     -0.002885
6
Coordinates from ORCA-job B6_compact_planar_triangle_d2.50_q0_m3_R2SCAN-3C E -148.661416039062
  B      -1.643702     -0.944036     -0.006970
  B       0.005936     -0.972793     -0.010022
  B       1.654972     -0.953572      0.008791
  B      -0.860146      0.495843      0.023579
  B       0.845638      0.480623     -0.006716
  B      -0.002698      1.893934     -0.008662
6
Coordinates from ORCA-job B6_compact_planar_triangle_d2.50_q0_m3_R2SCAN-3C E -148.661789961332
  B      -1.639557     -0.942776     -0.011543
  B       0.006835     -0.972894     -0.017089
  B       1.652581     -0.956577      0.014795
  B      -0.860148      0.497450      0.039562
  B       0.845815      0.481386     -0.011108
  B      -0.005526      1.893411     -0.014617
6
Coordinates from ORCA-job B6_compact_planar_triangle_d2.50_q0_m3_R2SCAN-3C E -148.662321156581
  B      -1.639453     -0.939558     -0.015957
  B       0.006070     -0.973507     -0.024272
  B       1.653357     -0.952673      0.020891
  B      -0.862291      0.497062      0.055328
  B       0.846867      0.480982     -0.015625
  B      -0.004549      1.887694     -0.020365
6
Coordinates from ORCA-job B6_compact_planar_triangle_d2.50_q0_m3_R2SCAN-3C E -148.662953473023
  B      -1.634867     -0.936815     -0.020186
  B       0.006658     -0.973857     -0.031653
  B       1.650864     -0.954035      0.027166
  B      -0.863226      0.498577      0.070965
  B       0.847725      0.481652     -0.020296
  B      -0.007154      1.884479     -0.025997
6
Coordinates from ORCA-job B6_compact_planar_triangle_d2.50_q0_m3_R2SCAN-3C E -148.663644747437
  B      -1.632661     -0.933508     -0.024258
  B       0.006593     -0.974325     -0.039262
  B       1.649658     -0.952190      0.033652
  B      -0.864541      0.498763      0.086490
  B       0.848816      0.481846     -0.025161
  B      -0.007865      1.879415     -0.031461
6
Coordinates from ORCA-job B6_compact_planar_triangle_d2.50_q0_m3_R2SCAN-3C E -148.664718528226
  B      -1.629060     -0.929238     -0.030113
  B       0.006956     -0.974546     -0.051081
  B       1.647138     -0.951550      0.043809
  B      -0.864806      0.498866      0.109641
  B       0.850165      0.482331     -0.032758
  B      -0.010394      1.874136     -0.039498
6
Coordinates from ORCA-job B6_compact_planar_triangle_d2.50_q0_m3_R2SCAN-3C E -148.666305156305
  B      -1.625673     -0.922869     -0.038193
  B       0.007206     -0.974065     -0.069713
  B       1.643402     -0.949498      0.059891
  B      -0.862721      0.496835      0.143749
  B       0.851706      0.482917     -0.044648
  B      -0.013920      1.866681     -0.051086
6
Coordinates from ORCA-job B6_compact_planar_triangle_d2.50_q0_m3_R2SCAN-3C E -148.668465672630
  B      -1.617005     -0.912825     -0.047298
  B       0.006853     -0.972403     -0.100868
  B       1.630173     -0.944542      0.086046
  B      -0.856026      0.490968      0.192325
  B       0.855022      0.486700     -0.063312
  B      -0.019019      1.852102     -0.066893
6
Coordinates from ORCA-job B6_compact_planar_triangle_d2.50_q0_m3_R2SCAN-3C E -148.674145181259
  B      -1.613265     -0.897705     -0.052550
  B       0.008715     -0.967413     -0.158304
  B       1.612341     -0.939999      0.129627
  B      -0.842217      0.475914      0.259622
  B       0.864444      0.494199     -0.087975
  B      -0.030018      1.835004     -0.090420
6
Coordinates from ORCA-job B6_compact_planar_triangle_d2.50_q0_m3_R2SCAN-3C E -148.691292107387
  B      -1.561673     -0.877062     -0.058424
  B      -0.025058     -1.014890     -0.198102
  B       1.550203     -0.879268      0.148104
  B      -0.871539      0.486418      0.314578
  B       0.924739      0.525964     -0.102522
  B      -0.016671      1.758837     -0.103634
6
Coordinates from ORCA-job B6_compact_planar_triangle_d2.50_q0_m3_R2SCAN-3C E -148.695740327597
  B      -1.541478     -0.873929     -0.055236
  B      -0.011565     -1.057144     -0.241090
  B       1.498927     -0.914286      0.177950
  B      -0.865774      0.491029      0.358148
  B       0.965644      0.579227     -0.119269
  B      -0.045754      1.775104     -0.120502
6
Coordinates from ORCA-job B6_compact_planar_triangle_d2.50_q0_m3_R2SCAN-3C E -148.696857000270
  B      -1.583206     -0.866739     -0.050354
  B      -0.026306     -1.085200     -0.299542
  B       1.490926     -0.856432      0.227005
  B      -0.843322      0.462902      0.394892
  B       0.995238      0.587997     -0.147837
  B      -0.033330      1.757473     -0.124165
6
Coordinates from ORCA-job B6_compact_planar_triangle_d2.50_q0_m3_R2SCAN-3C E -148.697865229777
  B      -1.549111     -0.871670     -0.048809
  B      -0.035014     -1.081142     -0.312207
  B       1.453060     -0.858974      0.246104
  B      -0.815456      0.466085      0.397883
  B       0.995483      0.584770     -0.166311
  B      -0.048962      1.760931     -0.116660
6
Coordinates from ORCA-job B6_compact_planar_triangle_d2.50_q0_m3_R2SCAN-3C E -148.698029206782
  B      -1.534917     -0.862998     -0.044824
  B      -0.025479     -1.079745     -0.319191
  B       1.415189     -0.855128      0.264766
  B      -0.794656      0.441225      0.398121
  B       0.978370      0.600189     -0.190114
  B      -0.038507      1.756458     -0.108758
6
Coordinates from ORCA-job B6_compact_planar_triangle_d2.50_q0_m3_R2SCAN-3C E -148.698851376850
  B      -1.547500     -0.871777     -0.050991
  B      -0.034460     -1.094089     -0.316285
  B       1.414675     -0.843899      0.273525
  B      -0.777061      0.437792      0.395530
  B       0.981726      0.601058     -0.204294
  B      -0.037379      1.770916     -0.097485
6
Coordinates from ORCA-job B6_compact_planar_triangle_d2.50_q0_m3_R2SCAN-3C E -148.699452014295
  B      -1.556962     -0.872124     -0.063343
  B      -0.044129     -1.118670     -0.313399
  B       1.389618     -0.816527      0.299773
  B      -0.730255      0.416494      0.394680
  B       0.975808      0.607730     -0.244835
  B      -0.034080      1.783098     -0.072875
6
Coordinates from ORCA-job B6_compact_planar_triangle_d2.50_q0_m3_R2SCAN-3C E -148.699639753317
  B      -1.562021     -0.868170     -0.078134
  B      -0.050264     -1.142894     -0.301164
  B       1.364967     -0.792141      0.315941
  B      -0.691286      0.397185      0.393046
  B       0.967578      0.616992     -0.279176
  B      -0.028974      1.789027     -0.050514
6
Coordinates from ORCA-job B6_compact_planar_triangle_d2.50_q0_m3_R2SCAN-3C E -148.699659278150
  B      -1.562192     -0.863906     -0.079569
  B      -0.049485     -1.143474     -0.299384
  B       1.366317     -0.793199      0.313274
  B      -0.692836      0.396476      0.395709
  B       0.969965      0.618573     -0.276780
  B      -0.031769      1.785531     -0.053251
6
Coordinates from ORCA-job B6_compact_planar_triangle_d2.50_q0_m3_R2SCAN-3C E -148.699661820376
  B      -1.561835     -0.861960     -0.081265
  B      -0.049881     -1.145050     -0.297062
  B       1.366810     -0.793602      0.311922
  B      -0.692868      0.395897      0.396728
  B       0.970560      0.619992     -0.276647
  B      -0.032786      1.784724     -0.053675
6
Coordinates from ORCA-job B6_compact_planar_triangle_d2.50_q0_m3_R2SCAN-3C E -148.699661916321
  B      -1.561996     -0.861614     -0.081526
  B      -0.049800     -1.145022     -0.296934
  B       1.366983     -0.793626      0.311820
  B      -0.692561      0.395801      0.397047
  B       0.970519      0.619858     -0.276497
  B      -0.033146      1.784603     -0.053909
6
Coordinates from ORCA-job B6_compact_planar_triangle_d2.50_q0_m3_R2SCAN-3C E -148.699661927371
  B      -1.562011     -0.861597     -0.081623
  B      -0.049821     -1.145051     -0.296825
  B       1.367128     -0.793681      0.311706
  B      -0.692629      0.395875      0.397119
  B       0.970505      0.619846     -0.276406
  B      -0.033173      1.784608     -0.053971
