6
Coordinates from ORCA-job B6_rhombic_planar_d1.80_q0_m5_R2SCAN-3C E -148.696365811499
  B          -2.10256026836329     -0.64238260182729     -0.00000001796996
  B          -0.35048912725088     -0.76515455446399      0.00000001209034
  B           1.25699170139221     -0.63978224760669      0.00000000821296
  B          -1.25699170143299      0.63978224583467     -0.00000000740929
  B           0.35048912724834      0.76515455551584      0.00000003645406
  B           2.10256026840662      0.64238260254746     -0.00000003137811
