6
Coordinates from ORCA-job B6_rhombic_planar_d1.80_q0_m5_R2SCAN-3C E -148.628072534283
  B      -2.250000     -0.779423      0.000000
  B      -0.450000     -0.779423      0.000000
  B       1.350000     -0.779423      0.000000
  B      -1.350000      0.779423      0.000000
  B       0.450000      0.779423      0.000000
  B       2.250000      0.779423      0.000000
6
Coordinates from ORCA-job B6_rhombic_planar_d1.80_q0_m5_R2SCAN-3C E -148.659451083460
  B      -2.183765     -0.740530      0.000000
  B      -0.425150     -0.769057     -0.000000
  B       1.330886     -0.752698     -0.000000
  B      -1.330886      0.752698     -0.000000
  B       0.425150      0.769057     -0.000000
  B       2.183765      0.740530      0.000000
6
Coordinates from ORCA-job B6_rhombic_planar_d1.80_q0_m5_R2SCAN-3C E -148.682393038989
  B      -2.124193     -0.699927     -0.000000
  B      -0.399853     -0.760895      0.000000
  B       1.312825     -0.721018      0.000000
  B      -1.312825      0.721018      0.000000
  B       0.399853      0.760895      0.000000
  B       2.124193      0.699927     -0.000000
6
Coordinates from ORCA-job B6_rhombic_planar_d1.80_q0_m5_R2SCAN-3C E -148.694015840896
  B      -2.049682     -0.641675      0.000000
  B      -0.361370     -0.750101     -0.000000
  B       1.277531     -0.666123      0.000000
  B      -1.277531      0.666123      0.000000
  B       0.361370      0.750101     -0.000000
  B       2.049682      0.641675      0.000000
6
Coordinates from ORCA-job B6_rhombic_planar_d1.80_q0_m5_R2SCAN-3C E -148.695312212941
  B      -2.068124     -0.652364      0.000000
  B      -0.363900     -0.751841     -0.000000
  B       1.268636     -0.668378     -0.000000
  B      -1.268636      0.668378     -0.000000
  B       0.363900      0.751841     -0.000000
  B       2.068124      0.652364      0.000000
6
Coordinates from ORCA-job B6_rhombic_planar_d1.80_q0_m5_R2SCAN-3C E -148.695906535652
  B      -2.080463     -0.650913     -0.000000
  B      -0.360186     -0.754280      0.000000
  B       1.260160     -0.658103     -0.000000
  B      -1.260160      0.658103     -0.000000
  B       0.360186      0.754280      0.000000
  B       2.080463      0.650913     -0.000000
6
Coordinates from ORCA-job B6_rhombic_planar_d1.80_q0_m5_R2SCAN-3C E -148.696310297786
  B      -2.098476     -0.645385      0.000000
  B      -0.354018     -0.759994     -0.000000
  B       1.254778     -0.642187     -0.000000
  B      -1.254778      0.642187     -0.000000
  B       0.354018      0.759994     -0.000000
  B       2.098476      0.645385      0.000000
6
Coordinates from ORCA-job B6_rhombic_planar_d1.80_q0_m5_R2SCAN-3C E -148.696354992955
  B      -2.102904     -0.643241     -0.000000
  B      -0.352041     -0.762673      0.000000
  B       1.256301     -0.639055      0.000000
  B      -1.256301      0.639055      0.000000
  B       0.352041      0.762673      0.000000
  B       2.102904      0.643241     -0.000000
6
Coordinates from ORCA-job B6_rhombic_planar_d1.80_q0_m5_R2SCAN-3C E -148.696363678491
  B      -2.103571     -0.642417      0.000000
  B      -0.350916     -0.764162     -0.000000
  B       1.257226     -0.638906     -0.000000
  B      -1.257226      0.638906      0.000000
  B       0.350916      0.764162     -0.000000
  B       2.103571      0.642417      0.000000
6
Coordinates from ORCA-job B6_rhombic_planar_d1.80_q0_m5_R2SCAN-3C E -148.696365402188
  B      -2.103113     -0.642294     -0.000000
  B      -0.350484     -0.764802      0.000000
  B       1.257293     -0.639410      0.000000
  B      -1.257293      0.639410     -0.000000
  B       0.350484      0.764802      0.000000
  B       2.103113      0.642294     -0.000000
6
Coordinates from ORCA-job B6_rhombic_planar_d1.80_q0_m5_R2SCAN-3C E -148.696365754918
  B      -2.102687     -0.642355      0.000000
  B      -0.350436     -0.765052     -0.000000
  B       1.257113     -0.639737     -0.000000
  B      -1.257113      0.639737      0.000000
  B       0.350436      0.765052     -0.000000
  B       2.102687      0.642355      0.000000
6
Coordinates from ORCA-job B6_rhombic_planar_d1.80_q0_m5_R2SCAN-3C E -148.696365811499
  B      -2.102560     -0.642383     -0.000000
  B      -0.350489     -0.765155      0.000000
  B       1.256992     -0.639782      0.000000
  B      -1.256992      0.639782     -0.000000
  B       0.350489      0.765155      0.000000
  B       2.102560      0.642383     -0.000000
