6
Coordinates from ORCA-job B6_random_3d_seed1001_d1.60_q0_m5_R2SCAN-3C E -148.645477913842
  B           0.03973821032895     -1.12725858055294     -0.33187703799485
  B          -0.04080572081458      1.12746559891602      0.33278747642121
  B           0.28837283142288      0.54270719886480     -1.17423429675289
  B          -0.28692785807307     -0.54288209930582      1.17526578488807
  B           1.08912645544055     -0.01497532553797      0.43461010331632
  B          -1.08950390830473      0.01494321761592     -0.43655203987786
