6
Coordinates from ORCA-job B6_random_3d_seed1001_d1.60_q0_m5_R2SCAN-3C E -148.600011080502
  B       0.106540     -1.141240     -0.325201
  B      -0.048844      1.046092      0.354406
  B       0.285121      0.401549     -1.012848
  B      -0.327721     -0.508552      1.050305
  B       1.087642      0.076935      0.339142
  B      -1.102738      0.125216     -0.405805
6
Coordinates from ORCA-job B6_random_3d_seed1001_d1.60_q0_m5_R2SCAN-3C E -148.620063272970
  B       0.097381     -1.151887     -0.326084
  B      -0.053626      1.074860      0.358668
  B       0.285193      0.422499     -1.047565
  B      -0.319075     -0.518991      1.072468
  B       1.103175      0.059841      0.360750
  B      -1.113049      0.113677     -0.418236
6
Coordinates from ORCA-job B6_random_3d_seed1001_d1.60_q0_m5_R2SCAN-3C E -148.633037697576
  B       0.084926     -1.157644     -0.325513
  B      -0.056797      1.103341      0.363583
  B       0.285767      0.446034     -1.088136
  B      -0.309266     -0.530597      1.096317
  B       1.115174      0.041405      0.384163
  B      -1.119804      0.097460     -0.430414
6
Coordinates from ORCA-job B6_random_3d_seed1001_d1.60_q0_m5_R2SCAN-3C E -148.638138304770
  B       0.074165     -1.156235     -0.324222
  B      -0.057176      1.118554      0.365182
  B       0.286400      0.462971     -1.115435
  B      -0.302142     -0.538432      1.112581
  B       1.117966      0.029499      0.399035
  B      -1.119214      0.083643     -0.437141
6
Coordinates from ORCA-job B6_random_3d_seed1001_d1.60_q0_m5_R2SCAN-3C E -148.642703194778
  B       0.054656     -1.147151     -0.322623
  B      -0.055741      1.134652      0.363264
  B       0.288020      0.489886     -1.153020
  B      -0.290549     -0.549194      1.137929
  B       1.114875      0.012634      0.419363
  B      -1.111261      0.059174     -0.444913
6
Coordinates from ORCA-job B6_random_3d_seed1001_d1.60_q0_m5_R2SCAN-3C E -148.644558878315
  B       0.034509     -1.132694     -0.322628
  B      -0.052871      1.142695      0.356193
  B       0.290145      0.516004     -1.182558
  B      -0.279294     -0.557340      1.162526
  B       1.105741     -0.002335      0.435932
  B      -1.098230      0.033671     -0.449466
6
Coordinates from ORCA-job B6_random_3d_seed1001_d1.60_q0_m5_R2SCAN-3C E -148.644943280012
  B       0.030891     -1.126934     -0.323918
  B      -0.051061      1.139798      0.350323
  B       0.290600      0.522414     -1.184303
  B      -0.277033     -0.557663      1.168695
  B       1.100195     -0.005431      0.437914
  B      -1.093591      0.027814     -0.448712
6
Coordinates from ORCA-job B6_random_3d_seed1001_d1.60_q0_m5_R2SCAN-3C E -148.645363247639
  B       0.030611     -1.119257     -0.327336
  B      -0.047473      1.129982      0.338230
  B       0.291158      0.529026     -1.177855
  B      -0.276187     -0.555431      1.175308
  B       1.090432     -0.007689      0.436665
  B      -1.088541      0.023369     -0.445012
6
Coordinates from ORCA-job B6_random_3d_seed1001_d1.60_q0_m5_R2SCAN-3C E -148.645414407834
  B       0.033001     -1.119495     -0.328735
  B      -0.046602      1.127298      0.335591
  B       0.291616      0.529311     -1.174352
  B      -0.277420     -0.554003      1.175703
  B       1.089144     -0.007356      0.435130
  B      -1.089740      0.024245     -0.443336
6
Coordinates from ORCA-job B6_random_3d_seed1001_d1.60_q0_m5_R2SCAN-3C E -148.645440799571
  B       0.034846     -1.120433     -0.330200
  B      -0.045889      1.126312      0.333922
  B       0.292475      0.530442     -1.172999
  B      -0.278550     -0.552800      1.176685
  B       1.088723     -0.007669      0.434514
  B      -1.091604      0.024148     -0.441922
6
Coordinates from ORCA-job B6_random_3d_seed1001_d1.60_q0_m5_R2SCAN-3C E -148.645457246352
  B       0.035949     -1.121395     -0.331785
  B      -0.045182      1.126344      0.332556
  B       0.293550      0.532578     -1.173070
  B      -0.279346     -0.551564      1.178187
  B       1.088442     -0.008761      0.434716
  B      -1.093412      0.022798     -0.440605
6
Coordinates from ORCA-job B6_random_3d_seed1001_d1.60_q0_m5_R2SCAN-3C E -148.645463020797
  B       0.036060     -1.121852     -0.332643
  B      -0.044835      1.126902      0.332040
  B       0.294093      0.534161     -1.173595
  B      -0.279513     -0.550662      1.178875
  B       1.088290     -0.009845      0.435247
  B      -1.094096      0.021296     -0.439924
6
Coordinates from ORCA-job B6_random_3d_seed1001_d1.60_q0_m5_R2SCAN-3C E -148.645465950726
  B       0.035965     -1.122110     -0.333115
  B      -0.044655      1.127437      0.331884
  B       0.294241      0.535183     -1.173787
  B      -0.279526     -0.549754      1.178815
  B       1.088177     -0.010777      0.435665
  B      -1.094200      0.020021     -0.439462
6
Coordinates from ORCA-job B6_random_3d_seed1001_d1.60_q0_m5_R2SCAN-3C E -148.645468309219
  B       0.035999     -1.122402     -0.333452
  B      -0.044489      1.127854      0.331831
  B       0.294110      0.535970     -1.173524
  B      -0.279670     -0.548592      1.178215
  B       1.088081     -0.011686      0.435881
  B      -1.094032      0.018856     -0.438951
6
Coordinates from ORCA-job B6_random_3d_seed1001_d1.60_q0_m5_R2SCAN-3C E -148.645470023635
  B       0.036283     -1.122786     -0.333629
  B      -0.044284      1.128081      0.331837
  B       0.293718      0.536582     -1.172958
  B      -0.280098     -0.547357      1.177347
  B       1.088055     -0.012472      0.435824
  B      -1.093674      0.017952     -0.438421
6
Coordinates from ORCA-job B6_random_3d_seed1001_d1.60_q0_m5_R2SCAN-3C E -148.645471183549
  B       0.036710     -1.123173     -0.333598
  B      -0.044041      1.128090      0.331877
  B       0.293192      0.537050     -1.172500
  B      -0.280741     -0.546469      1.176686
  B       1.088112     -0.012963      0.435575
  B      -1.093232      0.017466     -0.438039
6
Coordinates from ORCA-job B6_random_3d_seed1001_d1.60_q0_m5_R2SCAN-3C E -148.645472649472
  B       0.037389     -1.123785     -0.333364
  B      -0.043621      1.128008      0.332000
  B       0.292331      0.537761     -1.172190
  B      -0.281863     -0.545548      1.176050
  B       1.088292     -0.013462      0.435146
  B      -1.092528      0.017025     -0.437642
6
Coordinates from ORCA-job B6_random_3d_seed1001_d1.60_q0_m5_R2SCAN-3C E -148.645474604064
  B       0.038447     -1.124848     -0.332882
  B      -0.042824      1.127870      0.332225
  B       0.290906      0.539175     -1.172212
  B      -0.283788     -0.544346      1.175436
  B       1.088619     -0.014184      0.434548
  B      -1.091359      0.016333     -0.437115
6
Coordinates from ORCA-job B6_random_3d_seed1001_d1.60_q0_m5_R2SCAN-3C E -148.645476278476
  B       0.039313     -1.125905     -0.332367
  B      -0.041970      1.127746      0.332468
  B       0.289595      0.540728     -1.172766
  B      -0.285574     -0.543508      1.175240
  B       1.088931     -0.014749      0.434177
  B      -1.090295      0.015689     -0.436752
6
Coordinates from ORCA-job B6_random_3d_seed1001_d1.60_q0_m5_R2SCAN-3C E -148.645477339000
  B       0.039925     -1.126920     -0.331950
  B      -0.041117      1.127651      0.332683
  B       0.288523      0.542308     -1.173616
  B      -0.287007     -0.542855      1.175240
  B       1.089150     -0.015198      0.434116
  B      -1.089475      0.015015     -0.436473
6
Coordinates from ORCA-job B6_random_3d_seed1001_d1.60_q0_m5_R2SCAN-3C E -148.645477693129
  B       0.039843     -1.127099     -0.331900
  B      -0.040945      1.127587      0.332738
  B       0.288449      0.542566     -1.174003
  B      -0.287011     -0.542908      1.175340
  B       1.089140     -0.015104      0.434346
  B      -1.089476      0.014959     -0.436522
6
Coordinates from ORCA-job B6_random_3d_seed1001_d1.60_q0_m5_R2SCAN-3C E -148.645477913842
  B       0.039738     -1.127259     -0.331877
  B      -0.040806      1.127466      0.332787
  B       0.288373      0.542707     -1.174234
  B      -0.286928     -0.542882      1.175266
  B       1.089126     -0.014975      0.434610
  B      -1.089504      0.014943     -0.436552
