6
Coordinates from ORCA-job B6_random_3d_seed1000_d3.00_q0_m1_R2SCAN-3C E -147.960984261972
  B       0.932351     -0.947138      1.875669
  B       2.333628     -0.223821     -0.702504
  B      -0.037024     -2.185974     -0.793046
  B      -1.044287      1.104845      1.600394
  B      -0.093303      2.218480     -1.016352
  B      -2.091365      0.033609     -0.964161
6
Coordinates from ORCA-job B6_random_3d_seed1000_d3.00_q0_m1_R2SCAN-3C E -147.978660230317
  B       0.915719     -0.911745      1.851557
  B       2.296858     -0.231956     -0.684507
  B      -0.044252     -2.149319     -0.794959
  B      -1.010781      1.083860      1.581234
  B      -0.105680      2.181603     -0.993455
  B      -2.051865      0.027557     -0.959870
6
Coordinates from ORCA-job B6_random_3d_seed1000_d3.00_q0_m1_R2SCAN-3C E -147.997467067524
  B       0.898932     -0.875774      1.827455
  B       2.260396     -0.240235     -0.666193
  B      -0.051801     -2.112824     -0.797223
  B      -0.976569      1.062826      1.562180
  B      -0.118358      2.144803     -0.970259
  B      -2.012600      0.021204     -0.955961
6
Coordinates from ORCA-job B6_random_3d_seed1000_d3.00_q0_m1_R2SCAN-3C E -148.027986156262
  B       0.873447     -0.821408      1.791070
  B       2.205993     -0.252378     -0.638430
  B      -0.063475     -2.058108     -0.800682
  B      -0.924572      1.031100      1.533486
  B      -0.137324      2.089404     -0.935167
  B      -1.954069      0.011389     -0.950276
6
Coordinates from ORCA-job B6_random_3d_seed1000_d3.00_q0_m1_R2SCAN-3C E -148.078015245006
  B       0.840380     -0.745274      1.737058
  B       2.125549     -0.270330     -0.596339
  B      -0.081289     -1.976286     -0.805818
  B      -0.851180      0.988982      1.489827
  B      -0.165993      2.006269     -0.882474
  B      -1.867467     -0.003362     -0.942254
6
Coordinates from ORCA-job B6_random_3d_seed1000_d3.00_q0_m1_R2SCAN-3C E -148.136763389284
  B       0.808701     -0.667951      1.681114
  B       2.043658     -0.289767     -0.551440
  B      -0.100295     -1.891712     -0.812033
  B      -0.776160      0.948386      1.444153
  B      -0.197357      1.919699     -0.826929
  B      -1.778548     -0.018656     -0.934865
6
Coordinates from ORCA-job B6_random_3d_seed1000_d3.00_q0_m1_R2SCAN-3C E -148.182142201447
  B       0.782740     -0.610076      1.642195
  B       1.989677     -0.303535     -0.520129
  B      -0.113543     -1.835253     -0.817109
  B      -0.720029      0.916807      1.413574
  B      -0.219686      1.860942     -0.788305
  B      -1.719159     -0.028885     -0.930226
6
Coordinates from ORCA-job B6_random_3d_seed1000_d3.00_q0_m1_R2SCAN-3C E -148.230952441524
  B       0.757767     -0.553063      1.602410
  B       1.936260     -0.317695     -0.488063
  B      -0.126551     -1.778500     -0.822025
  B      -0.664722      0.886357      1.381958
  B      -0.242730      1.801333     -0.749070
  B      -1.660024     -0.038431     -0.925210
6
Coordinates from ORCA-job B6_random_3d_seed1000_d3.00_q0_m1_R2SCAN-3C E -148.308363968973
  B       0.728524     -0.477056      1.542227
  B       1.856702     -0.339544     -0.439429
  B      -0.144635     -1.691807     -0.827808
  B      -0.590858      0.848830      1.331568
  B      -0.278282      1.710207     -0.690352
  B      -1.571451     -0.050630     -0.916207
6
Coordinates from ORCA-job B6_random_3d_seed1000_d3.00_q0_m1_R2SCAN-3C E -148.390328216662
  B       0.701373     -0.403945      1.477807
  B       1.776758     -0.363113     -0.388860
  B      -0.160111     -1.602679     -0.831322
  B      -0.520104      0.813440      1.276562
  B      -0.315362      1.616331     -0.629883
  B      -1.482555     -0.060034     -0.904304
6
Coordinates from ORCA-job B6_random_3d_seed1000_d3.00_q0_m1_R2SCAN-3C E -148.444579963797
  B       0.694689     -0.368174      1.434060
  B       1.724747     -0.382451     -0.354892
  B      -0.167298     -1.540042     -0.830875
  B      -0.486089      0.801214      1.235488
  B      -0.343986      1.551830     -0.589755
  B      -1.422063     -0.062377     -0.894026
6
Coordinates from ORCA-job B6_random_3d_seed1000_d3.00_q0_m1_R2SCAN-3C E -148.523853816388
  B       0.701849     -0.329749      1.368464
  B       1.647535     -0.423688     -0.302574
  B      -0.169527     -1.443089     -0.828758
  B      -0.451188      0.800132      1.170133
  B      -0.397276      1.456961     -0.528777
  B      -1.331393     -0.060568     -0.878487
6
Coordinates from ORCA-job B6_random_3d_seed1000_d3.00_q0_m1_R2SCAN-3C E -148.590372877035
  B       0.711683     -0.306954      1.296789
  B       1.566382     -0.472939     -0.257314
  B      -0.149900     -1.348363     -0.812815
  B      -0.431073      0.803194      1.102288
  B      -0.451324      1.374098     -0.474455
  B      -1.245769     -0.049036     -0.854493
6
Coordinates from ORCA-job B6_random_3d_seed1000_d3.00_q0_m1_R2SCAN-3C E -148.633158565363
  B       0.708345     -0.299407      1.217005
  B       1.488971     -0.526004     -0.227789
  B      -0.104238     -1.265155     -0.772708
  B      -0.419972      0.795228      1.046957
  B      -0.497197      1.334172     -0.440404
  B      -1.175908     -0.038833     -0.823061
6
Coordinates from ORCA-job B6_random_3d_seed1000_d3.00_q0_m1_R2SCAN-3C E -148.658498958883
  B       0.692997     -0.303523      1.153357
  B       1.427518     -0.584485     -0.224739
  B      -0.039778     -1.203172     -0.720575
  B      -0.415452      0.781330      1.017196
  B      -0.536778      1.351841     -0.429959
  B      -1.128508     -0.041992     -0.795281
6
Coordinates from ORCA-job B6_random_3d_seed1000_d3.00_q0_m1_R2SCAN-3C E -148.670960320048
  B       0.688305     -0.323434      1.115844
  B       1.408300     -0.653142     -0.233345
  B       0.024262     -1.169739     -0.676546
  B      -0.430626      0.782941      0.986554
  B      -0.590656      1.392249     -0.427030
  B      -1.099586     -0.028876     -0.765477
6
Coordinates from ORCA-job B6_random_3d_seed1000_d3.00_q0_m1_R2SCAN-3C E -148.677243680708
  B       0.691749     -0.340497      1.085381
  B       1.434707     -0.683596     -0.216121
  B       0.016926     -1.146079     -0.656669
  B      -0.437229      0.774585      0.968754
  B      -0.626383      1.432766     -0.432818
  B      -1.079769     -0.037178     -0.748528
6
Coordinates from ORCA-job B6_random_3d_seed1000_d3.00_q0_m1_R2SCAN-3C E -148.685543971883
  B       0.675110     -0.346409      1.060440
  B       1.497320     -0.742704     -0.210823
  B       0.027976     -1.135290     -0.630129
  B      -0.442389      0.757584      0.937758
  B      -0.687256      1.469913     -0.438489
  B      -1.070761     -0.003093     -0.718756
6
Coordinates from ORCA-job B6_random_3d_seed1000_d3.00_q0_m1_R2SCAN-3C E -148.691105647319
  B       0.655491     -0.335826      1.009193
  B       1.531949     -0.830717     -0.189961
  B       0.062870     -1.119816     -0.606744
  B      -0.438473      0.764615      0.878756
  B      -0.760764      1.528436     -0.389107
  B      -1.051072     -0.006693     -0.702136
6
Coordinates from ORCA-job B6_random_3d_seed1000_d3.00_q0_m1_R2SCAN-3C E -148.697110492005
  B       0.682483     -0.348514      0.987067
  B       1.547284     -0.898776     -0.159025
  B       0.080785     -1.097462     -0.599709
  B      -0.424367      0.759807      0.890173
  B      -0.849039      1.560822     -0.411691
  B      -1.037147      0.024124     -0.706815
6
Coordinates from ORCA-job B6_random_3d_seed1000_d3.00_q0_m1_R2SCAN-3C E -148.700061403448
  B       0.693721     -0.342039      1.006240
  B       1.577785     -0.955421     -0.161547
  B       0.075220     -1.080955     -0.615345
  B      -0.430420      0.786370      0.893376
  B      -0.894926      1.557974     -0.406349
  B      -1.021381      0.034071     -0.716375
6
Coordinates from ORCA-job B6_random_3d_seed1000_d3.00_q0_m1_R2SCAN-3C E -148.702790150904
  B       0.705307     -0.335002      0.981937
  B       1.592620     -1.002319     -0.127355
  B       0.093170     -1.086039     -0.621322
  B      -0.419590      0.797417      0.872866
  B      -0.944601      1.575946     -0.378525
  B      -1.026906      0.049998     -0.727602
6
Coordinates from ORCA-job B6_random_3d_seed1000_d3.00_q0_m1_R2SCAN-3C E -148.705055755296
  B       0.702260     -0.315999      0.965793
  B       1.579313     -1.047733     -0.111644
  B       0.112542     -1.067908     -0.622580
  B      -0.397412      0.798179      0.863144
  B      -0.993219      1.586035     -0.360143
  B      -1.003485      0.047426     -0.734569
6
Coordinates from ORCA-job B6_random_3d_seed1000_d3.00_q0_m1_R2SCAN-3C E -148.707931792401
  B       0.726121     -0.307883      0.945525
  B       1.586502     -1.123727     -0.075381
  B       0.126723     -1.046648     -0.632874
  B      -0.385358      0.817356      0.843244
  B      -1.073667      1.585397     -0.337363
  B      -0.980320      0.075506     -0.743151
6
Coordinates from ORCA-job B6_random_3d_seed1000_d3.00_q0_m1_R2SCAN-3C E -148.709801003873
  B       0.758490     -0.279808      0.941409
  B       1.578832     -1.207733     -0.029083
  B       0.148988     -1.042131     -0.670548
  B      -0.354266      0.848396      0.838688
  B      -1.165787      1.585077     -0.300293
  B      -0.966257      0.096198     -0.780174
6
Coordinates from ORCA-job B6_random_3d_seed1000_d3.00_q0_m1_R2SCAN-3C E -148.710882746012
  B       0.768822     -0.267676      0.917741
  B       1.562716     -1.257953     -0.001223
  B       0.164528     -1.016135     -0.674327
  B      -0.340772      0.858315      0.811329
  B      -1.218188      1.568053     -0.275032
  B      -0.937107      0.115395     -0.778488
6
Coordinates from ORCA-job B6_random_3d_seed1000_d3.00_q0_m1_R2SCAN-3C E -148.711121794504
  B       0.777647     -0.257354      0.907667
  B       1.552476     -1.290204      0.016727
  B       0.176789     -1.006569     -0.682029
  B      -0.329215      0.869175      0.803298
  B      -1.252387      1.561958     -0.257355
  B      -0.925310      0.122993     -0.788307
6
Coordinates from ORCA-job B6_random_3d_seed1000_d3.00_q0_m1_R2SCAN-3C E -148.711189580534
  B       0.785162     -0.248424      0.901485
  B       1.540925     -1.308922      0.030153
  B       0.183413     -1.000552     -0.689731
  B      -0.319759      0.876389      0.799693
  B      -1.273266      1.552058     -0.245157
  B      -0.916474      0.129451     -0.796444
6
Coordinates from ORCA-job B6_random_3d_seed1000_d3.00_q0_m1_R2SCAN-3C E -148.711198235904
  B       0.788471     -0.245144      0.896471
  B       1.538952     -1.322436      0.036523
  B       0.188264     -0.997394     -0.691232
  B      -0.317496      0.880047      0.795266
  B      -1.286938      1.551166     -0.238859
  B      -0.911254      0.133762     -0.798169
6
Coordinates from ORCA-job B6_random_3d_seed1000_d3.00_q0_m1_R2SCAN-3C E -148.711200971498
  B       0.788440     -0.244748      0.896616
  B       1.538197     -1.320675      0.036029
  B       0.187377     -0.998053     -0.691374
  B      -0.317878      0.879664      0.796245
  B      -1.285173      1.550384     -0.239235
  B      -0.910964      0.133429     -0.798280
6
Coordinates from ORCA-job B6_random_3d_seed1000_d3.00_q0_m1_R2SCAN-3C E -148.711203295489
  B       0.788799     -0.243581      0.895523
  B       1.537508     -1.320683      0.036227
  B       0.186888     -0.999052     -0.691510
  B      -0.318553      0.879627      0.797256
  B      -1.285070      1.549804     -0.238920
  B      -0.909572      0.133885     -0.798577
6
Coordinates from ORCA-job B6_random_3d_seed1000_d3.00_q0_m1_R2SCAN-3C E -148.711305981367
  B       0.795776     -0.212640      0.863554
  B       1.522352     -1.320498      0.039648
  B       0.173475     -1.028723     -0.693436
  B      -0.339812      0.878135      0.825376
  B      -1.281386      1.538133     -0.231686
  B      -0.870405      0.145592     -0.803456
6
Coordinates from ORCA-job B6_random_3d_seed1000_d3.00_q0_m1_R2SCAN-3C E -148.711674354089
  B       0.799129     -0.179318      0.823460
  B       1.507876     -1.322047      0.043648
  B       0.160000     -1.061180     -0.694037
  B      -0.363746      0.876305      0.854275
  B      -1.279273      1.527683     -0.223543
  B      -0.823986      0.158557     -0.803802
6
Coordinates from ORCA-job B6_random_3d_seed1000_d3.00_q0_m1_R2SCAN-3C E -148.712273912017
  B       0.796993     -0.159747      0.792914
  B       1.500955     -1.325594      0.045822
  B       0.153889     -1.081137     -0.691863
  B      -0.380107      0.875363      0.869604
  B      -1.280333      1.523717     -0.218186
  B      -0.791397      0.167398     -0.798291
6
Coordinates from ORCA-job B6_random_3d_seed1000_d3.00_q0_m1_R2SCAN-3C E -148.712916766829
  B       0.792418     -0.148576      0.770805
  B       1.499060     -1.327583      0.045604
  B       0.150572     -1.094982     -0.688548
  B      -0.392508      0.874575      0.878860
  B      -1.280298      1.523796     -0.215693
  B      -0.769243      0.172770     -0.791027
6
Coordinates from ORCA-job B6_random_3d_seed1000_d3.00_q0_m1_R2SCAN-3C E -148.713501462749
  B       0.787018     -0.142306      0.754963
  B       1.499704     -1.328520      0.044092
  B       0.148952     -1.105298     -0.685560
  B      -0.402061      0.874525      0.884933
  B      -1.279567      1.525854     -0.214790
  B      -0.754046      0.175746     -0.783639
6
Coordinates from ORCA-job B6_random_3d_seed1000_d3.00_q0_m1_R2SCAN-3C E -148.714007473990
  B       0.781484     -0.138443      0.742918
  B       1.501254     -1.328893      0.042135
  B       0.148259     -1.113748     -0.683393
  B      -0.409715      0.875242      0.889570
  B      -1.278551      1.528510     -0.214588
  B      -0.742731      0.177333     -0.776641
6
Coordinates from ORCA-job B6_random_3d_seed1000_d3.00_q0_m1_R2SCAN-3C E -148.714808496812
  B       0.769426     -0.137570      0.728084
  B       1.507227     -1.330903      0.038492
  B       0.151285     -1.126868     -0.684149
  B      -0.418902      0.882400      0.896056
  B      -1.279271      1.535966     -0.215401
  B      -0.729765      0.176975     -0.763082
6
Coordinates from ORCA-job B6_random_3d_seed1000_d3.00_q0_m1_R2SCAN-3C E -148.715540188916
  B       0.755247     -0.136435      0.713201
  B       1.513091     -1.333326      0.033437
  B       0.155824     -1.140804     -0.685291
  B      -0.428929      0.891430      0.901971
  B      -1.279379      1.543849     -0.215411
  B      -0.715853      0.175285     -0.747908
6
Coordinates from ORCA-job B6_random_3d_seed1000_d3.00_q0_m1_R2SCAN-3C E -148.716381723158
  B       0.735159     -0.135351      0.690330
  B       1.520846     -1.333095      0.026543
  B       0.159387     -1.158712     -0.684228
  B      -0.442976      0.899654      0.909829
  B      -1.276646      1.553258     -0.217266
  B      -0.695770      0.174247     -0.725207
6
Coordinates from ORCA-job B6_random_3d_seed1000_d3.00_q0_m1_R2SCAN-3C E -148.717200987764
  B       0.709918     -0.132073      0.660230
  B       1.528707     -1.325875      0.015300
  B       0.159461     -1.182459     -0.678973
  B      -0.463913      0.904951      0.921591
  B      -1.265397      1.562790     -0.221033
  B      -0.668776      0.172666     -0.697115
6
Coordinates from ORCA-job B6_random_3d_seed1000_d3.00_q0_m1_R2SCAN-3C E -148.717583870781
  B       0.702442     -0.120674      0.640678
  B       1.530366     -1.306166      0.000511
  B       0.144814     -1.201867     -0.659462
  B      -0.489185      0.887700      0.933295
  B      -1.239637      1.566936     -0.226098
  B      -0.648801      0.174071     -0.688925
6
Coordinates from ORCA-job B6_random_3d_seed1000_d3.00_q0_m1_R2SCAN-3C E -148.717665390571
  B       0.711762     -0.109564      0.625155
  B       1.519139     -1.319167      0.015562
  B       0.144091     -1.200992     -0.665264
  B      -0.485374      0.889244      0.936103
  B      -1.256107      1.555048     -0.218521
  B      -0.633512      0.185430     -0.693035
6
Coordinates from ORCA-job B6_random_3d_seed1000_d3.00_q0_m1_R2SCAN-3C E -148.716551417986
  B       0.669314     -0.133063      0.601175
  B       1.546261     -1.309922      0.010300
  B       0.150360     -1.222837     -0.678735
  B      -0.488780      0.913153      0.952975
  B      -1.253867      1.572954     -0.235406
  B      -0.623287      0.179715     -0.650310
6
Coordinates from ORCA-job B6_random_3d_seed1000_d3.00_q0_m1_R2SCAN-3C E -148.717677343417
  B       0.705534     -0.116800      0.629095
  B       1.528089     -1.311768      0.010424
  B       0.141311     -1.202503     -0.662922
  B      -0.485970      0.887841      0.938525
  B      -1.249463      1.561402     -0.224731
  B      -0.639501      0.181828     -0.690390
6
Coordinates from ORCA-job B6_random_3d_seed1000_d3.00_q0_m1_R2SCAN-3C E -148.717688961685
  B       0.707197     -0.112610      0.625553
  B       1.523611     -1.315501      0.013013
  B       0.142677     -1.202642     -0.663999
  B      -0.485791      0.888884      0.937863
  B      -1.253106      1.558441     -0.221097
  B      -0.634588      0.183429     -0.691332
6
Coordinates from ORCA-job B6_random_3d_seed1000_d3.00_q0_m1_R2SCAN-3C E -148.717679278257
  B       0.714690     -0.105244      0.617149
  B       1.519189     -1.319865      0.020648
  B       0.136754     -1.200443     -0.660977
  B      -0.484363      0.881541      0.939183
  B      -1.259793      1.553025     -0.217902
  B      -0.626477      0.190986     -0.698102
6
Coordinates from ORCA-job B6_random_3d_seed1000_d3.00_q0_m1_R2SCAN-3C E -148.717697401143
  B       0.711208     -0.109888      0.623144
  B       1.522184     -1.317870      0.016120
  B       0.140174     -1.200885     -0.661924
  B      -0.484921      0.885282      0.937695
  B      -1.256343      1.556469     -0.219568
  B      -0.632302      0.186892     -0.695467
6
Coordinates from ORCA-job B6_random_3d_seed1000_d3.00_q0_m1_R2SCAN-3C E -148.717699207667
  B       0.711417     -0.110082      0.623202
  B       1.522530     -1.318308      0.016058
  B       0.140237     -1.200787     -0.661490
  B      -0.485005      0.885153      0.937373
  B      -1.256781      1.556768     -0.219480
  B      -0.632398      0.187255     -0.695663
6
Coordinates from ORCA-job B6_random_3d_seed1000_d3.00_q0_m1_R2SCAN-3C E -148.717703889061
  B       0.713661     -0.109436      0.621840
  B       1.523016     -1.321388      0.016872
  B       0.139686     -1.199868     -0.658739
  B      -0.485399      0.883480      0.935945
  B      -1.260147      1.557104     -0.218199
  B      -0.630816      0.190108     -0.697718
6
Coordinates from ORCA-job B6_random_3d_seed1000_d3.00_q0_m1_R2SCAN-3C E -148.717704669314
  B       0.714444     -0.108849      0.621260
  B       1.522726     -1.322085      0.017376
  B       0.139276     -1.199720     -0.658331
  B      -0.485411      0.882899      0.935707
  B      -1.261068      1.556805     -0.217826
  B      -0.629968      0.190950     -0.698185
6
Coordinates from ORCA-job B6_random_3d_seed1000_d3.00_q0_m1_R2SCAN-3C E -148.717706564588
  B       0.716053     -0.107871      0.620494
  B       1.522047     -1.323288      0.018142
  B       0.138330     -1.199274     -0.657569
  B      -0.485368      0.881931      0.935310
  B      -1.262873      1.556017     -0.217276
  B      -0.628188      0.192486     -0.699101
6
Coordinates from ORCA-job B6_random_3d_seed1000_d3.00_q0_m1_R2SCAN-3C E -148.717709333643
  B       0.717435     -0.107222      0.620288
  B       1.521371     -1.324087      0.018401
  B       0.137282     -1.199042     -0.656861
  B      -0.485320      0.881248      0.934812
  B      -1.264586      1.555183     -0.216958
  B      -0.626183      0.193920     -0.699682
6
Coordinates from ORCA-job B6_random_3d_seed1000_d3.00_q0_m1_R2SCAN-3C E -148.717714308122
  B       0.718328     -0.107405      0.621357
  B       1.520852     -1.324208      0.017646
  B       0.135941     -1.199036     -0.656172
  B      -0.485071      0.881336      0.934186
  B      -1.266309      1.554085     -0.217067
  B      -0.623740      0.195228     -0.699950
6
Coordinates from ORCA-job B6_random_3d_seed1000_d3.00_q0_m1_R2SCAN-3C E -148.717719787629
  B       0.717324     -0.109122      0.624041
  B       1.521041     -1.322767      0.015414
  B       0.135071     -1.199697     -0.655945
  B      -0.484540      0.882932      0.933821
  B      -1.266740      1.553302     -0.217835
  B      -0.622156      0.195350     -0.699496
6
Coordinates from ORCA-job B6_random_3d_seed1000_d3.00_q0_m1_R2SCAN-3C E -148.717722660493
  B       0.715059     -0.111218      0.626346
  B       1.521901     -1.320947      0.013476
  B       0.135154     -1.200468     -0.656183
  B      -0.483816      0.884956      0.933922
  B      -1.265919      1.553159     -0.218508
  B      -0.622380      0.194517     -0.699053
6
Coordinates from ORCA-job B6_random_3d_seed1000_d3.00_q0_m1_R2SCAN-3C E -148.717723356977
  B       0.713275     -0.112407      0.627178
  B       1.522683     -1.319751      0.012543
  B       0.135618     -1.201051     -0.656448
  B      -0.483531      0.886079      0.934316
  B      -1.264761      1.553475     -0.218923
  B      -0.623284      0.193655     -0.698666
6
Coordinates from ORCA-job B6_random_3d_seed1000_d3.00_q0_m1_R2SCAN-3C E -148.717723387043
  B       0.713115     -0.112455      0.627098
  B       1.522804     -1.319742      0.012588
  B       0.135755     -1.201055     -0.656466
  B      -0.483516      0.886115      0.934389
  B      -1.264602      1.553565     -0.218913
  B      -0.623556      0.193572     -0.698695
6
Coordinates from ORCA-job B6_random_3d_seed1000_d3.00_q0_m1_R2SCAN-3C E -148.717723380293
  B       0.712936     -0.112512      0.627064
  B       1.522907     -1.319628      0.012574
  B       0.135873     -1.201106     -0.656509
  B      -0.483538      0.886149      0.934480
  B      -1.264352      1.553679     -0.218944
  B      -0.623826      0.193419     -0.698665
