6
Coordinates from ORCA-job B6_random_3d_seed1000_d3.00_q0_m1_R2SCAN-3C E -148.717723380293
  B           0.71293641020252     -0.11251219335887      0.62706395951512
  B           1.52290662158512     -1.31962802660404      0.01257437975828
  B           0.13587323947088     -1.20110612342944     -0.65650921661621
  B          -0.48353827681761      0.88614900617582      0.93447968237761
  B          -1.26435186447687      1.55367877384728     -0.21894385837257
  B          -0.62382611996405      0.19341856336926     -0.69866492666223
