6
Coordinates from ORCA-job B6_random_3d_seed1004_d3.50_q0_m3_R2SCAN-3C E -147.907484179486
  B      -1.079845     -0.933219      2.178859
  B       1.589944      1.448135      1.663257
  B       1.793444     -1.893962      0.681715
  B      -2.473885      0.147412     -0.799988
  B       0.037298      2.362934     -1.404946
  B       0.133045     -1.131301     -2.318899
6
Coordinates from ORCA-job B6_random_3d_seed1004_d3.50_q0_m3_R2SCAN-3C E -147.917443860184
  B      -1.059545     -0.939947      2.128925
  B       1.580760      1.438099      1.631912
  B       1.769681     -1.867020      0.685991
  B      -2.435194      0.152618     -0.806678
  B       0.031114      2.346015     -1.374718
  B       0.113185     -1.129765     -2.265432
6
Coordinates from ORCA-job B6_random_3d_seed1004_d3.50_q0_m3_R2SCAN-3C E -147.928056721659
  B      -1.037971     -0.946751      2.079589
  B       1.571545      1.428888      1.601610
  B       1.744924     -1.840735      0.691282
  B      -2.395097      0.156387     -0.814287
  B       0.025255      2.329664     -1.344927
  B       0.091344     -1.127453     -2.213266
6
Coordinates from ORCA-job B6_random_3d_seed1004_d3.50_q0_m3_R2SCAN-3C E -147.945237494827
  B      -1.004021     -0.956485      2.009106
  B       1.556235      1.416149      1.558359
  B       1.704261     -1.801119      0.699017
  B      -2.331294      0.158687     -0.825086
  B       0.018216      2.304633     -1.301872
  B       0.056603     -1.121865     -2.139524
6
Coordinates from ORCA-job B6_random_3d_seed1004_d3.50_q0_m3_R2SCAN-3C E -147.972378809582
  B      -0.954871     -0.967107      1.912954
  B       1.530033      1.397175      1.497576
  B       1.642320     -1.742987      0.707759
  B      -2.237828      0.160901     -0.835213
  B       0.009896      2.263621     -1.241048
  B       0.010449     -1.111603     -2.042029
6
Coordinates from ORCA-job B6_random_3d_seed1004_d3.50_q0_m3_R2SCAN-3C E -148.002948818165
  B      -0.904159     -0.975750      1.820322
  B       1.500836      1.379061      1.438625
  B       1.577444     -1.685650      0.715305
  B      -2.141243      0.160319     -0.843213
  B       0.003311      2.220320     -1.181732
  B      -0.036188     -1.098300     -1.949308
6
Coordinates from ORCA-job B6_random_3d_seed1004_d3.50_q0_m3_R2SCAN-3C E -148.027850125999
  B      -0.861749     -0.985662      1.757061
  B       1.481406      1.371120      1.401762
  B       1.525116     -1.647795      0.723699
  B      -2.066243      0.151359     -0.853996
  B       0.001244      2.194812     -1.144160
  B      -0.079773     -1.083834     -1.884365
6
Coordinates from ORCA-job B6_random_3d_seed1004_d3.50_q0_m3_R2SCAN-3C E -148.045721814383
  B      -0.832338     -0.992478      1.716346
  B       1.468173      1.366897      1.378569
  B       1.488899     -1.623550      0.729411
  B      -2.015270      0.143538     -0.861312
  B       0.000648      2.178159     -1.120569
  B      -0.110112     -1.072567     -1.842446
6
Coordinates from ORCA-job B6_random_3d_seed1004_d3.50_q0_m3_R2SCAN-3C E -148.074483627851
  B      -0.787444     -1.001976      1.658306
  B       1.446991      1.360812      1.345211
  B       1.432650     -1.587562      0.736877
  B      -1.937328      0.129696     -0.871055
  B       0.000830      2.152135     -1.087108
  B      -0.155697     -1.053106     -1.782231
6
Coordinates from ORCA-job B6_random_3d_seed1004_d3.50_q0_m3_R2SCAN-3C E -148.115028135066
  B      -0.732158     -1.007189      1.582587
  B       1.412082      1.347921      1.296927
  B       1.359366     -1.537842      0.740667
  B      -1.837683      0.118428     -0.872861
  B       0.000489      2.106218     -1.040497
  B      -0.202096     -1.027536     -1.706823
6
Coordinates from ORCA-job B6_random_3d_seed1004_d3.50_q0_m3_R2SCAN-3C E -148.158673529843
  B      -0.675801     -1.010492      1.510104
  B       1.373672      1.334543      1.249082
  B       1.283655     -1.489536      0.742147
  B      -1.735948      0.106917     -0.870996
  B       0.000254      2.056753     -0.996344
  B      -0.245832     -0.998185     -1.633994
6
Coordinates from ORCA-job B6_random_3d_seed1004_d3.50_q0_m3_R2SCAN-3C E -148.192792489928
  B      -0.629313     -1.015326      1.458676
  B       1.344842      1.326156      1.215974
  B       1.222879     -1.455791      0.744735
  B      -1.656547      0.095277     -0.870690
  B      -0.000066      2.021615     -0.967849
  B      -0.281795     -0.971931     -1.580845
6
Coordinates from ORCA-job B6_random_3d_seed1004_d3.50_q0_m3_R2SCAN-3C E -148.215497319204
  B      -0.599115     -1.018169      1.424292
  B       1.325091      1.319672      1.192527
  B       1.182628     -1.433544      0.746302
  B      -1.602001      0.090076     -0.869688
  B      -0.002315      1.997445     -0.948297
  B      -0.304288     -0.955480     -1.545137
6
Coordinates from ORCA-job B6_random_3d_seed1004_d3.50_q0_m3_R2SCAN-3C E -148.255989134090
  B      -0.556362     -1.020171      1.372252
  B       1.295773      1.307196      1.155451
  B       1.122062     -1.399153      0.747267
  B      -1.518675      0.090067     -0.864303
  B      -0.011503      1.958212     -0.917410
  B      -0.331295     -0.936151     -1.493257
6
Coordinates from ORCA-job B6_random_3d_seed1004_d3.50_q0_m3_R2SCAN-3C E -148.304881964688
  B      -0.505354     -1.018169      1.277795
  B       1.250389      1.299598      1.084495
  B       1.032749     -1.365632      0.745778
  B      -1.414383      0.083113     -0.837635
  B      -0.015337      1.917623     -0.863458
  B      -0.348064     -0.916533     -1.406975
6
Coordinates from ORCA-job B6_random_3d_seed1004_d3.50_q0_m3_R2SCAN-3C E -148.353610612393
  B      -0.479587     -1.000910      1.160744
  B       1.189061      1.287765      0.987395
  B       0.964979     -1.357932      0.738353
  B      -1.343210      0.100403     -0.779299
  B      -0.016069      1.888806     -0.803740
  B      -0.315173     -0.918132     -1.303453
6
Coordinates from ORCA-job B6_random_3d_seed1004_d3.50_q0_m3_R2SCAN-3C E -148.391814079210
  B      -0.480005     -0.982368      1.091984
  B       1.137525      1.273654      0.915084
  B       0.931932     -1.344989      0.717916
  B      -1.286272      0.125448     -0.732843
  B      -0.016955      1.854857     -0.756190
  B      -0.286225     -0.926602     -1.235951
6
Coordinates from ORCA-job B6_random_3d_seed1004_d3.50_q0_m3_R2SCAN-3C E -148.420873263212
  B      -0.491357     -0.964510      1.049901
  B       1.102524      1.264953      0.865390
  B       0.920145     -1.338271      0.700816
  B      -1.249788      0.140796     -0.700967
  B      -0.015984      1.827560     -0.721349
  B      -0.265539     -0.930527     -1.193791
6
Coordinates from ORCA-job B6_random_3d_seed1004_d3.50_q0_m3_R2SCAN-3C E -148.464259253627
  B      -0.504344     -0.938211      0.986935
  B       1.050730      1.255613      0.790800
  B       0.897784     -1.325528      0.675893
  B      -1.192541      0.155778     -0.656079
  B      -0.011019      1.784381     -0.665415
  B      -0.240610     -0.932033     -1.132135
6
Coordinates from ORCA-job B6_random_3d_seed1004_d3.50_q0_m3_R2SCAN-3C E -148.517126341857
  B      -0.518713     -0.898142      0.894327
  B       0.994160      1.239864      0.703063
  B       0.861604     -1.304169      0.640448
  B      -1.115064      0.166934     -0.598124
  B      -0.013101      1.725159     -0.597203
  B      -0.208885     -0.929646     -1.042510
6
Coordinates from ORCA-job B6_random_3d_seed1004_d3.50_q0_m3_R2SCAN-3C E -148.576183370493
  B      -0.602952     -0.819537      0.837332
  B       0.947030      1.217450      0.623466
  B       0.879230     -1.281776      0.576034
  B      -1.077901      0.210894     -0.521892
  B      -0.018430      1.634681     -0.523069
  B      -0.126977     -0.961713     -0.991870
6
Coordinates from ORCA-job B6_random_3d_seed1004_d3.50_q0_m3_R2SCAN-3C E -148.605924535452
  B      -0.623698     -0.774708      0.785028
  B       0.948119      1.180028      0.611807
  B       0.852147     -1.252343      0.521388
  B      -1.036760      0.226891     -0.482717
  B      -0.060161      1.589595     -0.514018
  B      -0.079646     -0.969463     -0.921487
6
Coordinates from ORCA-job B6_random_3d_seed1004_d3.50_q0_m3_R2SCAN-3C E -148.630259966968
  B      -0.662267     -0.722396      0.776222
  B       0.952377      1.090047      0.588072
  B       0.828002     -1.190496      0.457347
  B      -1.040832      0.250746     -0.450032
  B      -0.095686      1.529735     -0.505370
  B       0.018407     -0.957637     -0.866239
6
Coordinates from ORCA-job B6_random_3d_seed1004_d3.50_q0_m3_R2SCAN-3C E -148.645616103387
  B      -0.685874     -0.683397      0.765775
  B       0.952806      0.977297      0.558891
  B       0.845960     -1.126207      0.462091
  B      -1.056653      0.257399     -0.439222
  B      -0.116914      1.476515     -0.497736
  B       0.060675     -0.901608     -0.849799
6
Coordinates from ORCA-job B6_random_3d_seed1004_d3.50_q0_m3_R2SCAN-3C E -148.660288370564
  B      -0.704291     -0.661905      0.760282
  B       0.951313      0.879646      0.533383
  B       0.858012     -1.063920      0.465116
  B      -1.077160      0.258760     -0.430170
  B      -0.123870      1.443114     -0.494797
  B       0.095996     -0.855695     -0.833814
6
Coordinates from ORCA-job B6_random_3d_seed1004_d3.50_q0_m3_R2SCAN-3C E -148.672687977941
  B      -0.714554     -0.650892      0.765207
  B       0.948916      0.806445      0.518928
  B       0.871624     -1.015149      0.475179
  B      -1.088835      0.262095     -0.430532
  B      -0.128708      1.420118     -0.494361
  B       0.111556     -0.822617     -0.834422
6
Coordinates from ORCA-job B6_random_3d_seed1004_d3.50_q0_m3_R2SCAN-3C E -148.683281588657
  B      -0.712780     -0.664176      0.782528
  B       0.948369      0.772769      0.513514
  B       0.879274     -0.985361      0.494588
  B      -1.110439      0.252547     -0.441175
  B      -0.110826      1.429547     -0.497632
  B       0.106400     -0.805326     -0.851823
6
Coordinates from ORCA-job B6_random_3d_seed1004_d3.50_q0_m3_R2SCAN-3C E -148.693317659763
  B      -0.716092     -0.666452      0.787823
  B       0.941698      0.708201      0.492133
  B       0.881365     -0.926291      0.502781
  B      -1.129858      0.241269     -0.444922
  B      -0.092706      1.421706     -0.489273
  B       0.115593     -0.778433     -0.848541
6
Coordinates from ORCA-job B6_random_3d_seed1004_d3.50_q0_m3_R2SCAN-3C E -148.693152272757
  B      -0.696065     -0.691232      0.836218
  B       0.925963      0.637514      0.463887
  B       0.905636     -0.888247      0.557646
  B      -1.128298      0.257142     -0.499501
  B      -0.095941      1.430553     -0.477449
  B       0.088704     -0.745729     -0.880802
6
Coordinates from ORCA-job B6_random_3d_seed1004_d3.50_q0_m3_R2SCAN-3C E -148.693909418544
  B      -0.692255     -0.608682      0.762089
  B       0.911952      0.581915      0.405897
  B       0.901576     -0.908050      0.563155
  B      -1.174278      0.205258     -0.463342
  B      -0.094462      1.414953     -0.449331
  B       0.147466     -0.685393     -0.818467
6
Coordinates from ORCA-job B6_random_3d_seed1004_d3.50_q0_m3_R2SCAN-3C E -148.694337375747
  B      -0.671391     -0.650116      0.790811
  B       0.909086      0.662312      0.392918
  B       0.876661     -0.970775      0.555421
  B      -1.164709      0.230889     -0.492177
  B      -0.098399      1.461690     -0.444168
  B       0.148751     -0.734001     -0.802804
6
Coordinates from ORCA-job B6_random_3d_seed1004_d3.50_q0_m3_R2SCAN-3C E -148.697273801326
  B      -0.691900     -0.643963      0.809806
  B       0.928726      0.624948      0.415465
  B       0.902828     -0.967783      0.568133
  B      -1.141896      0.250713     -0.492432
  B      -0.142990      1.457937     -0.469589
  B       0.145231     -0.721852     -0.831383
6
Coordinates from ORCA-job B6_random_3d_seed1004_d3.50_q0_m3_R2SCAN-3C E -148.698977009202
  B      -0.692738     -0.645296      0.798165
  B       0.920193      0.606491      0.397265
  B       0.892684     -0.930396      0.565618
  B      -1.139438      0.236142     -0.487218
  B      -0.124611      1.459129     -0.450163
  B       0.143910     -0.726070     -0.823667
6
Coordinates from ORCA-job B6_random_3d_seed1004_d3.50_q0_m3_R2SCAN-3C E -148.699212164945
  B      -0.695342     -0.646764      0.791469
  B       0.920108      0.622781      0.386465
  B       0.886201     -0.936641      0.572733
  B      -1.126159      0.229810     -0.480378
  B      -0.124572      1.472021     -0.440406
  B       0.139764     -0.741206     -0.829882
6
Coordinates from ORCA-job B6_random_3d_seed1004_d3.50_q0_m3_R2SCAN-3C E -148.699477016661
  B      -0.694478     -0.652624      0.796443
  B       0.915012      0.616294      0.370834
  B       0.885237     -0.940460      0.575003
  B      -1.119285      0.239396     -0.487746
  B      -0.132899      1.484431     -0.434132
  B       0.146413     -0.747037     -0.820401
6
Coordinates from ORCA-job B6_random_3d_seed1004_d3.50_q0_m3_R2SCAN-3C E -148.699667769686
  B      -0.691002     -0.661679      0.794050
  B       0.905476      0.607264      0.355318
  B       0.886185     -0.939140      0.583579
  B      -1.104737      0.246410     -0.490124
  B      -0.140374      1.512924     -0.427335
  B       0.144452     -0.765779     -0.815487
6
Coordinates from ORCA-job B6_random_3d_seed1004_d3.50_q0_m3_R2SCAN-3C E -148.699823166515
  B      -0.694245     -0.674076      0.799384
  B       0.887139      0.597134      0.323628
  B       0.883165     -0.939099      0.593207
  B      -1.072676      0.251821     -0.490847
  B      -0.149327      1.544036     -0.415294
  B       0.145945     -0.779815     -0.810078
6
Coordinates from ORCA-job B6_random_3d_seed1004_d3.50_q0_m3_R2SCAN-3C E -148.699968376533
  B      -0.693208     -0.687827      0.794984
  B       0.867188      0.596696      0.307163
  B       0.880804     -0.942483      0.594611
  B      -1.046901      0.260651     -0.482578
  B      -0.154224      1.577048     -0.413873
  B       0.146342     -0.804085     -0.800307
6
Coordinates from ORCA-job B6_random_3d_seed1004_d3.50_q0_m3_R2SCAN-3C E -148.700099724228
  B      -0.687608     -0.696064      0.796856
  B       0.846960      0.597186      0.303992
  B       0.880886     -0.949728      0.595782
  B      -1.034504      0.266093     -0.476065
  B      -0.152119      1.593473     -0.421086
  B       0.146386     -0.810959     -0.799479
6
Coordinates from ORCA-job B6_random_3d_seed1004_d3.50_q0_m3_R2SCAN-3C E -148.700220551367
  B      -0.688839     -0.703225      0.800078
  B       0.838137      0.601150      0.314385
  B       0.882482     -0.953918      0.589130
  B      -1.035752      0.269195     -0.466038
  B      -0.144858      1.589047     -0.437848
  B       0.148830     -0.802249     -0.799707
6
Coordinates from ORCA-job B6_random_3d_seed1004_d3.50_q0_m3_R2SCAN-3C E -148.700329946513
  B      -0.691983     -0.723129      0.801974
  B       0.822541      0.599184      0.316570
  B       0.886169     -0.957877      0.585496
  B      -1.032359      0.276467     -0.451831
  B      -0.135819      1.593506     -0.460646
  B       0.151451     -0.788151     -0.791562
6
Coordinates from ORCA-job B6_random_3d_seed1004_d3.50_q0_m3_R2SCAN-3C E -148.700452110173
  B      -0.697382     -0.743006      0.799672
  B       0.821841      0.598459      0.328050
  B       0.892099     -0.959212      0.582457
  B      -1.048285      0.281766     -0.436679
  B      -0.121948      1.577050     -0.490200
  B       0.153676     -0.755057     -0.783300
6
Coordinates from ORCA-job B6_random_3d_seed1004_d3.50_q0_m3_R2SCAN-3C E -148.700646754066
  B      -0.705088     -0.777147      0.789552
  B       0.821335      0.595856      0.329619
  B       0.897051     -0.960120      0.584537
  B      -1.061343      0.293565     -0.413697
  B      -0.108702      1.565801     -0.525700
  B       0.156748     -0.717955     -0.764311
6
Coordinates from ORCA-job B6_random_3d_seed1004_d3.50_q0_m3_R2SCAN-3C E -148.701262499584
  B      -0.713524     -0.823548      0.762798
  B       0.840779      0.591240      0.329859
  B       0.902847     -0.961364      0.595703
  B      -1.094096      0.310179     -0.383853
  B      -0.094706      1.536754     -0.573567
  B       0.158700     -0.653261     -0.730941
6
Coordinates from ORCA-job B6_random_3d_seed1004_d3.50_q0_m3_R2SCAN-3C E -148.701699362983
  B      -0.716597     -0.860883      0.733386
  B       0.857106      0.583027      0.333872
  B       0.913807     -0.971845      0.606363
  B      -1.131082      0.328898     -0.357576
  B      -0.083508      1.494759     -0.624037
  B       0.160275     -0.573957     -0.692008
6
Coordinates from ORCA-job B6_random_3d_seed1004_d3.50_q0_m3_R2SCAN-3C E -148.703035561153
  B      -0.702996     -0.846222      0.701496
  B       0.915206      0.580366      0.353724
  B       0.927150     -0.981967      0.621167
  B      -1.194360      0.332619     -0.373550
  B      -0.088801      1.424721     -0.629014
  B       0.143801     -0.509517     -0.673822
6
Coordinates from ORCA-job B6_random_3d_seed1004_d3.50_q0_m3_R2SCAN-3C E -148.704219660926
  B      -0.707917     -0.838756      0.681850
  B       0.989860      0.592191      0.386434
  B       0.931569     -0.994577      0.628348
  B      -1.269877      0.326569     -0.374323
  B      -0.086194      1.332883     -0.648694
  B       0.142560     -0.418310     -0.673616
6
Coordinates from ORCA-job B6_random_3d_seed1004_d3.50_q0_m3_R2SCAN-3C E -148.704798858470
  B      -0.701357     -0.836690      0.688541
  B       0.986340      0.578148      0.364786
  B       0.925894     -1.005162      0.648001
  B      -1.265920      0.329512     -0.380825
  B      -0.101200      1.333807     -0.639618
  B       0.156244     -0.399615     -0.680885
6
Coordinates from ORCA-job B6_random_3d_seed1004_d3.50_q0_m3_R2SCAN-3C E -148.703882644931
  B      -0.697464     -0.857014      0.659185
  B       0.991908      0.578328      0.377196
  B       0.928434     -1.002074      0.650305
  B      -1.280757      0.350920     -0.355511
  B      -0.093568      1.275136     -0.675134
  B       0.151446     -0.345296     -0.656040
6
Coordinates from ORCA-job B6_random_3d_seed1004_d3.50_q0_m3_R2SCAN-3C E -148.705527955230
  B      -0.700437     -0.868295      0.673206
  B       0.965996      0.591211      0.383528
  B       0.915312     -0.996997      0.643147
  B      -1.249758      0.352947     -0.335786
  B      -0.089807      1.306002     -0.682528
  B       0.158694     -0.384868     -0.681568
6
Coordinates from ORCA-job B6_random_3d_seed1004_d3.50_q0_m3_R2SCAN-3C E -148.707636571815
  B      -0.690846     -0.889201      0.673599
  B       0.942934      0.602281      0.394988
  B       0.894853     -1.011215      0.648677
  B      -1.252493      0.365556     -0.290864
  B      -0.080238      1.301340     -0.724966
  B       0.185790     -0.368762     -0.701433
6
Coordinates from ORCA-job B6_random_3d_seed1004_d3.50_q0_m3_R2SCAN-3C E -148.708040343074
  B      -0.677278     -0.928348      0.659329
  B       0.892146      0.632256      0.417132
  B       0.849196     -1.035848      0.651388
  B      -1.241022      0.396382     -0.187704
  B      -0.066311      1.265907     -0.810991
  B       0.243270     -0.330349     -0.729154
6
Coordinates from ORCA-job B6_random_3d_seed1004_d3.50_q0_m3_R2SCAN-3C E -148.709363629269
  B      -0.692646     -0.915705      0.653314
  B       0.902278      0.626060      0.412733
  B       0.872303     -1.019722      0.641876
  B      -1.237203      0.389451     -0.211388
  B      -0.070300      1.283194     -0.786755
  B       0.225569     -0.363279     -0.709780
6
Coordinates from ORCA-job B6_random_3d_seed1004_d3.50_q0_m3_R2SCAN-3C E -148.709493394760
  B      -0.694487     -0.908687      0.646633
  B       0.929646      0.626300      0.406353
  B       0.871168     -1.021259      0.650143
  B      -1.250048      0.385193     -0.223830
  B      -0.079985      1.268756     -0.772082
  B       0.223706     -0.350302     -0.707218
6
Coordinates from ORCA-job B6_random_3d_seed1004_d3.50_q0_m3_R2SCAN-3C E -148.709663176171
  B      -0.691269     -0.922247      0.640501
  B       0.912342      0.631617      0.409717
  B       0.870389     -1.019920      0.651485
  B      -1.236268      0.396745     -0.208452
  B      -0.074669      1.267035     -0.785696
  B       0.219475     -0.353230     -0.707554
6
Coordinates from ORCA-job B6_random_3d_seed1004_d3.50_q0_m3_R2SCAN-3C E -148.709695641161
  B      -0.691541     -0.920935      0.633296
  B       0.907949      0.632616      0.408110
  B       0.869081     -1.020309      0.651612
  B      -1.235895      0.397451     -0.199051
  B      -0.073607      1.265388     -0.789798
  B       0.224012     -0.354211     -0.704169
6
Coordinates from ORCA-job B6_random_3d_seed1004_d3.50_q0_m3_R2SCAN-3C E -148.709708046663
  B      -0.692126     -0.922207      0.632909
  B       0.911162      0.633076      0.407614
  B       0.869759     -1.019231      0.653431
  B      -1.236327      0.397251     -0.201033
  B      -0.073693      1.264988     -0.787837
  B       0.221225     -0.353876     -0.705084
6
Coordinates from ORCA-job B6_random_3d_seed1004_d3.50_q0_m3_R2SCAN-3C E -148.709709635268
  B      -0.691893     -0.922424      0.632331
  B       0.911488      0.632791      0.406546
  B       0.869913     -1.018906      0.654688
  B      -1.236399      0.397282     -0.201405
  B      -0.073673      1.265336     -0.786810
  B       0.220564     -0.354079     -0.705350
6
Coordinates from ORCA-job B6_random_3d_seed1004_d3.50_q0_m3_R2SCAN-3C E -148.709710124483
  B      -0.691938     -0.922816      0.631703
  B       0.911543      0.632958      0.406183
  B       0.870037     -1.018619      0.655385
  B      -1.236726      0.397434     -0.200878
  B      -0.073225      1.265195     -0.786680
  B       0.220309     -0.354153     -0.705712
6
Coordinates from ORCA-job B6_random_3d_seed1004_d3.50_q0_m3_R2SCAN-3C E -148.709710192253
  B      -0.691823     -0.922695      0.631725
  B       0.911257      0.632902      0.406169
  B       0.870073     -1.018678      0.655338
  B      -1.236786      0.397544     -0.200821
  B      -0.073177      1.265165     -0.786662
  B       0.220456     -0.354239     -0.705750
