6
Coordinates from ORCA-job B6_random_3d_seed1004_d3.50_q0_m3_R2SCAN-3C E -148.709710192253
  B          -0.69182286570664     -0.92269457984477      0.63172506121082
  B           0.91125737222184      0.63290202712962      0.40616916225277
  B           0.87007261556528     -1.01867781963273      0.65533849053167
  B          -1.23678614682173      0.39754426984649     -0.20082088363958
  B          -0.07317704574266      1.26516545308001     -0.78666221954769
  B           0.22045608048390     -0.35423935057861     -0.70574962080798
