6
Coordinates from ORCA-job B6_random_3d_seed1004_d2.20_q0_m5_R2SCAN-3C E -148.669763075780
  B          -0.58616831089733     -0.83737165395018      0.69256490146998
  B           0.77568606311995      0.58583229061368      0.30478951301709
  B           1.01076741245417     -0.91151011316193      0.81489332410295
  B          -1.16877060943360      0.36978076477774     -0.14575900572141
  B          -0.09521655371913      1.38019110234629     -0.77607922225840
  B           0.06370199847593     -0.58692239062560     -0.89040951061021
