6
Coordinates from ORCA-job B6_random_3d_seed1004_d2.20_q0_m5_R2SCAN-3C E -148.363769641812
  B      -0.665284     -0.601684      1.341603
  B       1.030102      0.937415      1.020253
  B       1.135437     -1.181509      0.466820
  B      -1.526947      0.119852     -0.507963
  B       0.013358      1.496804     -0.916684
  B       0.013335     -0.770877     -1.404029
6
Coordinates from ORCA-job B6_random_3d_seed1004_d2.20_q0_m5_R2SCAN-3C E -148.395692658674
  B      -0.648944     -0.594157      1.306493
  B       1.014204      0.908523      0.996810
  B       1.110689     -1.150477      0.466550
  B      -1.485932      0.122121     -0.502522
  B       0.002131      1.467245     -0.900218
  B       0.007852     -0.753255     -1.367113
6
Coordinates from ORCA-job B6_random_3d_seed1004_d2.20_q0_m5_R2SCAN-3C E -148.428230833932
  B      -0.633506     -0.586804      1.269954
  B       0.999273      0.878658      0.972769
  B       1.087215     -1.119297      0.466947
  B      -1.445699      0.125481     -0.497019
  B      -0.010272      1.438413     -0.883653
  B       0.002989     -0.736452     -1.328999
6
Coordinates from ORCA-job B6_random_3d_seed1004_d2.20_q0_m5_R2SCAN-3C E -148.476647675041
  B      -0.612223     -0.574348      1.214077
  B       0.977142      0.831274      0.935632
  B       1.054392     -1.071453      0.467067
  B      -1.388211      0.132694     -0.487463
  B      -0.029898      1.394307     -0.858023
  B      -0.001201     -0.712475     -1.271291
6
Coordinates from ORCA-job B6_random_3d_seed1004_d2.20_q0_m5_R2SCAN-3C E -148.543483737063
  B      -0.584427     -0.558620      1.124546
  B       0.950234      0.755460      0.880339
  B       1.009163     -0.998628      0.468125
  B      -1.306047      0.149915     -0.472775
  B      -0.066485      1.335359     -0.823279
  B      -0.002437     -0.683486     -1.176956
6
Coordinates from ORCA-job B6_random_3d_seed1004_d2.20_q0_m5_R2SCAN-3C E -148.593210469149
  B      -0.567059     -0.540085      1.028867
  B       0.917846      0.674079      0.816664
  B       0.971308     -0.927183      0.460329
  B      -1.233342      0.178479     -0.444973
  B      -0.104901      1.275827     -0.788719
  B       0.016146     -0.661117     -1.072167
6
Coordinates from ORCA-job B6_random_3d_seed1004_d2.20_q0_m5_R2SCAN-3C E -148.613964173316
  B      -0.568282     -0.529354      0.921060
  B       0.868381      0.610324      0.732792
  B       0.948916     -0.879668      0.438629
  B      -1.191571      0.206619     -0.388334
  B      -0.117273      1.239549     -0.760834
  B       0.059828     -0.647470     -0.943313
6
Coordinates from ORCA-job B6_random_3d_seed1004_d2.20_q0_m5_R2SCAN-3C E -148.627398725387
  B      -0.559258     -0.557909      0.880955
  B       0.808100      0.617319      0.666524
  B       0.967425     -0.915396      0.446543
  B      -1.190145      0.249330     -0.360341
  B      -0.108832      1.241154     -0.761297
  B       0.082710     -0.634499     -0.872384
6
Coordinates from ORCA-job B6_random_3d_seed1004_d2.20_q0_m5_R2SCAN-3C E -148.642789753493
  B      -0.553838     -0.590702      0.857870
  B       0.752586      0.609870      0.588674
  B       1.008489     -0.967645      0.484106
  B      -1.214289      0.289331     -0.338967
  B      -0.100653      1.267875     -0.773846
  B       0.107704     -0.608729     -0.817837
6
Coordinates from ORCA-job B6_random_3d_seed1004_d2.20_q0_m5_R2SCAN-3C E -148.649622014278
  B      -0.564056     -0.613741      0.839594
  B       0.724668      0.616337      0.528407
  B       1.030536     -0.992277      0.515861
  B      -1.227315      0.304603     -0.313115
  B      -0.085631      1.280642     -0.769452
  B       0.121798     -0.595564     -0.801295
6
Coordinates from ORCA-job B6_random_3d_seed1004_d2.20_q0_m5_R2SCAN-3C E -148.655505217044
  B      -0.563806     -0.667280      0.801560
  B       0.696572      0.626939      0.440077
  B       1.038314     -1.003610      0.572580
  B      -1.231591      0.329780     -0.275748
  B      -0.066269      1.297552     -0.759130
  B       0.126779     -0.583382     -0.779340
6
Coordinates from ORCA-job B6_random_3d_seed1004_d2.20_q0_m5_R2SCAN-3C E -148.659264115750
  B      -0.576131     -0.745728      0.786154
  B       0.722454      0.636028      0.384992
  B       1.054540     -1.025568      0.672148
  B      -1.245521      0.339646     -0.239378
  B      -0.066718      1.369863     -0.792189
  B       0.111375     -0.574242     -0.811727
6
Coordinates from ORCA-job B6_random_3d_seed1004_d2.20_q0_m5_R2SCAN-3C E -148.664401884570
  B      -0.577483     -0.773661      0.731214
  B       0.718182      0.622329      0.355406
  B       1.039683     -0.991990      0.707614
  B      -1.201480      0.343302     -0.196766
  B      -0.069913      1.379636     -0.795002
  B       0.091013     -0.579615     -0.802465
6
Coordinates from ORCA-job B6_random_3d_seed1004_d2.20_q0_m5_R2SCAN-3C E -148.667623787395
  B      -0.577860     -0.804155      0.716122
  B       0.731356      0.590985      0.360328
  B       1.022125     -0.932939      0.728099
  B      -1.155377      0.372175     -0.184608
  B      -0.092442      1.366404     -0.788937
  B       0.072198     -0.592469     -0.831004
6
Coordinates from ORCA-job B6_random_3d_seed1004_d2.20_q0_m5_R2SCAN-3C E -148.669114158183
  B      -0.594109     -0.835320      0.706858
  B       0.738558      0.606806      0.328536
  B       1.011932     -0.908382      0.759736
  B      -1.144857      0.364324     -0.153447
  B      -0.074867      1.388538     -0.778139
  B       0.063343     -0.615967     -0.863544
6
Coordinates from ORCA-job B6_random_3d_seed1004_d2.20_q0_m5_R2SCAN-3C E -148.669463310348
  B      -0.589681     -0.836907      0.707511
  B       0.746428      0.600810      0.324578
  B       1.014836     -0.917115      0.776248
  B      -1.150131      0.369766     -0.156226
  B      -0.085630      1.396335     -0.781507
  B       0.064178     -0.612889     -0.870604
6
Coordinates from ORCA-job B6_random_3d_seed1004_d2.20_q0_m5_R2SCAN-3C E -148.669609282975
  B      -0.590064     -0.833928      0.702620
  B       0.755222      0.595252      0.320042
  B       1.017110     -0.914961      0.787671
  B      -1.153439      0.372197     -0.156723
  B      -0.092271      1.395547     -0.775711
  B       0.063441     -0.614108     -0.877899
6
Coordinates from ORCA-job B6_random_3d_seed1004_d2.20_q0_m5_R2SCAN-3C E -148.669709555922
  B      -0.586761     -0.833948      0.696569
  B       0.763986      0.589702      0.308919
  B       1.015436     -0.913255      0.801581
  B      -1.160797      0.373634     -0.155657
  B      -0.095854      1.396409     -0.769472
  B       0.063991     -0.612541     -0.881940
6
Coordinates from ORCA-job B6_random_3d_seed1004_d2.20_q0_m5_R2SCAN-3C E -148.669737777953
  B      -0.587754     -0.830954      0.695145
  B       0.770420      0.587282      0.303604
  B       1.013863     -0.913443      0.805366
  B      -1.165891      0.370618     -0.155014
  B      -0.097489      1.394859     -0.766613
  B       0.066851     -0.608363     -0.882488
6
Coordinates from ORCA-job B6_random_3d_seed1004_d2.20_q0_m5_R2SCAN-3C E -148.669747129941
  B      -0.588162     -0.831671      0.695358
  B       0.772644      0.587228      0.301151
  B       1.011769     -0.913318      0.806095
  B      -1.166783      0.369907     -0.154201
  B      -0.097859      1.392738     -0.766284
  B       0.068390     -0.604883     -0.882118
6
Coordinates from ORCA-job B6_random_3d_seed1004_d2.20_q0_m5_R2SCAN-3C E -148.669752382868
  B      -0.589121     -0.832891      0.695986
  B       0.774768      0.587533      0.300581
  B       1.010008     -0.913321      0.805973
  B      -1.167009      0.368948     -0.153003
  B      -0.098139      1.390849     -0.767719
  B       0.069494     -0.601119     -0.881816
6
Coordinates from ORCA-job B6_random_3d_seed1004_d2.20_q0_m5_R2SCAN-3C E -148.669754561038
  B      -0.589757     -0.834044      0.696054
  B       0.775700      0.587998      0.300872
  B       1.009535     -0.913433      0.806256
  B      -1.166924      0.368942     -0.151933
  B      -0.098258      1.389288     -0.769187
  B       0.069704     -0.598751     -0.882062
6
Coordinates from ORCA-job B6_random_3d_seed1004_d2.20_q0_m5_R2SCAN-3C E -148.669756312964
  B      -0.589866     -0.835188      0.695518
  B       0.776252      0.588128      0.301597
  B       1.009353     -0.913157      0.807041
  B      -1.167035      0.369295     -0.150503
  B      -0.098107      1.387745     -0.770808
  B       0.069404     -0.596823     -0.882845
6
Coordinates from ORCA-job B6_random_3d_seed1004_d2.20_q0_m5_R2SCAN-3C E -148.669758505053
  B      -0.589570     -0.836577      0.694184
  B       0.776541      0.588026      0.302683
  B       1.009510     -0.912738      0.808819
  B      -1.167523      0.370146     -0.148125
  B      -0.097662      1.385056     -0.773138
  B       0.068704     -0.593914     -0.884424
6
Coordinates from ORCA-job B6_random_3d_seed1004_d2.20_q0_m5_R2SCAN-3C E -148.669759948318
  B      -0.588852     -0.837231      0.692986
  B       0.776280      0.587552      0.303498
  B       1.009807     -0.912288      0.810440
  B      -1.168118      0.370818     -0.146355
  B      -0.097066      1.383010     -0.774659
  B       0.067949     -0.591860     -0.885911
6
Coordinates from ORCA-job B6_random_3d_seed1004_d2.20_q0_m5_R2SCAN-3C E -148.669760868522
  B      -0.588068     -0.837203      0.692336
  B       0.775760      0.587012      0.303894
  B       1.010151     -0.912057      0.811605
  B      -1.168550      0.371075     -0.145578
  B      -0.096554      1.381920     -0.775235
  B       0.067261     -0.590747     -0.887021
6
Coordinates from ORCA-job B6_random_3d_seed1004_d2.20_q0_m5_R2SCAN-3C E -148.669761562077
  B      -0.587388     -0.836987      0.692167
  B       0.775364      0.586528      0.304091
  B       1.010405     -0.911907      0.812457
  B      -1.168783      0.370954     -0.145443
  B      -0.096132      1.381393     -0.775366
  B       0.066534     -0.589981     -0.887905
6
Coordinates from ORCA-job B6_random_3d_seed1004_d2.20_q0_m5_R2SCAN-3C E -148.669762341354
  B      -0.586625     -0.836863      0.692221
  B       0.775151      0.586017      0.304357
  B       1.010653     -0.911738      0.813577
  B      -1.168928      0.370531     -0.145509
  B      -0.095627      1.380785     -0.775561
  B       0.065376     -0.588732     -0.889085
6
Coordinates from ORCA-job B6_random_3d_seed1004_d2.20_q0_m5_R2SCAN-3C E -148.669762887225
  B      -0.586208     -0.836904      0.692544
  B       0.775282      0.585809      0.304594
  B       1.010781     -0.911656      0.814327
  B      -1.168874      0.369981     -0.145850
  B      -0.095314      1.380532     -0.775684
  B       0.064334     -0.587761     -0.889931
6
Coordinates from ORCA-job B6_random_3d_seed1004_d2.20_q0_m5_R2SCAN-3C E -148.669763063271
  B      -0.586107     -0.837271      0.692581
  B       0.775602      0.585782      0.304781
  B       1.010767     -0.911524      0.814868
  B      -1.168809      0.369768     -0.145773
  B      -0.095189      1.380180     -0.776038
  B       0.063736     -0.586935     -0.890420
6
Coordinates from ORCA-job B6_random_3d_seed1004_d2.20_q0_m5_R2SCAN-3C E -148.669763075780
  B      -0.586168     -0.837372      0.692565
  B       0.775686      0.585832      0.304790
  B       1.010767     -0.911510      0.814893
  B      -1.168771      0.369781     -0.145759
  B      -0.095217      1.380191     -0.776079
  B       0.063702     -0.586922     -0.890410
