6
Coordinates from ORCA-job B6_compact_planar_triangle_d2.20_q0_m3_R2SCAN-3C E -148.661215647205
  B          -1.63958285227551     -0.95029592959750      0.00001179357216
  B          -0.00007035612672     -0.99295755518075     -0.00005277104785
  B           1.63973432178353     -0.95041075218462      0.00001443654432
  B          -0.83927587741937      0.49171460493573      0.00003023309103
  B           0.83921992746117      0.49176058157554      0.00002506613289
  B          -0.00002516342310      1.91018906045160     -0.00002875829254
