6
Coordinates from ORCA-job B6_compact_planar_triangle_d2.20_q0_m3_R2SCAN-3C E -148.335973188805
  B      -2.200000     -1.270171      0.000000
  B       0.000000     -1.270171      0.000000
  B       2.200000     -1.270171      0.000000
  B      -1.100000      0.635085      0.000000
  B       1.100000      0.635085      0.000000
  B       0.000000      2.540341      0.000000
6
Coordinates from ORCA-job B6_compact_planar_triangle_d2.20_q0_m3_R2SCAN-3C E -148.369603367222
  B      -2.142497     -1.243469      0.000000
  B       0.000000     -1.246139     -0.000000
  B       2.142495     -1.243467      0.000000
  B      -1.065598      0.616309     -0.000000
  B       1.065599      0.616309     -0.000000
  B       0.000001      2.500457      0.000000
6
Coordinates from ORCA-job B6_compact_planar_triangle_d2.20_q0_m3_R2SCAN-3C E -148.419041232482
  B      -2.083892     -1.217315      0.000000
  B       0.000003     -1.223009     -0.000000
  B       2.083863     -1.217287      0.000000
  B      -1.030927      0.597339     -0.000000
  B       1.030936      0.597359     -0.000000
  B       0.000018      2.462913      0.000000
6
Coordinates from ORCA-job B6_compact_planar_triangle_d2.20_q0_m3_R2SCAN-3C E -148.479398002865
  B      -1.989700     -1.167923     -0.000000
  B       0.000007     -1.196989     -0.000000
  B       1.989667     -1.167896      0.000000
  B      -0.998282      0.580146      0.000000
  B       0.998291      0.580171      0.000000
  B       0.000018      2.372491     -0.000000
6
Coordinates from ORCA-job B6_compact_planar_triangle_d2.20_q0_m3_R2SCAN-3C E -148.518580479398
  B      -1.926791     -1.134360      0.000000
  B       0.000007     -1.180803     -0.000000
  B       1.926757     -1.134334      0.000000
  B      -0.977436      0.569271      0.000000
  B       0.977445      0.569297      0.000000
  B       0.000018      2.310929     -0.000000
6
Coordinates from ORCA-job B6_compact_planar_triangle_d2.20_q0_m3_R2SCAN-3C E -148.573933488141
  B      -1.834248     -1.084162      0.000000
  B       0.000007     -1.153582     -0.000000
  B       1.834217     -1.084138      0.000000
  B      -0.945463      0.552244      0.000000
  B       0.945470      0.552269      0.000000
  B       0.000017      2.217369     -0.000000
6
Coordinates from ORCA-job B6_compact_planar_triangle_d2.20_q0_m3_R2SCAN-3C E -148.637679376119
  B      -1.704195     -1.006540      0.000000
  B       0.000004     -1.106957     -0.000000
  B       1.704178     -1.006529      0.000000
  B      -0.895691      0.525334      0.000000
  B       0.895694      0.525354      0.000000
  B       0.000011      2.069338     -0.000000
6
Coordinates from ORCA-job B6_compact_planar_triangle_d2.20_q0_m3_R2SCAN-3C E -148.659702147414
  B      -1.615923     -0.930029      0.000000
  B      -0.000002     -1.043995     -0.000000
  B       1.615926     -0.930035      0.000000
  B      -0.837991      0.498812      0.000000
  B       0.837991      0.498820      0.000000
  B      -0.000001      1.906427     -0.000000
6
Coordinates from ORCA-job B6_compact_planar_triangle_d2.20_q0_m3_R2SCAN-3C E -148.660963712352
  B      -1.639573     -0.940835      0.000001
  B       0.000003     -1.019835     -0.000002
  B       1.639560     -0.940822      0.000001
  B      -0.831055      0.490902     -0.000000
  B       0.831062      0.490898     -0.000000
  B       0.000002      1.919692      0.000000
6
Coordinates from ORCA-job B6_compact_planar_triangle_d2.20_q0_m3_R2SCAN-3C E -148.661174909383
  B      -1.641930     -0.945938      0.000002
  B      -0.000010     -1.000935     -0.000004
  B       1.641952     -0.945955      0.000002
  B      -0.834582      0.489892      0.000001
  B       0.834574      0.489898      0.000001
  B      -0.000005      1.913039     -0.000001
6
Coordinates from ORCA-job B6_compact_planar_triangle_d2.20_q0_m3_R2SCAN-3C E -148.661214646797
  B      -1.639624     -0.951297      0.000003
  B       0.000028     -0.992575     -0.000011
  B       1.639561     -0.951249      0.000003
  B      -0.839295      0.492003      0.000005
  B       0.839319      0.491985      0.000005
  B       0.000011      1.911133     -0.000005
6
Coordinates from ORCA-job B6_compact_planar_triangle_d2.20_q0_m3_R2SCAN-3C E -148.661215478641
  B      -1.639970     -0.949933      0.000006
  B      -0.000057     -0.992890     -0.000022
  B       1.640104     -0.950047      0.000006
  B      -0.839430      0.491581      0.000011
  B       0.839386      0.491619      0.000010
  B      -0.000033      1.909671     -0.000011
6
Coordinates from ORCA-job B6_compact_planar_triangle_d2.20_q0_m3_R2SCAN-3C E -148.661215655365
  B      -1.639768     -0.950314      0.000008
  B       0.000060     -0.992970     -0.000032
  B       1.639633     -0.950212      0.000009
  B      -0.839202      0.491742      0.000017
  B       0.839255      0.491706      0.000015
  B       0.000022      1.910049     -0.000017
6
Coordinates from ORCA-job B6_compact_planar_triangle_d2.20_q0_m3_R2SCAN-3C E -148.661215647205
  B      -1.639583     -0.950296      0.000012
  B      -0.000070     -0.992958     -0.000053
  B       1.639734     -0.950411      0.000014
  B      -0.839276      0.491715      0.000030
  B       0.839220      0.491761      0.000025
  B      -0.000025      1.910189     -0.000029
