6
Coordinates from ORCA-job B6_random_3d_seed1002_d2.00_q0_m1_R2SCAN-3C E -148.489136581151
  B       0.512500     -0.574993     -1.254865
  B       0.989093      1.227348     -0.366177
  B      -1.022985      0.625610     -0.928079
  B       0.176493     -1.427193      0.506139
  B       0.603473      0.174825      1.388593
  B      -1.258573     -0.025597      0.654389
6
Coordinates from ORCA-job B6_random_3d_seed1002_d2.00_q0_m1_R2SCAN-3C E -148.520102690428
  B       0.488364     -0.547353     -1.233950
  B       0.954562      1.189412     -0.352754
  B      -0.979466      0.602285     -0.920912
  B       0.166318     -1.379575      0.502140
  B       0.601246      0.167106      1.361293
  B      -1.231025     -0.031875      0.644183
6
Coordinates from ORCA-job B6_random_3d_seed1002_d2.00_q0_m1_R2SCAN-3C E -148.548376719590
  B       0.462466     -0.515726     -1.217508
  B       0.922874      1.151851     -0.339390
  B      -0.935606      0.577632     -0.916266
  B       0.156116     -1.332149      0.503649
  B       0.600534      0.158218      1.334969
  B      -1.206383     -0.039826      0.634544
6
Coordinates from ORCA-job B6_random_3d_seed1002_d2.00_q0_m1_R2SCAN-3C E -148.582735504912
  B       0.426307     -0.462445     -1.196953
  B       0.878289      1.090038     -0.318284
  B      -0.874937      0.544421     -0.912953
  B       0.140495     -1.263089      0.513826
  B       0.601871      0.146921      1.293618
  B      -1.172025     -0.055846      0.620747
6
Coordinates from ORCA-job B6_random_3d_seed1002_d2.00_q0_m1_R2SCAN-3C E -148.606738011682
  B       0.399253     -0.377130     -1.173506
  B       0.834448      0.978704     -0.281964
  B      -0.825297      0.515113     -0.908217
  B       0.115615     -1.168964      0.543611
  B       0.609518      0.146482      1.220091
  B      -1.133537     -0.094205      0.599984
6
Coordinates from ORCA-job B6_random_3d_seed1002_d2.00_q0_m1_R2SCAN-3C E -148.614204669509
  B       0.436680     -0.327677     -1.171850
  B       0.850049      0.904871     -0.263617
  B      -0.868294      0.519892     -0.902177
  B       0.093116     -1.146388      0.568304
  B       0.625814      0.173952      1.176912
  B      -1.137364     -0.124649      0.592428
6
Coordinates from ORCA-job B6_random_3d_seed1002_d2.00_q0_m1_R2SCAN-3C E -148.623528426075
  B       0.458654     -0.264056     -1.218817
  B       0.910388      0.876227     -0.261083
  B      -0.908046      0.503157     -0.900196
  B       0.044664     -1.151517      0.622155
  B       0.643495      0.204817      1.167038
  B      -1.149155     -0.168628      0.590903
6
Coordinates from ORCA-job B6_random_3d_seed1002_d2.00_q0_m1_R2SCAN-3C E -148.634907734299
  B       0.475303     -0.191768     -1.291459
  B       0.989202      0.854516     -0.260242
  B      -0.948850      0.476716     -0.886947
  B       0.016090     -1.170718      0.697774
  B       0.653801      0.228842      1.161573
  B      -1.185545     -0.197589      0.579301
6
Coordinates from ORCA-job B6_random_3d_seed1002_d2.00_q0_m1_R2SCAN-3C E -148.646259929325
  B       0.466573     -0.106967     -1.361356
  B       1.045793      0.825025     -0.256593
  B      -0.955824      0.442541     -0.870412
  B      -0.009093     -1.176126      0.787393
  B       0.659700      0.239548      1.148549
  B      -1.207149     -0.224021      0.552418
6
Coordinates from ORCA-job B6_random_3d_seed1002_d2.00_q0_m1_R2SCAN-3C E -148.657150137619
  B       0.458037     -0.041382     -1.425757
  B       1.060898      0.814675     -0.274413
  B      -0.935148      0.422989     -0.865384
  B      -0.021889     -1.188630      0.873014
  B       0.652170      0.223886      1.154601
  B      -1.214067     -0.231537      0.537938
6
Coordinates from ORCA-job B6_random_3d_seed1002_d2.00_q0_m1_R2SCAN-3C E -148.665403480954
  B       0.456706     -0.002985     -1.482858
  B       1.039243      0.805631     -0.273096
  B      -0.904830      0.418465     -0.869174
  B      -0.031251     -1.199181      0.935341
  B       0.643494      0.208966      1.148389
  B      -1.203363     -0.230896      0.541398
6
Coordinates from ORCA-job B6_random_3d_seed1002_d2.00_q0_m1_R2SCAN-3C E -148.670601560077
  B       0.468587      0.022516     -1.519137
  B       1.016266      0.796030     -0.282766
  B      -0.884082      0.420531     -0.864137
  B      -0.039885     -1.207052      0.974351
  B       0.632344      0.200100      1.142927
  B      -1.193230     -0.232125      0.548762
6
Coordinates from ORCA-job B6_random_3d_seed1002_d2.00_q0_m1_R2SCAN-3C E -148.677511608288
  B       0.478940      0.060353     -1.574862
  B       0.989485      0.784959     -0.286888
  B      -0.857296      0.417196     -0.856791
  B      -0.056826     -1.218305      1.033279
  B       0.622869      0.189472      1.132876
  B      -1.177172     -0.233674      0.552386
6
Coordinates from ORCA-job B6_random_3d_seed1002_d2.00_q0_m1_R2SCAN-3C E -148.685155545125
  B       0.488441      0.124713     -1.634461
  B       0.968478      0.768152     -0.300170
  B      -0.828149      0.401576     -0.847018
  B      -0.086618     -1.224240      1.116494
  B       0.618617      0.172459      1.116585
  B      -1.160769     -0.242660      0.548570
6
Coordinates from ORCA-job B6_random_3d_seed1002_d2.00_q0_m1_R2SCAN-3C E -148.692800312673
  B       0.488802      0.214116     -1.692075
  B       0.964935      0.749839     -0.310244
  B      -0.805503      0.369486     -0.843059
  B      -0.129228     -1.213118      1.223793
  B       0.625162      0.142087      1.088503
  B      -1.144168     -0.262410      0.533081
6
Coordinates from ORCA-job B6_random_3d_seed1002_d2.00_q0_m1_R2SCAN-3C E -148.698772277046
  B       0.492686      0.283718     -1.744865
  B       0.963400      0.743771     -0.330263
  B      -0.785483      0.353056     -0.852498
  B      -0.163378     -1.212130      1.314915
  B       0.626837      0.113711      1.078094
  B      -1.134062     -0.282126      0.534617
6
Coordinates from ORCA-job B6_random_3d_seed1002_d2.00_q0_m1_R2SCAN-3C E -148.702286818238
  B       0.493480      0.335173     -1.772607
  B       0.972799      0.737374     -0.340372
  B      -0.780124      0.340114     -0.864044
  B      -0.184859     -1.207765      1.381469
  B       0.632689      0.094277      1.063783
  B      -1.133984     -0.299172      0.531770
6
Coordinates from ORCA-job B6_random_3d_seed1002_d2.00_q0_m1_R2SCAN-3C E -148.704250980380
  B       0.493297      0.369546     -1.788549
  B       0.977252      0.733971     -0.348192
  B      -0.773460      0.330532     -0.869182
  B      -0.200810     -1.199137      1.423573
  B       0.632857      0.077152      1.051358
  B      -1.129136     -0.312065      0.530993
6
Coordinates from ORCA-job B6_random_3d_seed1002_d2.00_q0_m1_R2SCAN-3C E -148.706701616113
  B       0.490924      0.420993     -1.806710
  B       0.986607      0.728323     -0.359013
  B      -0.763270      0.312976     -0.873817
  B      -0.224134     -1.183363      1.483774
  B       0.634016      0.052116      1.029119
  B      -1.124142     -0.331046      0.526647
6
Coordinates from ORCA-job B6_random_3d_seed1002_d2.00_q0_m1_R2SCAN-3C E -148.709358400999
  B       0.485655      0.497143     -1.832975
  B       1.000919      0.721306     -0.375339
  B      -0.741846      0.283319     -0.875744
  B      -0.258841     -1.153493      1.565841
  B       0.631297      0.011836      0.994279
  B      -1.117184     -0.360110      0.523938
6
Coordinates from ORCA-job B6_random_3d_seed1002_d2.00_q0_m1_R2SCAN-3C E -148.711228198071
  B       0.476867      0.584955     -1.853989
  B       1.021856      0.713071     -0.396377
  B      -0.709436      0.243214     -0.871659
  B      -0.295485     -1.112937      1.650855
  B       0.625625     -0.033999      0.948188
  B      -1.119426     -0.394305      0.522982
6
Coordinates from ORCA-job B6_random_3d_seed1002_d2.00_q0_m1_R2SCAN-3C E -148.712208476271
  B       0.468508      0.638221     -1.861016
  B       1.038609      0.712775     -0.407229
  B      -0.680968      0.209889     -0.861897
  B      -0.315746     -1.079440      1.692675
  B       0.618909     -0.067049      0.910970
  B      -1.129313     -0.414396      0.526497
6
Coordinates from ORCA-job B6_random_3d_seed1002_d2.00_q0_m1_R2SCAN-3C E -148.713513961554
  B       0.458256      0.684259     -1.856385
  B       1.056061      0.720121     -0.417949
  B      -0.639130      0.168396     -0.838872
  B      -0.332132     -1.040828      1.718184
  B       0.608467     -0.101385      0.860482
  B      -1.151523     -0.430563      0.534541
6
Coordinates from ORCA-job B6_random_3d_seed1002_d2.00_q0_m1_R2SCAN-3C E -148.715055275060
  B       0.449331      0.705799     -1.843802
  B       1.068558      0.742150     -0.423301
  B      -0.587338      0.127377     -0.800396
  B      -0.340106     -1.007434      1.715699
  B       0.591040     -0.132674      0.801995
  B      -1.181485     -0.435217      0.549804
6
Coordinates from ORCA-job B6_random_3d_seed1002_d2.00_q0_m1_R2SCAN-3C E -148.716114549424
  B       0.450652      0.693352     -1.831112
  B       1.063883      0.774611     -0.422622
  B      -0.552536      0.104183     -0.770878
  B      -0.339911     -1.000934      1.693872
  B       0.580137     -0.150873      0.762775
  B      -1.202224     -0.420339      0.567966
6
Coordinates from ORCA-job B6_random_3d_seed1002_d2.00_q0_m1_R2SCAN-3C E -148.716916860992
  B       0.459114      0.670320     -1.830324
  B       1.047480      0.805043     -0.415326
  B      -0.543673      0.095244     -0.767767
  B      -0.336600     -1.016486      1.678262
  B       0.580560     -0.161538      0.752392
  B      -1.206881     -0.392583      0.582764
6
Coordinates from ORCA-job B6_random_3d_seed1002_d2.00_q0_m1_R2SCAN-3C E -148.717522796278
  B       0.473106      0.656767     -1.840058
  B       1.024865      0.830589     -0.410069
  B      -0.537834      0.087884     -0.773801
  B      -0.337235     -1.039485      1.680154
  B       0.579939     -0.172294      0.745030
  B      -1.202842     -0.363461      0.598744
6
Coordinates from ORCA-job B6_random_3d_seed1002_d2.00_q0_m1_R2SCAN-3C E -148.717613462972
  B       0.476590      0.654621     -1.842287
  B       1.023506      0.835412     -0.406703
  B      -0.543589      0.083266     -0.778029
  B      -0.337845     -1.045665      1.679686
  B       0.580361     -0.171678      0.744823
  B      -1.199022     -0.355956      0.602509
6
Coordinates from ORCA-job B6_random_3d_seed1002_d2.00_q0_m1_R2SCAN-3C E -148.717657011022
  B       0.478174      0.659908     -1.842477
  B       1.022441      0.833362     -0.407184
  B      -0.542781      0.079586     -0.780056
  B      -0.338933     -1.046309      1.685539
  B       0.576019     -0.172070      0.740311
  B      -1.194920     -0.354477      0.603867
6
Coordinates from ORCA-job B6_random_3d_seed1002_d2.00_q0_m1_R2SCAN-3C E -148.717677916836
  B       0.476830      0.661965     -1.840218
  B       1.024768      0.831690     -0.406271
  B      -0.544755      0.077053     -0.782834
  B      -0.338501     -1.045437      1.686782
  B       0.574335     -0.171444      0.739661
  B      -1.192677     -0.353828      0.602881
6
Coordinates from ORCA-job B6_random_3d_seed1002_d2.00_q0_m1_R2SCAN-3C E -148.717688252036
  B       0.475012      0.664648     -1.838136
  B       1.026670      0.831214     -0.406010
  B      -0.543329      0.073947     -0.784238
  B      -0.338517     -1.043326      1.688323
  B       0.571929     -0.172927      0.737249
  B      -1.191766     -0.353557      0.602811
6
Coordinates from ORCA-job B6_random_3d_seed1002_d2.00_q0_m1_R2SCAN-3C E -148.717691383686
  B       0.474219      0.665307     -1.837421
  B       1.026621      0.831176     -0.405557
  B      -0.542836      0.072883     -0.785308
  B      -0.338399     -1.042754      1.688826
  B       0.571988     -0.173799      0.736969
  B      -1.191593     -0.352813      0.602491
6
Coordinates from ORCA-job B6_random_3d_seed1002_d2.00_q0_m1_R2SCAN-3C E -148.717696276750
  B       0.473035      0.667336     -1.837012
  B       1.026286      0.831122     -0.405051
  B      -0.541427      0.070657     -0.786548
  B      -0.338825     -1.041247      1.690022
  B       0.572320     -0.175925      0.736307
  B      -1.191389     -0.351943      0.602281
6
Coordinates from ORCA-job B6_random_3d_seed1002_d2.00_q0_m1_R2SCAN-3C E -148.717704477194
  B       0.471229      0.671265     -1.836794
  B       1.024813      0.830526     -0.404072
  B      -0.539430      0.066662     -0.788717
  B      -0.339909     -1.038653      1.692185
  B       0.573877     -0.179639      0.735841
  B      -1.190581     -0.350161      0.601558
6
Coordinates from ORCA-job B6_random_3d_seed1002_d2.00_q0_m1_R2SCAN-3C E -148.717713349430
  B       0.469252      0.676631     -1.837128
  B       1.022646      0.829220     -0.403079
  B      -0.537426      0.061747     -0.790982
  B      -0.341750     -1.035351      1.694827
  B       0.576387     -0.183990      0.735910
  B      -1.189110     -0.348256      0.600451
6
Coordinates from ORCA-job B6_random_3d_seed1002_d2.00_q0_m1_R2SCAN-3C E -148.717717926379
  B       0.468413      0.679867     -1.837597
  B       1.020969      0.828020     -0.402700
  B      -0.536769      0.058948     -0.791991
  B      -0.343160     -1.033634      1.696056
  B       0.578356     -0.186040      0.736530
  B      -1.187809     -0.347161      0.599702
6
Coordinates from ORCA-job B6_random_3d_seed1002_d2.00_q0_m1_R2SCAN-3C E -148.717718978042
  B       0.468443      0.680404     -1.837893
  B       1.020606      0.827554     -0.402822
  B      -0.537025      0.058594     -0.791996
  B      -0.343586     -1.033621      1.696001
  B       0.578856     -0.185908      0.737130
  B      -1.187294     -0.347023      0.599581
6
Coordinates from ORCA-job B6_random_3d_seed1002_d2.00_q0_m1_R2SCAN-3C E -148.717719622430
  B       0.468516      0.680353     -1.838063
  B       1.020547      0.827277     -0.402966
  B      -0.537338      0.058639     -0.791919
  B      -0.343710     -1.033992      1.695671
  B       0.579038     -0.185357      0.737715
  B      -1.187053     -0.346920      0.599562
6
Coordinates from ORCA-job B6_random_3d_seed1002_d2.00_q0_m1_R2SCAN-3C E -148.717720693931
  B       0.468671      0.679883     -1.838158
  B       1.020942      0.827192     -0.403431
  B      -0.537472      0.058915     -0.791376
  B      -0.343714     -1.034825      1.695020
  B       0.578783     -0.184213      0.738141
  B      -1.187210     -0.346952      0.599804
6
Coordinates from ORCA-job B6_random_3d_seed1002_d2.00_q0_m1_R2SCAN-3C E -148.717723045422
  B       0.468591      0.678926     -1.838527
  B       1.021855      0.826830     -0.404316
  B      -0.537301      0.059372     -0.790338
  B      -0.343603     -1.036778      1.693467
  B       0.578102     -0.181605      0.739427
  B      -1.187644     -0.346745      0.600287
6
Coordinates from ORCA-job B6_random_3d_seed1002_d2.00_q0_m1_R2SCAN-3C E -148.717724679927
  B       0.468069      0.678566     -1.838559
  B       1.022783      0.826659     -0.405016
  B      -0.536561      0.059096     -0.789660
  B      -0.343526     -1.038034      1.692394
  B       0.577631     -0.179942      0.740217
  B      -1.188395     -0.346345      0.600624
6
Coordinates from ORCA-job B6_random_3d_seed1002_d2.00_q0_m1_R2SCAN-3C E -148.717725304253
  B       0.467457      0.678977     -1.838560
  B       1.022949      0.826539     -0.405051
  B      -0.535656      0.058406     -0.789749
  B      -0.343537     -1.038110      1.692321
  B       0.577434     -0.179939      0.740345
  B      -1.188648     -0.345875      0.600694
6
Coordinates from ORCA-job B6_random_3d_seed1002_d2.00_q0_m1_R2SCAN-3C E -148.717725375412
  B       0.467258      0.679110     -1.838420
  B       1.022994      0.826664     -0.405002
  B      -0.535333      0.058119     -0.789804
  B      -0.343518     -1.037936      1.692384
  B       0.577435     -0.180215      0.740149
  B      -1.188836     -0.345742      0.600692
6
Coordinates from ORCA-job B6_random_3d_seed1002_d2.00_q0_m1_R2SCAN-3C E -148.717725384705
  B       0.467337      0.679044     -1.838447
  B       1.022976      0.826658     -0.404977
  B      -0.535470      0.058292     -0.789834
  B      -0.343491     -1.037904      1.692432
  B       0.577455     -0.180231      0.740158
  B      -1.188806     -0.345859      0.600667
