6
Coordinates from ORCA-job B6_random_3d_seed1002_d2.00_q0_m1_R2SCAN-3C E -148.717725384705
  B           0.46733658631300      0.67904391026035     -1.83844663021411
  B           1.02297570487651      0.82665765414142     -0.40497664140716
  B          -0.53547036999117      0.05829244469157     -0.78983411913959
  B          -0.34349117320285     -1.03790417001344      1.69243249796779
  B           0.57745516907636     -0.18023108832460      0.74015824211286
  B          -1.18880590707186     -0.34585876075531      0.60066664068022
