6
Coordinates from ORCA-job FINAL_rank10_B6_rhombic_planar_d3.00_q0_m3_R2SCAN-3C_PBE0_def2-TZVP_OptFreq E -148.631671646722
  B      -1.939220     -0.634916      0.000007
  B      -0.357639     -0.873780      0.000001
  B       1.219902     -0.704213     -0.000004
  B      -1.219902      0.704210      0.000004
  B       0.357644      0.873786     -0.000001
  B       1.939216      0.634912     -0.000007
6
Coordinates from ORCA-job FINAL_rank10_B6_rhombic_planar_d3.00_q0_m3_R2SCAN-3C_PBE0_def2-TZVP_OptFreq E -148.631707484241
  B      -1.936480     -0.634077      0.000007
  B      -0.357479     -0.874952      0.000000
  B       1.219580     -0.704579     -0.000003
  B      -1.219580      0.704576      0.000005
  B       0.357483      0.874958     -0.000001
  B       1.936478      0.634074     -0.000008
6
Coordinates from ORCA-job FINAL_rank10_B6_rhombic_planar_d3.00_q0_m3_R2SCAN-3C_PBE0_def2-TZVP_OptFreq E -148.631768456069
  B      -1.929907     -0.632278      0.000007
  B      -0.357325     -0.879450      0.000001
  B       1.218667     -0.706040     -0.000003
  B      -1.218663      0.706041      0.000004
  B       0.357327      0.879449      0.000000
  B       1.929901      0.632277     -0.000008
6
Coordinates from ORCA-job FINAL_rank10_B6_rhombic_planar_d3.00_q0_m3_R2SCAN-3C_PBE0_def2-TZVP_OptFreq E -148.631776436249
  B      -1.928704     -0.632075      0.000006
  B      -0.357493     -0.881929      0.000001
  B       1.218284     -0.706728     -0.000003
  B      -1.218282      0.706728      0.000005
  B       0.357494      0.881927      0.000000
  B       1.928702      0.632076     -0.000009
6
Coordinates from ORCA-job FINAL_rank10_B6_rhombic_planar_d3.00_q0_m3_R2SCAN-3C_PBE0_def2-TZVP_OptFreq E -148.631793505489
  B      -1.927765     -0.632133      0.000007
  B      -0.358177     -0.888311      0.000003
  B       1.217167     -0.708045     -0.000006
  B      -1.217177      0.708036      0.000002
  B       0.358170      0.888317      0.000001
  B       1.927784      0.632135     -0.000007
6
Coordinates from ORCA-job FINAL_rank10_B6_rhombic_planar_d3.00_q0_m3_R2SCAN-3C_PBE0_def2-TZVP_OptFreq E -148.631802169693
  B      -1.928524     -0.632314      0.000006
  B      -0.358528     -0.889911      0.000003
  B       1.216633     -0.707837     -0.000005
  B      -1.216641      0.707832      0.000003
  B       0.358521      0.889916      0.000001
  B       1.928540      0.632314     -0.000008
6
Coordinates from ORCA-job FINAL_rank10_B6_rhombic_planar_d3.00_q0_m3_R2SCAN-3C_PBE0_def2-TZVP_OptFreq E -148.631805902075
  B      -1.929505     -0.632422      0.000008
  B      -0.358953     -0.890866      0.000002
  B       1.215926     -0.707052     -0.000006
  B      -1.215929      0.707051      0.000001
  B       0.358949      0.890868      0.000001
  B       1.929514      0.632419     -0.000006
6
Coordinates from ORCA-job FINAL_rank10_B6_rhombic_planar_d3.00_q0_m3_R2SCAN-3C_PBE0_def2-TZVP_OptFreq E -148.631806639228
  B      -1.930024     -0.632389      0.000007
  B      -0.359361     -0.891350      0.000002
  B       1.215239     -0.706172     -0.000005
  B      -1.215238      0.706175      0.000002
  B       0.359360      0.891350      0.000001
  B       1.930025      0.632386     -0.000008
6
Coordinates from ORCA-job FINAL_rank10_B6_rhombic_planar_d3.00_q0_m3_R2SCAN-3C_PBE0_def2-TZVP_OptFreq E -148.631806137546
  B      -1.930044     -0.632305      0.000006
  B      -0.359666     -0.891544      0.000002
  B       1.214791     -0.705601     -0.000003
  B      -1.214790      0.705603      0.000003
  B       0.359666      0.891543      0.000002
  B       1.930045      0.632302     -0.000009
6
Coordinates from ORCA-job FINAL_rank10_B6_rhombic_planar_d3.00_q0_m3_R2SCAN-3C_PBE0_def2-TZVP_OptFreq E -148.631808734735
  B      -1.929903     -0.632284      0.000005
  B      -0.359756     -0.891499      0.000003
  B       1.214719     -0.705523     -0.000004
  B      -1.214722      0.705523      0.000003
  B       0.359755      0.891499      0.000002
  B       1.929907      0.632282     -0.000009
6
Coordinates from ORCA-job FINAL_rank10_B6_rhombic_planar_d3.00_q0_m3_R2SCAN-3C_PBE0_def2-TZVP_OptFreq E -148.631807560673
  B      -1.929846     -0.632299      0.000010
  B      -0.359797     -0.891489      0.000002
  B       1.214719     -0.705544     -0.000008
  B      -1.214720      0.705545     -0.000001
  B       0.359797      0.891486      0.000002
  B       1.929847      0.632299     -0.000005
