6
Coordinates from ORCA-job FINAL_rank10_B6_rhombic_planar_d3.00_q0_m3_R2SCAN-3C_PBE0_def2-TZVP_OptFreq E -148.631807560673
  B          -1.92984559927638     -0.63229906634502      0.00001011046758
  B          -0.35979722067090     -0.89148868396252      0.00000218869980
  B           1.21471940972705     -0.70554389169575     -0.00000809428489
  B          -1.21471987335407      0.70554514112115     -0.00000113141896
  B           0.35979720683697      0.89148617405866      0.00000164936056
  B           1.92984707673732      0.63229932682348     -0.00000472282409
