6
Coordinates from ORCA-job B6_compact_planar_triangle_d2.00_q0_m1_R2SCAN-3C E -148.630568482385
  B          -1.69339279873687     -0.97773902304094      0.00000000145725
  B          -0.00000000001927     -0.92919519619937     -0.00000000138349
  B           1.69339279617365     -0.97773901247200      0.00000000115740
  B          -0.80476590395661      0.46466072598726     -0.00000000155421
  B           0.80476589910320      0.46466072199655     -0.00000000091802
  B           0.00000000743590      1.95535178372849      0.00000000124106
