6
Coordinates from ORCA-job B6_compact_planar_triangle_d2.00_q0_m1_R2SCAN-3C E -148.479447093346
  B      -2.000000     -1.154701      0.000000
  B       0.000000     -1.154701      0.000000
  B       2.000000     -1.154701      0.000000
  B      -1.000000      0.577350      0.000000
  B       1.000000      0.577350      0.000000
  B       0.000000      2.309401      0.000000
6
Coordinates from ORCA-job B6_compact_planar_triangle_d2.00_q0_m1_R2SCAN-3C E -148.514038145325
  B      -1.952424     -1.127237     -0.000000
  B       0.000000     -1.118937      0.000000
  B       1.952424     -1.127237     -0.000000
  B      -0.969025      0.559467      0.000000
  B       0.969025      0.559467     -0.000000
  B       0.000000      2.254476     -0.000000
6
Coordinates from ORCA-job B6_compact_planar_triangle_d2.00_q0_m1_R2SCAN-3C E -148.546835419477
  B      -1.905558     -1.100149     -0.000000
  B       0.000000     -1.082603     -0.000000
  B       1.905558     -1.100149     -0.000000
  B      -0.937561      0.541290      0.000000
  B       0.937561      0.541290      0.000000
  B       0.000000      2.200322     -0.000000
6
Coordinates from ORCA-job B6_compact_planar_triangle_d2.00_q0_m1_R2SCAN-3C E -148.589685917997
  B      -1.834743     -1.059257      0.000000
  B       0.000000     -1.028474     -0.000000
  B       1.834743     -1.059257      0.000000
  B      -0.890673      0.514247     -0.000000
  B       0.890673      0.514247     -0.000000
  B      -0.000000      2.118495      0.000000
6
Coordinates from ORCA-job B6_compact_planar_triangle_d2.00_q0_m1_R2SCAN-3C E -148.628196726947
  B      -1.727277     -0.997278     -0.000000
  B      -0.000000     -0.948161      0.000000
  B       1.727277     -0.997278     -0.000000
  B      -0.821153      0.474099     -0.000000
  B       0.821153      0.474099     -0.000000
  B       0.000000      1.994520      0.000000
6
Coordinates from ORCA-job B6_compact_planar_triangle_d2.00_q0_m1_R2SCAN-3C E -148.630210883701
  B      -1.682262     -0.971241     -0.000000
  B      -0.000000     -0.920814      0.000000
  B       1.682262     -0.971241     -0.000000
  B      -0.797477      0.460467     -0.000000
  B       0.797477      0.460467      0.000000
  B      -0.000000      1.942363     -0.000000
6
Coordinates from ORCA-job B6_compact_planar_triangle_d2.00_q0_m1_R2SCAN-3C E -148.630566233494
  B      -1.694164     -0.978159      0.000000
  B       0.000000     -0.929959     -0.000000
  B       1.694164     -0.978159      0.000000
  B      -0.805416      0.465027     -0.000000
  B       0.805416      0.465027     -0.000000
  B       0.000000      1.956222      0.000000
6
Coordinates from ORCA-job B6_compact_planar_triangle_d2.00_q0_m1_R2SCAN-3C E -148.630568480716
  B      -1.693419     -0.977757     -0.000000
  B       0.000000     -0.929199      0.000000
  B       1.693419     -0.977757     -0.000000
  B      -0.804769      0.464656      0.000000
  B       0.804769      0.464656      0.000000
  B       0.000000      1.955401     -0.000000
6
Coordinates from ORCA-job B6_compact_planar_triangle_d2.00_q0_m1_R2SCAN-3C E -148.630568482385
  B      -1.693393     -0.977739      0.000000
  B      -0.000000     -0.929195     -0.000000
  B       1.693393     -0.977739      0.000000
  B      -0.804766      0.464661     -0.000000
  B       0.804766      0.464661     -0.000000
  B       0.000000      1.955352      0.000000
