6
Coordinates from ORCA-job B6_rhombic_planar_d1.60_q0_m1_R2SCAN-3C E -148.697523533753
  B          -1.89035135903732     -0.61413702047360     -0.00000028271914
  B          -0.35440843440605     -0.81043674618540      0.00000001152942
  B           1.26564652481775     -0.72625921547525      0.00000027270732
  B          -1.26564856933178      0.72625765059952      0.00000026467057
  B           0.35440557498185      0.81043718107265      0.00000002434405
  B           1.89035626297557      0.61413815046208     -0.00000029053222
