6
Coordinates from ORCA-job B6_rhombic_planar_d1.60_q0_m1_R2SCAN-3C E -148.665012955254
  B      -2.000000     -0.692820      0.000000
  B      -0.400000     -0.692820      0.000000
  B       1.200000     -0.692820      0.000000
  B      -1.200000      0.692820      0.000000
  B       0.400000      0.692820      0.000000
  B       2.000000      0.692820      0.000000
6
Coordinates from ORCA-job B6_rhombic_planar_d1.60_q0_m1_R2SCAN-3C E -148.682370588017
  B      -1.973706     -0.665175      0.000000
  B      -0.398568     -0.711088     -0.000000
  B       1.227385     -0.684652     -0.000000
  B      -1.227385      0.684652      0.000000
  B       0.398568      0.711088     -0.000000
  B       1.973706      0.665175      0.000000
6
Coordinates from ORCA-job B6_rhombic_planar_d1.60_q0_m1_R2SCAN-3C E -148.692733510976
  B      -1.934963     -0.628377      0.000000
  B      -0.392361     -0.739571     -0.000000
  B       1.257990     -0.676393     -0.000000
  B      -1.257990      0.676393     -0.000000
  B       0.392361      0.739571     -0.000000
  B       1.934963      0.628377      0.000000
6
Coordinates from ORCA-job B6_rhombic_planar_d1.60_q0_m1_R2SCAN-3C E -148.694279982519
  B      -1.926630     -0.624388      0.000000
  B      -0.389320     -0.753830      0.000000
  B       1.261988     -0.682805     -0.000000
  B      -1.261988      0.682805     -0.000000
  B       0.389320      0.753830      0.000000
  B       1.926630      0.624388     -0.000000
6
Coordinates from ORCA-job B6_rhombic_planar_d1.60_q0_m1_R2SCAN-3C E -148.696793753552
  B      -1.910460     -0.621811      0.000000
  B      -0.378571     -0.789124     -0.000000
  B       1.263864     -0.705198      0.000000
  B      -1.263866      0.705196      0.000000
  B       0.378568      0.789123     -0.000000
  B       1.910464      0.621814      0.000000
6
Coordinates from ORCA-job B6_rhombic_planar_d1.60_q0_m1_R2SCAN-3C E -148.697328975082
  B      -1.900433     -0.618699     -0.000000
  B      -0.368727     -0.806458      0.000000
  B       1.263210     -0.716399      0.000000
  B      -1.263211      0.716397      0.000000
  B       0.368723      0.806458      0.000000
  B       1.900438      0.618701     -0.000000
6
Coordinates from ORCA-job B6_rhombic_planar_d1.60_q0_m1_R2SCAN-3C E -148.697464725588
  B      -1.894066     -0.615684     -0.000000
  B      -0.360911     -0.814702     -0.000000
  B       1.262753     -0.722121      0.000000
  B      -1.262756      0.722118      0.000000
  B       0.360905      0.814703     -0.000000
  B       1.894075      0.615687     -0.000000
6
Coordinates from ORCA-job B6_rhombic_planar_d1.60_q0_m1_R2SCAN-3C E -148.697494028886
  B      -1.892240     -0.614448     -0.000000
  B      -0.357556     -0.815384      0.000000
  B       1.262867     -0.723576      0.000000
  B      -1.262866      0.723576      0.000000
  B       0.357555      0.815385      0.000000
  B       1.892241      0.614447     -0.000000
6
Coordinates from ORCA-job B6_rhombic_planar_d1.60_q0_m1_R2SCAN-3C E -148.697511937008
  B      -1.891599     -0.613868      0.000000
  B      -0.355338     -0.813432     -0.000000
  B       1.263367     -0.724180      0.000000
  B      -1.263362      0.724184      0.000000
  B       0.355343      0.813433     -0.000000
  B       1.891590      0.613864      0.000000
6
Coordinates from ORCA-job B6_rhombic_planar_d1.60_q0_m1_R2SCAN-3C E -148.697518889566
  B      -1.891486     -0.613924     -0.000000
  B      -0.354683     -0.811287      0.000000
  B       1.264039     -0.724526     -0.000000
  B      -1.264034      0.724528     -0.000000
  B       0.354690      0.811286      0.000000
  B       1.891475      0.613922     -0.000000
6
Coordinates from ORCA-job B6_rhombic_planar_d1.60_q0_m1_R2SCAN-3C E -148.697521909791
  B      -1.891200     -0.614114      0.000000
  B      -0.354603     -0.810133     -0.000000
  B       1.264722     -0.725073      0.000000
  B      -1.264722      0.725072      0.000000
  B       0.354605      0.810132     -0.000000
  B       1.891197      0.614116      0.000000
6
Coordinates from ORCA-job B6_rhombic_planar_d1.60_q0_m1_R2SCAN-3C E -148.697523242190
  B      -1.890715     -0.614194     -0.000000
  B      -0.354556     -0.810007      0.000000
  B       1.265298     -0.725758      0.000000
  B      -1.265302      0.725754      0.000000
  B       0.354552      0.810006      0.000000
  B       1.890723      0.614200     -0.000000
6
Coordinates from ORCA-job B6_rhombic_planar_d1.60_q0_m1_R2SCAN-3C E -148.697523511229
  B      -1.890423     -0.614178     -0.000000
  B      -0.354472     -0.810267     -0.000000
  B       1.265588     -0.726161      0.000000
  B      -1.265588      0.726161      0.000000
  B       0.354471      0.810268     -0.000000
  B       1.890424      0.614176     -0.000000
6
Coordinates from ORCA-job B6_rhombic_planar_d1.60_q0_m1_R2SCAN-3C E -148.697523533753
  B      -1.890351     -0.614137     -0.000000
  B      -0.354408     -0.810437      0.000000
  B       1.265647     -0.726259      0.000000
  B      -1.265649      0.726258      0.000000
  B       0.354406      0.810437      0.000000
  B       1.890356      0.614138     -0.000000
