6
Coordinates from ORCA-job B6_linear_chain_d1.80_q0_m3_R2SCAN-3C E -148.474324639478
  B      -4.500000      0.000000      0.000000
  B      -2.700000      0.000000      0.000000
  B      -0.900000      0.000000      0.000000
  B       0.900000      0.000000      0.000000
  B       2.700000      0.000000      0.000000
  B       4.500000      0.000000      0.000000
6
Coordinates from ORCA-job B6_linear_chain_d1.80_q0_m3_R2SCAN-3C E -148.522816284395
  B      -4.314375     -0.000488      0.000366
  B      -2.593946     -0.000020      0.000015
  B      -0.863684      0.000660     -0.000487
  B       0.852033     -0.000023      0.000003
  B       2.583397      0.000588     -0.000432
  B       4.336575     -0.000717      0.000536
6
Coordinates from ORCA-job B6_linear_chain_d1.80_q0_m3_R2SCAN-3C E -148.561877941023
  B      -4.131131     -0.001250      0.000914
  B      -2.488087     -0.000188      0.000136
  B      -0.826721      0.001333     -0.000971
  B       0.808975      0.000221     -0.000173
  B       2.469412      0.002568     -0.001860
  B       4.167551     -0.002684      0.001954
6
Coordinates from ORCA-job B6_linear_chain_d1.80_q0_m3_R2SCAN-3C E -148.594232008988
  B      -3.893556     -0.001287      0.000931
  B      -2.341752     -0.000243      0.000173
  B      -0.764629      0.001215     -0.000880
  B       0.781188      0.000340     -0.000255
  B       2.333731      0.003008     -0.002141
  B       3.885017     -0.003033      0.002173
6
Coordinates from ORCA-job B6_linear_chain_d1.80_q0_m3_R2SCAN-3C E -148.594711357678
  B      -3.849489     -0.001248      0.000901
  B      -2.313954     -0.000239      0.000170
  B      -0.764264      0.001127     -0.000815
  B       0.780561      0.000416     -0.000308
  B       2.306761      0.002915     -0.002073
  B       3.840385     -0.002971      0.002125
6
Coordinates from ORCA-job B6_linear_chain_d1.80_q0_m3_R2SCAN-3C E -148.594797961655
  B      -3.859328     -0.001231      0.000888
  B      -2.319948     -0.000240      0.000170
  B      -0.763565      0.001090     -0.000789
  B       0.777915      0.000451     -0.000332
  B       2.312515      0.002876     -0.002045
  B       3.852412     -0.002947      0.002107
6
Coordinates from ORCA-job B6_linear_chain_d1.80_q0_m3_R2SCAN-3C E -148.594798519116
  B      -3.859105     -0.001223      0.000882
  B      -2.320075     -0.000241      0.000171
  B      -0.764059      0.001058     -0.000765
  B       0.778320      0.000502     -0.000367
  B       2.312210      0.002838     -0.002017
  B       3.852709     -0.002933      0.002097
6
Coordinates from ORCA-job B6_linear_chain_d1.80_q0_m3_R2SCAN-3C E -148.594798627938
  B      -3.858902     -0.001216      0.000877
  B      -2.319849     -0.000242      0.000172
  B      -0.763909      0.001033     -0.000747
  B       0.778155      0.000540     -0.000394
  B       2.312116      0.002808     -0.001996
  B       3.852389     -0.002922      0.002088
6
Coordinates from ORCA-job B6_linear_chain_d1.80_q0_m3_R2SCAN-3C E -148.594798660076
  B      -3.858909     -0.001207      0.000870
  B      -2.319860     -0.000243      0.000172
  B      -0.763898      0.001000     -0.000723
  B       0.778152      0.000588     -0.000428
  B       2.312121      0.002768     -0.001968
  B       3.852393     -0.002906      0.002076
