6
Coordinates from ORCA-job B6_linear_chain_d1.80_q0_m3_R2SCAN-3C E -148.594798660076
  B          -3.85890869221545     -0.00120733890153      0.00086980937767
  B          -2.31986049516292     -0.00024310609010      0.00017249879773
  B          -0.76389757537360      0.00100014966024     -0.00072289519804
  B           0.77815221024095      0.00058821779523     -0.00042798792032
  B           2.31212140986065      0.00276837790046     -0.00196788746231
  B           3.85239314265037     -0.00290630036430      0.00207646240526
