6
Coordinates from ORCA-job B6_random_3d_seed1003_d3.00_q0_m1_R2SCAN-3C E -148.737092984657
  B           0.44896743471048      0.08573148288343     -1.30215271816362
  B          -0.60346651481508     -0.87000576653681      0.88447511512586
  B          -0.60712865734391      0.47000071343300     -0.08664169810454
  B           0.96619810059913      0.98224153165685     -0.06652921760205
  B           0.31652768910933      0.39113329445641      1.28467431078971
  B          -0.52109806225995     -1.05910125589287     -0.71382580204536
