6
Coordinates from ORCA-job B6_random_3d_seed1003_d3.00_q0_m1_R2SCAN-3C E -147.968739459807
  B       0.284996      1.350563     -1.794001
  B      -0.227518     -1.304058      1.628315
  B      -2.173510      0.305819     -0.069425
  B       2.305999     -0.229239      0.177339
  B       0.150463      1.553728      1.376879
  B      -0.340431     -1.676812     -1.319108
6
Coordinates from ORCA-job B6_random_3d_seed1003_d3.00_q0_m1_R2SCAN-3C E -147.983795656921
  B       0.287281      1.327135     -1.779898
  B      -0.229757     -1.274734      1.605649
  B      -2.142812      0.291613     -0.064778
  B       2.280566     -0.213671      0.180354
  B       0.153043      1.518215      1.364353
  B      -0.348321     -1.648557     -1.305680
6
Coordinates from ORCA-job B6_random_3d_seed1003_d3.00_q0_m1_R2SCAN-3C E -147.999711504946
  B       0.289627      1.303906     -1.766025
  B      -0.232318     -1.244730      1.583330
  B      -2.112108      0.276753     -0.060182
  B       2.255184     -0.198051      0.183371
  B       0.156028      1.482521      1.352243
  B      -0.356414     -1.620399     -1.292738
6
Coordinates from ORCA-job B6_random_3d_seed1003_d3.00_q0_m1_R2SCAN-3C E -148.025317743238
  B       0.292961      1.269484     -1.745045
  B      -0.236343     -1.199083      1.550262
  B      -2.065756      0.253859     -0.053562
  B       2.216697     -0.175033      0.187676
  B       0.160852      1.429177      1.334399
  B      -0.368411     -1.578405     -1.273730
6
Coordinates from ORCA-job B6_random_3d_seed1003_d3.00_q0_m1_R2SCAN-3C E -148.067985687644
  B       0.297516      1.218947     -1.713207
  B      -0.242686     -1.129402      1.501503
  B      -1.995534      0.218278     -0.044270
  B       2.158162     -0.141517      0.193718
  B       0.168709      1.349634      1.308140
  B      -0.386166     -1.515941     -1.245884
6
Coordinates from ORCA-job B6_random_3d_seed1003_d3.00_q0_m1_R2SCAN-3C E -148.118085675929
  B       0.301955      1.168410     -1.680881
  B      -0.250058     -1.054662      1.452292
  B      -1.922206      0.178883     -0.035259
  B       2.097639     -0.107664      0.200098
  B       0.177975      1.266946      1.282101
  B      -0.405304     -1.451912     -1.218351
6
Coordinates from ORCA-job B6_random_3d_seed1003_d3.00_q0_m1_R2SCAN-3C E -148.174029885297
  B       0.305621      1.120210     -1.649201
  B      -0.257620     -0.979085      1.403934
  B      -1.847988      0.137809     -0.026811
  B       2.037097     -0.075553      0.207001
  B       0.187744      1.185498      1.256566
  B      -0.424854     -1.388879     -1.191489
6
Coordinates from ORCA-job B6_random_3d_seed1003_d3.00_q0_m1_R2SCAN-3C E -148.234912978882
  B       0.307941      1.074488     -1.617716
  B      -0.264473     -0.903691      1.355473
  B      -1.772327      0.096324     -0.018862
  B       1.976097     -0.046009      0.214667
  B       0.196964      1.105777      1.230580
  B      -0.444202     -1.326889     -1.164141
6
Coordinates from ORCA-job B6_random_3d_seed1003_d3.00_q0_m1_R2SCAN-3C E -148.299418344258
  B       0.308312      1.030889     -1.585599
  B      -0.269995     -0.830113      1.305664
  B      -1.694212      0.055595     -0.011385
  B       1.913683     -0.019499      0.223330
  B       0.204967      1.028676      1.202893
  B      -0.462756     -1.265548     -1.134905
6
Coordinates from ORCA-job B6_random_3d_seed1003_d3.00_q0_m1_R2SCAN-3C E -148.363709962036
  B       0.306168      0.989273     -1.552396
  B      -0.274197     -0.760737      1.253538
  B      -1.613313      0.017296     -0.003650
  B       1.848844      0.003738      0.233372
  B       0.211791      0.955773      1.172335
  B      -0.479293     -1.205343     -1.103199
6
Coordinates from ORCA-job B6_random_3d_seed1003_d3.00_q0_m1_R2SCAN-3C E -148.423853116494
  B       0.302051      0.946502     -1.517741
  B      -0.283707     -0.703124      1.197435
  B      -1.525762     -0.023296      0.005289
  B       1.779019      0.026843      0.245631
  B       0.224328      0.895582      1.138747
  B      -0.495929     -1.142508     -1.069360
6
Coordinates from ORCA-job B6_random_3d_seed1003_d3.00_q0_m1_R2SCAN-3C E -148.473546708985
  B       0.293869      0.899023     -1.477312
  B      -0.297058     -0.665766      1.137394
  B      -1.437585     -0.056989      0.016352
  B       1.700370      0.049260      0.258748
  B       0.244569      0.852928      1.099131
  B      -0.504164     -1.078456     -1.034314
6
Coordinates from ORCA-job B6_random_3d_seed1003_d3.00_q0_m1_R2SCAN-3C E -148.507810578287
  B       0.279462      0.834854     -1.422240
  B      -0.306526     -0.649155      1.083653
  B      -1.365039     -0.069938      0.028298
  B       1.609673      0.070559      0.264636
  B       0.271359      0.826077      1.055423
  B      -0.488929     -1.012397     -1.009771
6
Coordinates from ORCA-job B6_random_3d_seed1003_d3.00_q0_m1_R2SCAN-3C E -148.530149260884
  B       0.263910      0.755094     -1.350296
  B      -0.296581     -0.648356      1.059548
  B      -1.329261     -0.052708      0.028601
  B       1.527179      0.081065      0.242021
  B       0.280089      0.812273      1.021374
  B      -0.445336     -0.947368     -1.001248
6
Coordinates from ORCA-job B6_random_3d_seed1003_d3.00_q0_m1_R2SCAN-3C E -148.548174736687
  B       0.259213      0.676275     -1.270386
  B      -0.289494     -0.664234      1.049093
  B      -1.306458     -0.027197      0.028195
  B       1.469741      0.079710      0.186962
  B       0.260892      0.819385      0.997411
  B      -0.393895     -0.883939     -0.991276
6
Coordinates from ORCA-job B6_random_3d_seed1003_d3.00_q0_m1_R2SCAN-3C E -148.558490708521
  B       0.277123      0.638010     -1.207155
  B      -0.280929     -0.692614      1.053172
  B      -1.304577     -0.001281      0.024184
  B       1.424811      0.086285      0.137365
  B       0.249542      0.831845      0.975923
  B      -0.365970     -0.862244     -0.983489
6
Coordinates from ORCA-job B6_random_3d_seed1003_d3.00_q0_m1_R2SCAN-3C E -148.564166714238
  B       0.302647      0.626689     -1.166594
  B      -0.278043     -0.714430      1.058030
  B      -1.303830      0.018680      0.026310
  B       1.399990      0.092429      0.095327
  B       0.233984      0.842233      0.965195
  B      -0.354749     -0.865601     -0.978268
6
Coordinates from ORCA-job B6_random_3d_seed1003_d3.00_q0_m1_R2SCAN-3C E -148.568151279434
  B       0.338767      0.606832     -1.107656
  B      -0.265563     -0.748353      1.071031
  B      -1.291705      0.054797      0.019440
  B       1.362997      0.114163      0.044015
  B       0.211534      0.849917      0.950280
  B      -0.356029     -0.877356     -0.977110
6
Coordinates from ORCA-job B6_random_3d_seed1003_d3.00_q0_m1_R2SCAN-3C E -148.570791638996
  B       0.327578      0.593657     -1.098775
  B      -0.258556     -0.778883      1.078054
  B      -1.260134      0.093152      0.020100
  B       1.379262      0.130324      0.050384
  B       0.183123      0.851328      0.936163
  B      -0.371272     -0.889578     -0.985925
6
Coordinates from ORCA-job B6_random_3d_seed1003_d3.00_q0_m1_R2SCAN-3C E -148.575811434585
  B       0.299554      0.571728     -1.089515
  B      -0.250689     -0.839430      1.092973
  B      -1.192223      0.164221      0.021979
  B       1.422089      0.166023      0.073797
  B       0.130230      0.852176      0.905441
  B      -0.408960     -0.914717     -1.004676
6
Coordinates from ORCA-job B6_random_3d_seed1003_d3.00_q0_m1_R2SCAN-3C E -148.579115688251
  B       0.277955      0.557462     -1.083288
  B      -0.250325     -0.892823      1.099194
  B      -1.150426      0.211087      0.004324
  B       1.446814      0.198798      0.087526
  B       0.113306      0.861617      0.897062
  B      -0.437324     -0.936141     -1.004819
6
Coordinates from ORCA-job B6_random_3d_seed1003_d3.00_q0_m1_R2SCAN-3C E -148.583930450957
  B       0.243762      0.536469     -1.077309
  B      -0.258514     -0.980243      1.095791
  B      -1.089069      0.279335     -0.030001
  B       1.474789      0.255980      0.108162
  B       0.106722      0.881908      0.894178
  B      -0.477691     -0.973449     -0.990820
6
Coordinates from ORCA-job B6_random_3d_seed1003_d3.00_q0_m1_R2SCAN-3C E -148.590711616434
  B       0.229196      0.511135     -1.072180
  B      -0.274899     -1.070380      1.060416
  B      -1.054659      0.334009     -0.070670
  B       1.474236      0.317998      0.117914
  B       0.134228      0.919466      0.913889
  B      -0.508102     -1.012227     -0.949369
6
Coordinates from ORCA-job B6_random_3d_seed1003_d3.00_q0_m1_R2SCAN-3C E -148.605283817296
  B       0.249639      0.472191     -1.038940
  B      -0.290070     -1.148574      0.990575
  B      -1.023073      0.394052     -0.087603
  B       1.423115      0.366707      0.091322
  B       0.151980      0.956897      0.927136
  B      -0.511591     -1.041272     -0.882490
6
Coordinates from ORCA-job B6_random_3d_seed1003_d3.00_q0_m1_R2SCAN-3C E -148.620009340120
  B       0.282952      0.434789     -1.027679
  B      -0.304946     -1.162443      0.901309
  B      -1.027639      0.424222     -0.069688
  B       1.365185      0.385000      0.063811
  B       0.167042      0.965299      0.938785
  B      -0.482594     -1.046868     -0.806537
6
Coordinates from ORCA-job B6_random_3d_seed1003_d3.00_q0_m1_R2SCAN-3C E -148.627540818358
  B       0.260421      0.387820     -1.055423
  B      -0.316307     -1.153592      0.811276
  B      -0.971282      0.459900     -0.034413
  B       1.357164      0.412818      0.080159
  B       0.136612      0.935359      0.928421
  B      -0.466609     -1.042305     -0.730021
6
Coordinates from ORCA-job B6_random_3d_seed1003_d3.00_q0_m1_R2SCAN-3C E -148.634544707934
  B       0.264889      0.374243     -1.120016
  B      -0.316012     -1.106179      0.835597
  B      -0.997348      0.430338     -0.025466
  B       1.361898      0.407423      0.091230
  B       0.143557      0.911300      0.967960
  B      -0.456983     -1.017125     -0.749305
6
Coordinates from ORCA-job B6_random_3d_seed1003_d3.00_q0_m1_R2SCAN-3C E -148.641910678962
  B       0.278510      0.361923     -1.175071
  B      -0.319706     -1.081021      0.861022
  B      -0.971044      0.431899     -0.021496
  B       1.346699      0.419725      0.073853
  B       0.124027      0.881088      1.020802
  B      -0.458486     -1.013614     -0.759111
6
Coordinates from ORCA-job B6_random_3d_seed1003_d3.00_q0_m1_R2SCAN-3C E -148.653529232726
  B       0.303950      0.353363     -1.252526
  B      -0.325068     -1.038662      0.901864
  B      -0.924541      0.439267     -0.020379
  B       1.311470      0.436784      0.038961
  B       0.093231      0.824683      1.099511
  B      -0.459041     -1.015434     -0.767430
6
Coordinates from ORCA-job B6_random_3d_seed1003_d3.00_q0_m1_R2SCAN-3C E -148.663511602756
  B       0.330113      0.361265     -1.293459
  B      -0.318685     -0.984500      0.938277
  B      -0.868061      0.454795     -0.034903
  B       1.259572      0.440636     -0.010431
  B       0.055856      0.753717      1.163924
  B      -0.458796     -1.025914     -0.763408
6
Coordinates from ORCA-job B6_random_3d_seed1003_d3.00_q0_m1_R2SCAN-3C E -148.672282320589
  B       0.325726      0.334948     -1.366891
  B      -0.321874     -0.955401      0.952532
  B      -0.816851      0.457644     -0.060098
  B       1.232997      0.472235     -0.010276
  B       0.046179      0.708960      1.243393
  B      -0.466177     -1.018386     -0.758659
6
Coordinates from ORCA-job B6_random_3d_seed1003_d3.00_q0_m1_R2SCAN-3C E -148.684165683901
  B       0.289676      0.315134     -1.360101
  B      -0.301935     -0.924654      0.936373
  B      -0.756868      0.491654     -0.106644
  B       1.193943      0.487328      0.009313
  B       0.042893      0.659481      1.261913
  B      -0.467709     -1.028943     -0.740854
6
Coordinates from ORCA-job B6_random_3d_seed1003_d3.00_q0_m1_R2SCAN-3C E -148.692689491533
  B       0.251907      0.259357     -1.345279
  B      -0.311149     -0.936463      0.879529
  B      -0.704049      0.536397     -0.116133
  B       1.166434      0.534723      0.037180
  B       0.061143      0.651805      1.274629
  B      -0.464286     -1.045818     -0.729927
6
Coordinates from ORCA-job B6_random_3d_seed1003_d3.00_q0_m1_R2SCAN-3C E -148.692912690947
  B       0.243820      0.210926     -1.374853
  B      -0.318566     -0.869370      0.860870
  B      -0.678002      0.565732     -0.068745
  B       1.135359      0.552592      0.036119
  B       0.048828      0.579729      1.270128
  B      -0.431439     -1.039608     -0.723517
6
Coordinates from ORCA-job B6_random_3d_seed1003_d3.00_q0_m1_R2SCAN-3C E -148.699913060695
  B       0.271566      0.236797     -1.368676
  B      -0.350677     -0.916501      0.865405
  B      -0.662532      0.603497     -0.104530
  B       1.131067      0.594802     -0.012333
  B       0.058295      0.566379      1.310111
  B      -0.447719     -1.084974     -0.689978
6
Coordinates from ORCA-job B6_random_3d_seed1003_d3.00_q0_m1_R2SCAN-3C E -148.700784394647
  B       0.261734      0.207807     -1.345276
  B      -0.373216     -0.955188      0.857582
  B      -0.704113      0.596080     -0.095644
  B       1.169414      0.600280     -0.016725
  B       0.073442      0.599562      1.302848
  B      -0.427261     -1.048541     -0.702785
6
Coordinates from ORCA-job B6_random_3d_seed1003_d3.00_q0_m1_R2SCAN-3C E -148.702915068194
  B       0.261056      0.208150     -1.362711
  B      -0.383252     -0.946686      0.883311
  B      -0.681959      0.618208     -0.096879
  B       1.153826      0.616903     -0.021683
  B       0.069364      0.561840      1.297956
  B      -0.419036     -1.058416     -0.699994
6
Coordinates from ORCA-job B6_random_3d_seed1003_d3.00_q0_m1_R2SCAN-3C E -148.703452635190
  B       0.255018      0.223875     -1.354917
  B      -0.392703     -0.929593      0.876202
  B      -0.684567      0.616567     -0.105037
  B       1.155228      0.610875     -0.028836
  B       0.070870      0.540252      1.288707
  B      -0.403846     -1.061976     -0.676119
6
Coordinates from ORCA-job B6_random_3d_seed1003_d3.00_q0_m1_R2SCAN-3C E -148.704592822520
  B       0.251784      0.229785     -1.366514
  B      -0.417372     -0.935454      0.879977
  B      -0.675002      0.611877     -0.095372
  B       1.150725      0.618752     -0.028378
  B       0.082574      0.545362      1.286693
  B      -0.392710     -1.070322     -0.676407
6
Coordinates from ORCA-job B6_random_3d_seed1003_d3.00_q0_m1_R2SCAN-3C E -148.706464595133
  B       0.241902      0.231101     -1.376811
  B      -0.467780     -0.933823      0.891592
  B      -0.664583      0.597639     -0.086287
  B       1.147112      0.632795     -0.043619
  B       0.102599      0.540375      1.295946
  B      -0.359250     -1.068087     -0.680821
6
Coordinates from ORCA-job B6_random_3d_seed1003_d3.00_q0_m1_R2SCAN-3C E -148.708248363526
  B       0.228723      0.242192     -1.377130
  B      -0.513152     -0.915647      0.885588
  B      -0.668351      0.580535     -0.078727
  B       1.145399      0.638246     -0.045931
  B       0.132785      0.536095      1.294866
  B      -0.325406     -1.081419     -0.678666
6
Coordinates from ORCA-job B6_random_3d_seed1003_d3.00_q0_m1_R2SCAN-3C E -148.710493187551
  B       0.216949      0.240768     -1.371467
  B      -0.552082     -0.884245      0.868119
  B      -0.666076      0.567682     -0.072500
  B       1.133727      0.653159     -0.048650
  B       0.164606      0.521868      1.303208
  B      -0.297123     -1.099232     -0.678709
6
Coordinates from ORCA-job B6_random_3d_seed1003_d3.00_q0_m1_R2SCAN-3C E -148.713465208771
  B       0.217092      0.239153     -1.355740
  B      -0.576816     -0.852946      0.855075
  B      -0.672388      0.563021     -0.074440
  B       1.117471      0.671516     -0.048078
  B       0.198225      0.502786      1.305932
  B      -0.283584     -1.123531     -0.682749
6
Coordinates from ORCA-job B6_random_3d_seed1003_d3.00_q0_m1_R2SCAN-3C E -148.717473480817
  B       0.235149      0.225256     -1.338803
  B      -0.588086     -0.828710      0.847210
  B      -0.674752      0.564735     -0.080803
  B       1.092575      0.707611     -0.049083
  B       0.228846      0.475473      1.310754
  B      -0.293732     -1.144366     -0.689274
6
Coordinates from ORCA-job B6_random_3d_seed1003_d3.00_q0_m1_R2SCAN-3C E -148.722200181205
  B       0.266816      0.209062     -1.326672
  B      -0.598356     -0.813181      0.847476
  B      -0.675977      0.553099     -0.086702
  B       1.070375      0.756993     -0.048044
  B       0.259602      0.450570      1.311100
  B      -0.322460     -1.156543     -0.697158
6
Coordinates from ORCA-job B6_random_3d_seed1003_d3.00_q0_m1_R2SCAN-3C E -148.727914163514
  B       0.307210      0.185378     -1.319661
  B      -0.611061     -0.814734      0.856787
  B      -0.662174      0.528713     -0.093956
  B       1.048097      0.822563     -0.049964
  B       0.284676      0.425908      1.307345
  B      -0.366749     -1.147828     -0.700551
6
Coordinates from ORCA-job B6_random_3d_seed1003_d3.00_q0_m1_R2SCAN-3C E -148.733217016618
  B       0.352172      0.159552     -1.319159
  B      -0.625060     -0.831249      0.873063
  B      -0.640230      0.492224     -0.095931
  B       1.028777      0.888233     -0.054711
  B       0.299987      0.407140      1.294476
  B      -0.415646     -1.115900     -0.697739
6
Coordinates from ORCA-job B6_random_3d_seed1003_d3.00_q0_m1_R2SCAN-3C E -148.736029071756
  B       0.395022      0.127241     -1.318173
  B      -0.627291     -0.856012      0.886730
  B      -0.606702      0.475047     -0.095459
  B       0.998294      0.944403     -0.061895
  B       0.305193      0.392335      1.285259
  B      -0.464516     -1.083015     -0.696462
6
Coordinates from ORCA-job B6_random_3d_seed1003_d3.00_q0_m1_R2SCAN-3C E -148.736836381834
  B       0.431392      0.105936     -1.310292
  B      -0.617252     -0.866287      0.888140
  B      -0.605136      0.459204     -0.088871
  B       0.983821      0.973868     -0.063770
  B       0.312679      0.394572      1.281371
  B      -0.505503     -1.067293     -0.706578
6
Coordinates from ORCA-job B6_random_3d_seed1003_d3.00_q0_m1_R2SCAN-3C E -148.736866487683
  B       0.450321      0.085429     -1.302458
  B      -0.609190     -0.875032      0.884263
  B      -0.597246      0.477958     -0.084356
  B       0.960718      0.987931     -0.068059
  B       0.318976      0.391007      1.285081
  B      -0.523579     -1.067292     -0.714470
6
Coordinates from ORCA-job B6_random_3d_seed1003_d3.00_q0_m1_R2SCAN-3C E -148.737068519834
  B       0.446859      0.084915     -1.302344
  B      -0.600674     -0.870359      0.884483
  B      -0.602747      0.468244     -0.087332
  B       0.968614      0.984798     -0.065902
  B       0.312632      0.392141      1.286374
  B      -0.524684     -1.059740     -0.715279
6
Coordinates from ORCA-job B6_random_3d_seed1003_d3.00_q0_m1_R2SCAN-3C E -148.737036559129
  B       0.447802      0.092782     -1.301587
  B      -0.604437     -0.873065      0.886368
  B      -0.611595      0.468515     -0.087136
  B       0.971532      0.975179     -0.067091
  B       0.315448      0.396250      1.282316
  B      -0.518751     -1.059661     -0.712870
6
Coordinates from ORCA-job B6_random_3d_seed1003_d3.00_q0_m1_R2SCAN-3C E -148.737091305316
  B       0.447554      0.086681     -1.302440
  B      -0.602871     -0.870618      0.884438
  B      -0.606414      0.469597     -0.086154
  B       0.967905      0.981099     -0.066008
  B       0.314977      0.392943      1.284409
  B      -0.521151     -1.059703     -0.714245
6
Coordinates from ORCA-job B6_random_3d_seed1003_d3.00_q0_m1_R2SCAN-3C E -148.737092275597
  B       0.448572      0.086113     -1.302092
  B      -0.602593     -0.870869      0.884670
  B      -0.606532      0.469731     -0.086521
  B       0.967261      0.981803     -0.066836
  B       0.315082      0.392190      1.284944
  B      -0.521790     -1.058968     -0.714164
6
Coordinates from ORCA-job B6_random_3d_seed1003_d3.00_q0_m1_R2SCAN-3C E -148.737092863986
  B       0.448926      0.085702     -1.301958
  B      -0.602646     -0.870667      0.884565
  B      -0.606877      0.469945     -0.086531
  B       0.966661      0.981910     -0.066583
  B       0.315678      0.391931      1.284678
  B      -0.521743     -1.058822     -0.714171
6
Coordinates from ORCA-job B6_random_3d_seed1003_d3.00_q0_m1_R2SCAN-3C E -148.737092998158
  B       0.448953      0.085716     -1.302111
  B      -0.603127     -0.870273      0.884479
  B      -0.607095      0.469979     -0.086546
  B       0.966422      0.982065     -0.066537
  B       0.316174      0.391488      1.284662
  B      -0.521327     -1.058974     -0.713947
6
Coordinates from ORCA-job B6_random_3d_seed1003_d3.00_q0_m1_R2SCAN-3C E -148.737092984657
  B       0.448967      0.085731     -1.302153
  B      -0.603467     -0.870006      0.884475
  B      -0.607129      0.470001     -0.086642
  B       0.966198      0.982242     -0.066529
  B       0.316528      0.391133      1.284674
  B      -0.521098     -1.059101     -0.713826
