6
Coordinates from ORCA-job B6_rhombic_planar_d2.50_q0_m3_R2SCAN-3C E -148.174822846363
  B      -3.125000     -1.082532      0.000000
  B      -0.625000     -1.082532      0.000000
  B       1.875000     -1.082532      0.000000
  B      -1.875000      1.082532      0.000000
  B       0.625000      1.082532      0.000000
  B       3.125000      1.082532      0.000000
6
Coordinates from ORCA-job B6_rhombic_planar_d2.50_q0_m3_R2SCAN-3C E -148.199857816685
  B      -3.056082     -1.056953     -0.000000
  B      -0.602414     -1.068366      0.000000
  B       1.828802     -1.061336      0.000000
  B      -1.828802      1.061336      0.000000
  B       0.602414      1.068366      0.000000
  B       3.056082      1.056953     -0.000000
6
Coordinates from ORCA-job B6_rhombic_planar_d2.50_q0_m3_R2SCAN-3C E -148.226383561459
  B      -2.986546     -1.031271     -0.000000
  B      -0.578341     -1.055100      0.000000
  B       1.781903     -1.041084      0.000000
  B      -1.781903      1.041084      0.000000
  B       0.578341      1.055100      0.000000
  B       2.986546      1.031271     -0.000000
6
Coordinates from ORCA-job B6_rhombic_planar_d2.50_q0_m3_R2SCAN-3C E -148.269545102570
  B      -2.880914     -0.993052     -0.000000
  B      -0.540559     -1.035656      0.000000
  B       1.710777     -1.012665      0.000000
  B      -1.710777      1.012665      0.000000
  B       0.540559      1.035656      0.000000
  B       2.880914      0.993052     -0.000000
6
Coordinates from ORCA-job B6_rhombic_planar_d2.50_q0_m3_R2SCAN-3C E -148.339914738393
  B      -2.721327     -0.937285     -0.000000
  B      -0.484279     -1.007585      0.000000
  B       1.608087     -0.975806      0.000000
  B      -1.608087      0.975806     -0.000000
  B       0.484279      1.007585      0.000000
  B       2.721327      0.937285     -0.000000
6
Coordinates from ORCA-job B6_rhombic_planar_d2.50_q0_m3_R2SCAN-3C E -148.414489569464
  B      -2.554493     -0.882113     -0.000000
  B      -0.428794     -0.980442      0.000000
  B       1.503886     -0.943040     -0.000000
  B      -1.503886      0.943040     -0.000000
  B       0.428794      0.980442      0.000000
  B       2.554493      0.882113     -0.000000
6
Coordinates from ORCA-job B6_rhombic_planar_d2.50_q0_m3_R2SCAN-3C E -148.464592361878
  B      -2.438205     -0.843657     -0.000000
  B      -0.389939     -0.968312      0.000000
  B       1.424442     -0.917985      0.000000
  B      -1.424442      0.917985     -0.000000
  B       0.389939      0.968312      0.000000
  B       2.438205      0.843657     -0.000000
6
Coordinates from ORCA-job B6_rhombic_planar_d2.50_q0_m3_R2SCAN-3C E -148.507630955617
  B      -2.325114     -0.802908     -0.000000
  B      -0.360831     -0.955173      0.000000
  B       1.350315     -0.883635     -0.000000
  B      -1.350315      0.883635     -0.000000
  B       0.360831      0.955173      0.000000
  B       2.325114      0.802908     -0.000000
6
Coordinates from ORCA-job B6_rhombic_planar_d2.50_q0_m3_R2SCAN-3C E -148.666538558269
  B      -2.167262     -0.736995     -0.000000
  B      -0.348232     -0.929996     -0.000000
  B       1.271816     -0.814815      0.000000
  B      -1.271816      0.814815     -0.000000
  B       0.348232      0.929996      0.000000
  B       2.167262      0.736995     -0.000000
6
Coordinates from ORCA-job B6_rhombic_planar_d2.50_q0_m3_R2SCAN-3C E -148.709491083133
  B      -2.003952     -0.670391      0.000000
  B      -0.335882     -0.898380      0.000000
  B       1.219541     -0.762834     -0.000001
  B      -1.219542      0.762834     -0.000000
  B       0.335882      0.898381     -0.000000
  B       2.003952      0.670390      0.000001
6
Coordinates from ORCA-job B6_rhombic_planar_d2.50_q0_m3_R2SCAN-3C E -148.715876424992
  B      -1.999825     -0.664730     -0.000001
  B      -0.357509     -0.833085      0.000003
  B       1.195771     -0.707020     -0.000004
  B      -1.195768      0.707020      0.000001
  B       0.357507      0.833083     -0.000004
  B       1.999823      0.664733      0.000003
6
Coordinates from ORCA-job B6_rhombic_planar_d2.50_q0_m3_R2SCAN-3C E -148.728856275760
  B      -2.019414     -0.668154     -0.000019
  B      -0.340435     -0.809498      0.000041
  B       1.193649     -0.705440     -0.000031
  B      -1.193660      0.705442      0.000023
  B       0.340445      0.809500     -0.000042
  B       2.019414      0.668151      0.000028
6
Coordinates from ORCA-job B6_rhombic_planar_d2.50_q0_m3_R2SCAN-3C E -148.734165371965
  B      -2.025038     -0.652712     -0.000031
  B      -0.332521     -0.802256      0.000065
  B       1.234013     -0.703318     -0.000047
  B      -1.234027      0.703323      0.000038
  B       0.332536      0.802260     -0.000067
  B       2.025036      0.652704      0.000042
6
Coordinates from ORCA-job B6_rhombic_planar_d2.50_q0_m3_R2SCAN-3C E -148.742321208411
  B      -1.958529     -0.638757     -0.000028
  B      -0.351499     -0.826022      0.000062
  B       1.234318     -0.709865     -0.000044
  B      -1.234302      0.709852      0.000036
  B       0.351478      0.826016     -0.000063
  B       1.958535      0.638774      0.000037
6
Coordinates from ORCA-job B6_rhombic_planar_d2.50_q0_m3_R2SCAN-3C E -148.743192006616
  B      -1.938305     -0.628556     -0.000008
  B      -0.352226     -0.856896      0.000023
  B       1.225011     -0.706907     -0.000012
  B      -1.225047      0.707026      0.000011
  B       0.352415      0.856900     -0.000022
  B       1.938151      0.628432      0.000008
6
Coordinates from ORCA-job B6_rhombic_planar_d2.50_q0_m3_R2SCAN-3C E -148.743168215069
  B      -1.934544     -0.635336      0.000007
  B      -0.364219     -0.874306     -0.000004
  B       1.219901     -0.714904      0.000008
  B      -1.220043      0.713851     -0.000005
  B       0.362883      0.874293      0.000005
  B       1.936022      0.636402     -0.000011
6
Coordinates from ORCA-job B6_rhombic_planar_d2.50_q0_m3_R2SCAN-3C E -148.743299965709
  B      -1.943854     -0.633297      0.000007
  B      -0.356699     -0.873956     -0.000002
  B       1.220378     -0.706056      0.000005
  B      -1.218978      0.709484     -0.000004
  B       0.360489      0.873911      0.000002
  B       1.938664      0.629914     -0.000008
6
Coordinates from ORCA-job B6_rhombic_planar_d2.50_q0_m3_R2SCAN-3C E -148.742113822624
  B      -1.933676     -0.615180      0.000003
  B      -0.360591     -0.870600      0.000007
  B       1.214648     -0.707760     -0.000002
  B      -1.223751      0.688462      0.000001
  B       0.342580      0.869895     -0.000007
  B       1.960790      0.635183     -0.000001
6
Coordinates from ORCA-job B6_rhombic_planar_d2.50_q0_m3_R2SCAN-3C E -148.743327428349
  B      -1.939578     -0.632236      0.000004
  B      -0.360278     -0.871529      0.000003
  B       1.219390     -0.706217      0.000001
  B      -1.218357      0.706723     -0.000001
  B       0.357418      0.872962     -0.000003
  B       1.941405      0.630297     -0.000004
6
Coordinates from ORCA-job B6_rhombic_planar_d2.50_q0_m3_R2SCAN-3C E -148.743157698448
  B      -1.942833     -0.629084      0.000005
  B      -0.352921     -0.875469      0.000002
  B       1.214704     -0.707876      0.000002
  B      -1.222663      0.706645     -0.000001
  B       0.366710      0.871088     -0.000002
  B       1.937003      0.634696     -0.000005
6
Coordinates from ORCA-job B6_rhombic_planar_d2.50_q0_m3_R2SCAN-3C E -148.743335196868
  B      -1.940969     -0.630799      0.000004
  B      -0.359229     -0.873463      0.000002
  B       1.219237     -0.706662      0.000001
  B      -1.218240      0.706390     -0.000001
  B       0.359188      0.872592     -0.000002
  B       1.940014      0.631941     -0.000005
6
Coordinates from ORCA-job B6_rhombic_planar_d2.50_q0_m3_R2SCAN-3C E -148.743333589405
  B      -1.939411     -0.632444      0.000004
  B      -0.359217     -0.872233      0.000003
  B       1.217657     -0.706140      0.000001
  B      -1.219592      0.706746     -0.000001
  B       0.359192      0.873877     -0.000003
  B       1.941370      0.630194     -0.000004
6
Coordinates from ORCA-job B6_rhombic_planar_d2.50_q0_m3_R2SCAN-3C E -148.743335792882
  B      -1.940373     -0.631340      0.000004
  B      -0.359242     -0.873106      0.000003
  B       1.218615     -0.706458      0.000001
  B      -1.218618      0.706474     -0.000001
  B       0.359232      0.873092     -0.000003
  B       1.940385      0.631338     -0.000004
6
Coordinates from ORCA-job B6_rhombic_planar_d2.50_q0_m3_R2SCAN-3C E -148.743335793150
  B      -1.940387     -0.631340      0.000004
  B      -0.359250     -0.873142      0.000003
  B       1.218604     -0.706457      0.000001
  B      -1.218604      0.706462     -0.000001
  B       0.359249      0.873135     -0.000003
  B       1.940389      0.631342     -0.000004
