6
Coordinates from ORCA-job B6_rhombic_planar_d2.50_q0_m3_R2SCAN-3C E -148.743335793150
  B          -1.94038746025263     -0.63134010235282      0.00000422785549
  B          -0.35924962039115     -0.87314179272697      0.00000290788789
  B           1.21860359566996     -0.70645661018950      0.00000092524856
  B          -1.21860445655737      0.70646169045487     -0.00000087802091
  B           0.35924911039690      0.87313482979099     -0.00000293968899
  B           1.94038883113429      0.63134198502343     -0.00000424328204
