6
Coordinates from ORCA-job B6_random_3d_seed1001_d2.00_q0_m5_R2SCAN-3C E -148.475960927276
  B       0.133175     -1.426550     -0.406501
  B      -0.061056      1.307615      0.443008
  B       0.356401      0.501936     -1.266060
  B      -0.409652     -0.635690      1.312881
  B       1.359553      0.096169      0.423928
  B      -1.378422      0.156520     -0.507256
6
Coordinates from ORCA-job B6_random_3d_seed1001_d2.00_q0_m5_R2SCAN-3C E -148.508544210726
  B       0.123938     -1.392907     -0.379542
  B      -0.053407      1.279511      0.423340
  B       0.346654      0.501263     -1.240985
  B      -0.397198     -0.641305      1.281544
  B       1.333181      0.097836      0.418034
  B      -1.353169      0.155604     -0.502390
6
Coordinates from ORCA-job B6_random_3d_seed1001_d2.00_q0_m5_R2SCAN-3C E -148.539407521998
  B       0.113990     -1.361932     -0.350609
  B      -0.044301      1.254543      0.402802
  B       0.336158      0.502761     -1.214946
  B      -0.383967     -0.649418      1.249746
  B       1.306064      0.099675      0.411966
  B      -1.327945      0.154372     -0.498957
6
Coordinates from ORCA-job B6_random_3d_seed1001_d2.00_q0_m5_R2SCAN-3C E -148.579268526100
  B       0.098837     -1.317964     -0.307940
  B      -0.030320      1.221724      0.374437
  B       0.320362      0.505247     -1.176264
  B      -0.361670     -0.660435      1.201688
  B       1.260847      0.100585      0.402607
  B      -1.288056      0.150843     -0.494527
6
Coordinates from ORCA-job B6_random_3d_seed1001_d2.00_q0_m5_R2SCAN-3C E -148.617444331077
  B       0.076155     -1.247690     -0.258974
  B      -0.012719      1.179517      0.343225
  B       0.297714      0.502022     -1.124157
  B      -0.325516     -0.663832      1.136377
  B       1.181253      0.093823      0.388664
  B      -1.216887      0.136161     -0.485134
6
Coordinates from ORCA-job B6_random_3d_seed1001_d2.00_q0_m5_R2SCAN-3C E -148.633220559034
  B       0.058028     -1.183468     -0.267904
  B      -0.010611      1.152889      0.341201
  B       0.279292      0.488040     -1.104892
  B      -0.293510     -0.629388      1.114847
  B       1.100611      0.067908      0.386514
  B      -1.133809      0.104019     -0.469768
6
Coordinates from ORCA-job B6_random_3d_seed1001_d2.00_q0_m5_R2SCAN-3C E -148.640660019569
  B       0.042766     -1.147425     -0.300338
  B      -0.024576      1.155582      0.347486
  B       0.284691      0.487002     -1.119656
  B      -0.278503     -0.596546      1.126958
  B       1.071380      0.034348      0.396897
  B      -1.095758      0.067040     -0.451348
6
Coordinates from ORCA-job B6_random_3d_seed1001_d2.00_q0_m5_R2SCAN-3C E -148.644610379756
  B       0.027614     -1.133197     -0.327517
  B      -0.038269      1.167705      0.348153
  B       0.303992      0.504057     -1.150071
  B      -0.275985     -0.581105      1.153202
  B       1.068285      0.008823      0.408890
  B      -1.085636      0.033718     -0.432657
6
Coordinates from ORCA-job B6_random_3d_seed1001_d2.00_q0_m5_R2SCAN-3C E -148.645111185910
  B       0.027077     -1.133829     -0.333700
  B      -0.041972      1.166809      0.340090
  B       0.309474      0.517326     -1.160571
  B      -0.275913     -0.579787      1.167151
  B       1.067761      0.000054      0.414191
  B      -1.086427      0.029428     -0.427162
6
Coordinates from ORCA-job B6_random_3d_seed1001_d2.00_q0_m5_R2SCAN-3C E -148.645259320065
  B       0.025906     -1.132798     -0.337206
  B      -0.043035      1.161578      0.331650
  B       0.310954      0.527281     -1.164382
  B      -0.274399     -0.577481      1.174507
  B       1.066326     -0.005264      0.419425
  B      -1.085753      0.026684     -0.423994
6
Coordinates from ORCA-job B6_random_3d_seed1001_d2.00_q0_m5_R2SCAN-3C E -148.645313745088
  B       0.026452     -1.133699     -0.338527
  B      -0.042603      1.156529      0.326801
  B       0.310035      0.532318     -1.164517
  B      -0.274461     -0.575338      1.176617
  B       1.068585     -0.006726      0.423078
  B      -1.088007      0.026917     -0.423452
6
Coordinates from ORCA-job B6_random_3d_seed1001_d2.00_q0_m5_R2SCAN-3C E -148.645351936737
  B       0.026127     -1.132300     -0.339666
  B      -0.042127      1.150759      0.324532
  B       0.308061      0.535303     -1.164522
  B      -0.274679     -0.571198      1.176040
  B       1.071432     -0.008171      0.426775
  B      -1.088814      0.025606     -0.423157
6
Coordinates from ORCA-job B6_random_3d_seed1001_d2.00_q0_m5_R2SCAN-3C E -148.645395770498
  B       0.027466     -1.130407     -0.340331
  B      -0.041494      1.142988      0.324814
  B       0.303958      0.537033     -1.165290
  B      -0.276642     -0.564782      1.173760
  B       1.077491     -0.009827      0.430946
  B      -1.090779      0.024996     -0.423899
6
Coordinates from ORCA-job B6_random_3d_seed1001_d2.00_q0_m5_R2SCAN-3C E -148.645436132335
  B       0.029889     -1.126784     -0.340664
  B      -0.040844      1.134134      0.327837
  B       0.298071      0.537890     -1.168053
  B      -0.279823     -0.556739      1.171502
  B       1.084594     -0.012578      0.435067
  B      -1.091888      0.024076     -0.425689
6
Coordinates from ORCA-job B6_random_3d_seed1001_d2.00_q0_m5_R2SCAN-3C E -148.645459816002
  B       0.032874     -1.123867     -0.340261
  B      -0.039861      1.128164      0.331642
  B       0.292659      0.538196     -1.171452
  B      -0.282840     -0.551266      1.171175
  B       1.089610     -0.015070      0.437388
  B      -1.092442      0.023843     -0.428492
6
Coordinates from ORCA-job B6_random_3d_seed1001_d2.00_q0_m5_R2SCAN-3C E -148.645470269112
  B       0.034859     -1.122282     -0.339465
  B      -0.038617      1.126082      0.334109
  B       0.289435      0.538599     -1.173796
  B      -0.284425     -0.549374      1.172296
  B       1.091108     -0.016624      0.437903
  B      -1.092360      0.023599     -0.431047
6
Coordinates from ORCA-job B6_random_3d_seed1001_d2.00_q0_m5_R2SCAN-3C E -148.645474121317
  B       0.035507     -1.122228     -0.338679
  B      -0.037642      1.126971      0.334648
  B       0.288836      0.539043     -1.174272
  B      -0.284689     -0.550094      1.173350
  B       1.090137     -0.016998      0.437141
  B      -1.092150      0.023306     -0.432188
6
Coordinates from ORCA-job B6_random_3d_seed1001_d2.00_q0_m5_R2SCAN-3C E -148.645475618812
  B       0.036291     -1.122017     -0.338067
  B      -0.036612      1.126519      0.334848
  B       0.287778      0.540197     -1.174687
  B      -0.285298     -0.549558      1.173919
  B       1.090166     -0.017798      0.437099
  B      -1.092326      0.022657     -0.433112
6
Coordinates from ORCA-job B6_random_3d_seed1001_d2.00_q0_m5_R2SCAN-3C E -148.645476397821
  B       0.036567     -1.122172     -0.337779
  B      -0.036055      1.126375      0.334684
  B       0.287394      0.541106     -1.174524
  B      -0.285647     -0.549052      1.173874
  B       1.090169     -0.018273      0.437026
  B      -1.092429      0.022015     -0.433281
6
Coordinates from ORCA-job B6_random_3d_seed1001_d2.00_q0_m5_R2SCAN-3C E -148.645476994054
  B       0.036901     -1.122485     -0.337541
  B      -0.035556      1.126234      0.334670
  B       0.286922      0.542089     -1.174277
  B      -0.286161     -0.548177      1.173601
  B       1.090341     -0.018891      0.436894
  B      -1.092447      0.021230     -0.433347
6
Coordinates from ORCA-job B6_random_3d_seed1001_d2.00_q0_m5_R2SCAN-3C E -148.645477390095
  B       0.037161     -1.122932     -0.337434
  B      -0.035292      1.126195      0.334773
  B       0.286562      0.542881     -1.174070
  B      -0.286664     -0.547315      1.173327
  B       1.090495     -0.019420      0.436677
  B      -1.092261      0.020591     -0.433273
6
Coordinates from ORCA-job B6_random_3d_seed1001_d2.00_q0_m5_R2SCAN-3C E -148.645477700256
  B       0.037207     -1.123387     -0.337440
  B      -0.035336      1.126318      0.334927
  B       0.286485      0.543195     -1.173956
  B      -0.286937     -0.546890      1.173143
  B       1.090499     -0.019592      0.436414
  B      -1.091918      0.020356     -0.433089
6
Coordinates from ORCA-job B6_random_3d_seed1001_d2.00_q0_m5_R2SCAN-3C E -148.645478021819
  B       0.037394     -1.124461     -0.337307
  B      -0.035298      1.126400      0.335285
  B       0.286153      0.544160     -1.173900
  B      -0.287661     -0.545935      1.172929
  B       1.090526     -0.020010      0.435829
  B      -1.091114      0.019846     -0.432835
6
Coordinates from ORCA-job B6_random_3d_seed1001_d2.00_q0_m5_R2SCAN-3C E -148.645478115826
  B       0.037318     -1.124742     -0.337197
  B      -0.035330      1.126442      0.335325
  B       0.286194      0.544329     -1.173945
  B      -0.287743     -0.545976      1.172948
  B       1.090438     -0.019919      0.435650
  B      -1.090878      0.019866     -0.432780
