6
Coordinates from ORCA-job B6_random_3d_seed1001_d2.00_q0_m5_R2SCAN-3C E -148.645478115826
  B           0.03731813168426     -1.12474152505188     -0.33719667626379
  B          -0.03532991621145      1.12644183283009      0.33532456692375
  B           0.28619436992382      0.54432894089151     -1.17394500911448
  B          -0.28774287981984     -0.54597622121036      1.17294763920416
  B           1.09043809911509     -0.01991941933234      0.43564971827275
  B          -1.09087780469188      0.01986639187298     -0.43278024902239
