6
Coordinates from ORCA-job B6_random_3d_seed1002_d1.80_q0_m5_R2SCAN-3C E -148.669770253416
  B           0.61891081294648     -0.52262387493568     -0.61805788761483
  B           0.80622066655048      1.04369694534663     -0.88138032981761
  B          -0.69593342205714      0.96641762289052     -0.32565367984750
  B           0.02869566916739     -1.50671534119721      0.49585602046670
  B           0.34733116392106      0.39653002204937      0.92942012877617
  B          -1.10522489052827     -0.37730536415363      0.39981573803707
