6
Coordinates from ORCA-job B6_random_3d_seed1002_d1.80_q0_m5_R2SCAN-3C E -148.554405509865
  B       0.461250     -0.517494     -1.129379
  B       0.890183      1.104613     -0.329559
  B      -0.920687      0.563049     -0.835271
  B       0.158844     -1.284473      0.455525
  B       0.543125      0.157343      1.249734
  B      -1.132716     -0.023037      0.588950
6
Coordinates from ORCA-job B6_random_3d_seed1002_d1.80_q0_m5_R2SCAN-3C E -148.575129728562
  B       0.469295     -0.470097     -1.100075
  B       0.869945      1.071192     -0.361481
  B      -0.901873      0.574127     -0.841424
  B       0.163103     -1.271599      0.478899
  B       0.526055      0.126823      1.222944
  B      -1.126525     -0.030447      0.601137
6
Coordinates from ORCA-job B6_random_3d_seed1002_d1.80_q0_m5_R2SCAN-3C E -148.589182789802
  B       0.483080     -0.420846     -1.068167
  B       0.849038      1.042023     -0.397153
  B      -0.887259      0.586663     -0.845373
  B       0.159631     -1.263795      0.506227
  B       0.516589      0.096159      1.196363
  B      -1.121080     -0.040204      0.608103
6
Coordinates from ORCA-job B6_random_3d_seed1002_d1.80_q0_m5_R2SCAN-3C E -148.596403507998
  B       0.502561     -0.380186     -1.027148
  B       0.822103      1.028291     -0.433658
  B      -0.869028      0.600990     -0.841702
  B       0.142276     -1.275346      0.528853
  B       0.512975      0.077155      1.162076
  B      -1.110887     -0.050904      0.611579
6
Coordinates from ORCA-job B6_random_3d_seed1002_d1.80_q0_m5_R2SCAN-3C E -148.605517360649
  B       0.534797     -0.353885     -0.957522
  B       0.776235      1.051043     -0.471127
  B      -0.841512      0.616865     -0.835001
  B       0.098237     -1.310649      0.553885
  B       0.525830      0.057066      1.096151
  B      -1.093587     -0.060439      0.613615
6
Coordinates from ORCA-job B6_random_3d_seed1002_d1.80_q0_m5_R2SCAN-3C E -148.618956409058
  B       0.571064     -0.331407     -0.840821
  B       0.717379      1.092950     -0.518225
  B      -0.802172      0.649519     -0.818748
  B       0.039335     -1.366556      0.589579
  B       0.545107      0.038497      0.981349
  B      -1.070712     -0.083002      0.606866
6
Coordinates from ORCA-job B6_random_3d_seed1002_d1.80_q0_m5_R2SCAN-3C E -148.633417781107
  B       0.577037     -0.357288     -0.762374
  B       0.707207      1.138873     -0.539345
  B      -0.789488      0.685011     -0.791173
  B       0.013291     -1.416434      0.606456
  B       0.556717      0.061332      0.902346
  B      -1.064763     -0.111494      0.584090
6
Coordinates from ORCA-job B6_random_3d_seed1002_d1.80_q0_m5_R2SCAN-3C E -148.644320258266
  B       0.572202     -0.422365     -0.743909
  B       0.738438      1.170369     -0.527395
  B      -0.814949      0.696743     -0.762694
  B       0.011406     -1.431615      0.588626
  B       0.577576      0.116955      0.885649
  B      -1.084673     -0.130088      0.559723
6
Coordinates from ORCA-job B6_random_3d_seed1002_d1.80_q0_m5_R2SCAN-3C E -148.647275810313
  B       0.582105     -0.449834     -0.681082
  B       0.728026      1.180534     -0.525113
  B      -0.813193      0.717532     -0.740111
  B      -0.006981     -1.429171      0.576926
  B       0.605412      0.137722      0.827357
  B      -1.095369     -0.156784      0.542023
6
Coordinates from ORCA-job B6_random_3d_seed1002_d1.80_q0_m5_R2SCAN-3C E -148.649319740707
  B       0.582031     -0.476713     -0.695821
  B       0.727811      1.175581     -0.522027
  B      -0.810942      0.725821     -0.728684
  B      -0.008723     -1.407864      0.568025
  B       0.616417      0.158743      0.842689
  B      -1.106593     -0.175568      0.535819
6
Coordinates from ORCA-job B6_random_3d_seed1002_d1.80_q0_m5_R2SCAN-3C E -148.650082426002
  B       0.589399     -0.483302     -0.697065
  B       0.727654      1.175706     -0.530036
  B      -0.807732      0.736881     -0.717919
  B      -0.017620     -1.396902      0.570601
  B       0.624847      0.164453      0.842754
  B      -1.116547     -0.196835      0.531665
6
Coordinates from ORCA-job B6_random_3d_seed1002_d1.80_q0_m5_R2SCAN-3C E -148.650734784277
  B       0.602521     -0.485313     -0.697330
  B       0.734178      1.176238     -0.546045
  B      -0.807664      0.751323     -0.698800
  B      -0.027834     -1.387098      0.578291
  B       0.632782      0.168815      0.839629
  B      -1.133982     -0.223965      0.524255
6
Coordinates from ORCA-job B6_random_3d_seed1002_d1.80_q0_m5_R2SCAN-3C E -148.651280941523
  B       0.614913     -0.487573     -0.694755
  B       0.743454      1.175558     -0.564684
  B      -0.808654      0.766504     -0.673009
  B      -0.031755     -1.381659      0.586340
  B       0.636259      0.173873      0.834002
  B      -1.154217     -0.246704      0.512106
6
Coordinates from ORCA-job B6_random_3d_seed1002_d1.80_q0_m5_R2SCAN-3C E -148.652183556707
  B       0.632702     -0.495426     -0.688525
  B       0.758989      1.171727     -0.600294
  B      -0.807179      0.794193     -0.617512
  B      -0.030521     -1.375587      0.599341
  B       0.635080      0.186265      0.824255
  B      -1.189071     -0.281172      0.482734
6
Coordinates from ORCA-job B6_random_3d_seed1002_d1.80_q0_m5_R2SCAN-3C E -148.653110532327
  B       0.644869     -0.511176     -0.679409
  B       0.771111      1.164820     -0.640304
  B      -0.798220      0.825043     -0.546552
  B      -0.024873     -1.370397      0.610135
  B       0.626308      0.207488      0.814475
  B      -1.219195     -0.315777      0.441656
6
Coordinates from ORCA-job B6_random_3d_seed1002_d1.80_q0_m5_R2SCAN-3C E -148.654176905709
  B       0.649170     -0.528823     -0.668058
  B       0.777912      1.154973     -0.678910
  B      -0.783790      0.853392     -0.475191
  B      -0.017458     -1.368800      0.615913
  B       0.609565      0.233368      0.807595
  B      -1.235399     -0.344110      0.398651
6
Coordinates from ORCA-job B6_random_3d_seed1002_d1.80_q0_m5_R2SCAN-3C E -148.655807715962
  B       0.642748     -0.545099     -0.650619
  B       0.778985      1.138039     -0.718232
  B      -0.764646      0.880115     -0.406425
  B      -0.002832     -1.376448      0.612905
  B       0.577740      0.262835      0.806532
  B      -1.231996     -0.359442      0.355839
6
Coordinates from ORCA-job B6_random_3d_seed1002_d1.80_q0_m5_R2SCAN-3C E -148.657902356436
  B       0.614334     -0.548820     -0.619902
  B       0.772707      1.104049     -0.755748
  B      -0.744950      0.905823     -0.366963
  B       0.028572     -1.406658      0.586227
  B       0.513181      0.289703      0.823943
  B      -1.183843     -0.344097      0.332442
6
Coordinates from ORCA-job B6_random_3d_seed1002_d1.80_q0_m5_R2SCAN-3C E -148.660292928029
  B       0.610678     -0.552329     -0.617122
  B       0.776303      1.079037     -0.799140
  B      -0.721787      0.930845     -0.309270
  B       0.042995     -1.418617      0.580636
  B       0.461346      0.316511      0.837443
  B      -1.169535     -0.355447      0.307453
6
Coordinates from ORCA-job B6_random_3d_seed1002_d1.80_q0_m5_R2SCAN-3C E -148.667476083381
  B       0.603731     -0.515994     -0.634647
  B       0.789734      1.031982     -0.852759
  B      -0.708941      0.969709     -0.321427
  B       0.055383     -1.453599      0.551218
  B       0.364887      0.323295      0.906452
  B      -1.104793     -0.355394      0.351163
6
Coordinates from ORCA-job B6_random_3d_seed1002_d1.80_q0_m5_R2SCAN-3C E -148.666690228769
  B       0.636549     -0.533405     -0.658483
  B       0.798325      1.053177     -0.880317
  B      -0.698899      0.989713     -0.285289
  B       0.023266     -1.441435      0.572487
  B       0.384773      0.347983      0.912658
  B      -1.144014     -0.416034      0.338944
6
Coordinates from ORCA-job B6_random_3d_seed1002_d1.80_q0_m5_R2SCAN-3C E -148.669093007286
  B       0.614973     -0.527692     -0.639116
  B       0.795996      1.032462     -0.889852
  B      -0.693011      0.999213     -0.296488
  B       0.050871     -1.468092      0.544592
  B       0.339903      0.349128      0.927683
  B      -1.108731     -0.385020      0.353180
6
Coordinates from ORCA-job B6_random_3d_seed1002_d1.80_q0_m5_R2SCAN-3C E -148.669272859735
  B       0.612070     -0.523720     -0.635776
  B       0.798404      1.036611     -0.885242
  B      -0.699666      0.993812     -0.321109
  B       0.052912     -1.477328      0.534541
  B       0.339986      0.342690      0.935968
  B      -1.103706     -0.372065      0.371617
6
Coordinates from ORCA-job B6_random_3d_seed1002_d1.80_q0_m5_R2SCAN-3C E -148.669424156936
  B       0.613155     -0.525411     -0.631840
  B       0.799556      1.036788     -0.891717
  B      -0.695386      0.992633     -0.315373
  B       0.054736     -1.482589      0.528624
  B       0.334310      0.349863      0.937130
  B      -1.106371     -0.371285      0.373175
6
Coordinates from ORCA-job B6_random_3d_seed1002_d1.80_q0_m5_R2SCAN-3C E -148.669584017434
  B       0.617419     -0.524691     -0.629046
  B       0.801731      1.040486     -0.897975
  B      -0.690674      0.986230     -0.314193
  B       0.050869     -1.487889      0.520779
  B       0.332847      0.358591      0.939935
  B      -1.112191     -0.372726      0.380500
6
Coordinates from ORCA-job B6_random_3d_seed1002_d1.80_q0_m5_R2SCAN-3C E -148.669690616794
  B       0.620578     -0.521095     -0.625752
  B       0.803333      1.043771     -0.901865
  B      -0.686416      0.976853     -0.317796
  B       0.044079     -1.492189      0.511132
  B       0.332483      0.366426      0.943488
  B      -1.114057     -0.373767      0.390793
6
Coordinates from ORCA-job B6_random_3d_seed1002_d1.80_q0_m5_R2SCAN-3C E -148.669727615997
  B       0.621475     -0.517850     -0.623294
  B       0.803461      1.045540     -0.901200
  B      -0.685552      0.969925     -0.321506
  B       0.038525     -1.492948      0.506601
  B       0.335862      0.369710      0.944044
  B      -1.113770     -0.374378      0.395355
6
Coordinates from ORCA-job B6_random_3d_seed1002_d1.80_q0_m5_R2SCAN-3C E -148.669736851628
  B       0.621036     -0.516454     -0.621964
  B       0.803206      1.045182     -0.900545
  B      -0.685935      0.968520     -0.322331
  B       0.036648     -1.493329      0.505539
  B       0.337345      0.370880      0.943818
  B      -1.112300     -0.374799      0.395484
6
Coordinates from ORCA-job B6_random_3d_seed1002_d1.80_q0_m5_R2SCAN-3C E -148.669742869930
  B       0.620407     -0.515844     -0.620564
  B       0.802828      1.044798     -0.899647
  B      -0.686953      0.968463     -0.322618
  B       0.035510     -1.494208      0.505322
  B       0.339267      0.371985      0.943137
  B      -1.111059     -0.375194      0.394370
6
Coordinates from ORCA-job B6_random_3d_seed1002_d1.80_q0_m5_R2SCAN-3C E -148.669748271872
  B       0.619784     -0.515707     -0.618760
  B       0.802467      1.044277     -0.898904
  B      -0.688182      0.969219     -0.322422
  B       0.034476     -1.496254      0.504835
  B       0.341115      0.374226      0.942316
  B      -1.109660     -0.375760      0.392934
6
Coordinates from ORCA-job B6_random_3d_seed1002_d1.80_q0_m5_R2SCAN-3C E -148.669751780615
  B       0.619698     -0.516205     -0.617579
  B       0.802331      1.044105     -0.898219
  B      -0.689149      0.969903     -0.322173
  B       0.033748     -1.498300      0.504149
  B       0.342366      0.376647      0.941550
  B      -1.108993     -0.376149      0.392272
6
Coordinates from ORCA-job B6_random_3d_seed1002_d1.80_q0_m5_R2SCAN-3C E -148.669754965870
  B       0.620027     -0.517182     -0.616815
  B       0.802362      1.044017     -0.897089
  B      -0.690115      0.970341     -0.321967
  B       0.032937     -1.500449      0.503029
  B       0.343302      0.379708      0.940484
  B      -1.108514     -0.376435      0.392358
6
Coordinates from ORCA-job B6_random_3d_seed1002_d1.80_q0_m5_R2SCAN-3C E -148.669758595349
  B       0.620684     -0.518651     -0.616322
  B       0.802562      1.044046     -0.894725
  B      -0.691476      0.970168     -0.322220
  B       0.031692     -1.502723      0.501279
  B       0.344477      0.383701      0.938619
  B      -1.107939     -0.376541      0.393368
6
Coordinates from ORCA-job B6_random_3d_seed1002_d1.80_q0_m5_R2SCAN-3C E -148.669763231133
  B       0.621653     -0.520761     -0.616210
  B       0.803066      1.044005     -0.890350
  B      -0.693602      0.969342     -0.323019
  B       0.029821     -1.505208      0.498742
  B       0.346045      0.389151      0.935327
  B      -1.106982     -0.376529      0.395509
6
Coordinates from ORCA-job B6_random_3d_seed1002_d1.80_q0_m5_R2SCAN-3C E -148.669766671974
  B       0.622260     -0.522409     -0.616453
  B       0.803764      1.043929     -0.885673
  B      -0.695589      0.968038     -0.324232
  B       0.028148     -1.506673      0.496522
  B       0.347403      0.393524      0.931878
  B      -1.105987     -0.376411      0.397958
6
Coordinates from ORCA-job B6_random_3d_seed1002_d1.80_q0_m5_R2SCAN-3C E -148.669768209053
  B       0.622141     -0.522766     -0.616831
  B       0.804371      1.043851     -0.883368
  B      -0.696354      0.967169     -0.325004
  B       0.027619     -1.506653      0.495787
  B       0.347808      0.394805      0.930132
  B      -1.105585     -0.376406      0.399285
6
Coordinates from ORCA-job B6_random_3d_seed1002_d1.80_q0_m5_R2SCAN-3C E -148.669768970391
  B       0.621580     -0.522340     -0.617226
  B       0.804740      1.043845     -0.883264
  B      -0.696107      0.966951     -0.325230
  B       0.028095     -1.505799      0.496256
  B       0.347495      0.393812      0.930022
  B      -1.105804     -0.376469      0.399442
6
Coordinates from ORCA-job B6_random_3d_seed1002_d1.80_q0_m5_R2SCAN-3C E -148.669769400074
  B       0.620895     -0.522217     -0.617414
  B       0.805166      1.043897     -0.882533
  B      -0.696160      0.966709     -0.325593
  B       0.028363     -1.505552      0.496404
  B       0.347619      0.393765      0.929464
  B      -1.105883     -0.376603      0.399671
6
Coordinates from ORCA-job B6_random_3d_seed1002_d1.80_q0_m5_R2SCAN-3C E -148.669769728681
  B       0.620304     -0.522179     -0.617480
  B       0.805495      1.043837     -0.882285
  B      -0.696067      0.966745     -0.325578
  B       0.028579     -1.505728      0.496414
  B       0.347560      0.394196      0.929274
  B      -1.105872     -0.376871      0.399655
6
Coordinates from ORCA-job B6_random_3d_seed1002_d1.80_q0_m5_R2SCAN-3C E -148.669770026004
  B       0.619624     -0.522300     -0.617547
  B       0.805879      1.043795     -0.881845
  B      -0.696039      0.966687     -0.325610
  B       0.028675     -1.506250      0.496186
  B       0.347610      0.395239      0.929110
  B      -1.105750     -0.377171      0.399706
6
Coordinates from ORCA-job B6_random_3d_seed1002_d1.80_q0_m5_R2SCAN-3C E -148.669770145638
  B       0.619297     -0.522424     -0.617684
  B       0.806048      1.043740     -0.881667
  B      -0.695977      0.966623     -0.325590
  B       0.028703     -1.506537      0.496011
  B       0.347499      0.395876      0.929181
  B      -1.105569     -0.377277      0.399749
6
Coordinates from ORCA-job B6_random_3d_seed1002_d1.80_q0_m5_R2SCAN-3C E -148.669770224841
  B       0.618884     -0.522643     -0.617951
  B       0.806263      1.043697     -0.881314
  B      -0.695977      0.966424     -0.325669
  B       0.028648     -1.506881      0.495738
  B       0.347408      0.396762      0.929331
  B      -1.105226     -0.377359      0.399865
6
Coordinates from ORCA-job B6_random_3d_seed1002_d1.80_q0_m5_R2SCAN-3C E -148.669770253416
  B       0.618911     -0.522624     -0.618058
  B       0.806221      1.043697     -0.881380
  B      -0.695933      0.966418     -0.325654
  B       0.028696     -1.506715      0.495856
  B       0.347331      0.396530      0.929420
  B      -1.105225     -0.377305      0.399816
