6
Coordinates from ORCA-job B6_octahedral_3d_d2.50_q0_m5_R2SCAN-3C E -148.204637268401
  B       1.767767      0.000000      0.000000
  B      -1.767767      0.000000      0.000000
  B       0.000000      1.767767      0.000000
  B       0.000000     -1.767767      0.000000
  B       0.000000      0.000000      1.767767
  B       0.000000      0.000000     -1.767767
6
Coordinates from ORCA-job B6_octahedral_3d_d2.50_q0_m5_R2SCAN-3C E -148.225504134018
  B       1.736482      0.006620      0.006255
  B      -1.736356     -0.006508     -0.007006
  B       0.006734      1.736330      0.006933
  B      -0.006393     -1.736264     -0.006250
  B       0.006397      0.006502      1.736534
  B      -0.006864     -0.006680     -1.736467
6
Coordinates from ORCA-job B6_octahedral_3d_d2.50_q0_m5_R2SCAN-3C E -148.247208493298
  B       1.705519      0.014113      0.013334
  B      -1.705231     -0.013868     -0.014971
  B       0.014361      1.705165      0.014799
  B      -0.013619     -1.705025     -0.013321
  B       0.013637      0.013868      1.705656
  B      -0.014668     -0.014253     -1.705497
6
Coordinates from ORCA-job B6_octahedral_3d_d2.50_q0_m5_R2SCAN-3C E -148.281561598978
  B       1.659542      0.026458      0.025025
  B      -1.658960     -0.025989     -0.028131
  B       0.026924      1.658808      0.027769
  B      -0.025521     -1.658558     -0.024989
  B       0.025587      0.026020      1.659843
  B      -0.027571     -0.026740     -1.659517
6
Coordinates from ORCA-job B6_octahedral_3d_d2.50_q0_m5_R2SCAN-3C E -148.344646531138
  B       1.591881      0.047671      0.045164
  B      -1.590734     -0.046809     -0.050783
  B       0.048498      1.590407      0.050039
  B      -0.045977     -1.590001     -0.045079
  B       0.046142      0.046931      1.592492
  B      -0.049810     -0.048198     -1.591834
6
Coordinates from ORCA-job B6_octahedral_3d_d2.50_q0_m5_R2SCAN-3C E -148.411125130786
  B       1.522188      0.058620      0.059674
  B      -1.520935     -0.062068     -0.062781
  B       0.060058      1.516155      0.059290
  B      -0.059998     -1.511502     -0.053099
  B       0.060248      0.055582      1.514346
  B      -0.061562     -0.056787     -1.517429
6
Coordinates from ORCA-job B6_octahedral_3d_d2.50_q0_m5_R2SCAN-3C E -148.475137710839
  B       1.452700      0.069585      0.075440
  B      -1.451408     -0.078555     -0.075040
  B       0.072419      1.443598      0.072315
  B      -0.074666     -1.432258     -0.063352
  B       0.075178      0.066624      1.435477
  B      -0.074223     -0.068995     -1.444840
6
Coordinates from ORCA-job B6_octahedral_3d_d2.50_q0_m5_R2SCAN-3C E -148.561387226878
  B       1.389066      0.079610      0.094398
  B      -1.387286     -0.095761     -0.088674
  B       0.084326      1.371503      0.091443
  B      -0.089077     -1.349221     -0.076304
  B       0.092195      0.080929      1.353354
  B      -0.089225     -0.087060     -1.374218
6
Coordinates from ORCA-job B6_octahedral_3d_d2.50_q0_m5_R2SCAN-3C E -148.609074057118
  B       1.319454      0.094593      0.109823
  B      -1.317584     -0.110783     -0.105945
  B       0.100113      1.296733      0.107887
  B      -0.103242     -1.273291     -0.089752
  B       0.107757      0.095419      1.278929
  B      -0.106499     -0.102670     -1.300941
6
Coordinates from ORCA-job B6_octahedral_3d_d2.50_q0_m5_R2SCAN-3C E -148.626073793608
  B       1.244862      0.071021      0.085401
  B      -1.247798     -0.083536     -0.080974
  B       0.080694      1.237966      0.096621
  B      -0.073860     -1.212441     -0.074221
  B       0.081955      0.079509      1.219029
  B      -0.085852     -0.092518     -1.245856
6
Coordinates from ORCA-job B6_octahedral_3d_d2.50_q0_m5_R2SCAN-3C E -148.631362395070
  B       1.205677      0.029842      0.046368
  B      -1.205341     -0.036375     -0.047021
  B       0.041563      1.219119      0.073039
  B      -0.027665     -1.195210     -0.052675
  B       0.043073      0.055763      1.207751
  B      -0.057307     -0.073140     -1.227462
6
Coordinates from ORCA-job B6_octahedral_3d_d2.50_q0_m5_R2SCAN-3C E -148.637123869782
  B       1.179516     -0.005691      0.039142
  B      -1.176582      0.017473     -0.054551
  B      -0.001340      1.203399      0.060955
  B       0.018216     -1.210615     -0.052204
  B       0.044024      0.058454      1.234715
  B      -0.063834     -0.063019     -1.228056
6
Coordinates from ORCA-job B6_octahedral_3d_d2.50_q0_m5_R2SCAN-3C E -148.634733576760
  B       1.144135     -0.062317      0.037890
  B      -1.137058      0.099850     -0.075463
  B      -0.069124      1.184178      0.045603
  B       0.089067     -1.240881     -0.057385
  B       0.055951      0.069640      1.295220
  B      -0.082970     -0.050470     -1.245866
6
Coordinates from ORCA-job B6_octahedral_3d_d2.50_q0_m5_R2SCAN-3C E -148.639125445812
  B       1.167674     -0.026222      0.053239
  B      -1.183193      0.060689     -0.084290
  B      -0.026779      1.210091      0.061209
  B       0.058631     -1.268399     -0.068188
  B       0.070367      0.082851      1.330305
  B      -0.086700     -0.059010     -1.292275
6
Coordinates from ORCA-job B6_octahedral_3d_d2.50_q0_m5_R2SCAN-3C E -148.642060734698
  B       1.149470     -0.019717      0.043413
  B      -1.183077      0.045741     -0.063778
  B      -0.009622      1.181563      0.063694
  B       0.051341     -1.229026     -0.065841
  B       0.058949      0.081724      1.294191
  B      -0.067061     -0.060285     -1.271678
6
Coordinates from ORCA-job B6_octahedral_3d_d2.50_q0_m5_R2SCAN-3C E -148.643473920513
  B       1.150565     -0.030443      0.051153
  B      -1.171980      0.048733     -0.076496
  B      -0.020918      1.169024      0.060767
  B       0.054085     -1.212607     -0.068050
  B       0.067653      0.084784      1.311816
  B      -0.079405     -0.059492     -1.279190
6
Coordinates from ORCA-job B6_octahedral_3d_d2.50_q0_m5_R2SCAN-3C E -148.644610076897
  B       1.158723     -0.038643      0.069286
  B      -1.172667      0.049131     -0.083536
  B      -0.031501      1.150249      0.062238
  B       0.051860     -1.191374     -0.066928
  B       0.082528      0.089256      1.321768
  B      -0.088944     -0.058620     -1.302828
6
Coordinates from ORCA-job B6_octahedral_3d_d2.50_q0_m5_R2SCAN-3C E -148.645252393892
  B       1.178265     -0.045655      0.083973
  B      -1.183877      0.035669     -0.090934
  B      -0.035585      1.149139      0.063725
  B       0.039731     -1.163996     -0.074098
  B       0.095336      0.090703      1.326296
  B      -0.093870     -0.065860     -1.308961
6
Coordinates from ORCA-job B6_octahedral_3d_d2.50_q0_m5_R2SCAN-3C E -148.645358377678
  B       1.186285     -0.046456      0.091710
  B      -1.190604      0.035201     -0.088607
  B      -0.039421      1.151162      0.067584
  B       0.035846     -1.163677     -0.074579
  B       0.100266      0.091778      1.318048
  B      -0.092371     -0.068009     -1.314155
6
Coordinates from ORCA-job B6_octahedral_3d_d2.50_q0_m5_R2SCAN-3C E -148.645375806460
  B       1.184617     -0.046157      0.090256
  B      -1.190108      0.035106     -0.087680
  B      -0.038757      1.152853      0.067082
  B       0.036012     -1.162975     -0.076114
  B       0.099440      0.090975      1.319681
  B      -0.091204     -0.069801     -1.313225
6
Coordinates from ORCA-job B6_octahedral_3d_d2.50_q0_m5_R2SCAN-3C E -148.645395267615
  B       1.181837     -0.044742      0.088808
  B      -1.187396      0.035521     -0.086195
  B      -0.038082      1.155091      0.067633
  B       0.035637     -1.163407     -0.077791
  B       0.098181      0.090131      1.320924
  B      -0.090176     -0.072594     -1.313379
6
Coordinates from ORCA-job B6_octahedral_3d_d2.50_q0_m5_R2SCAN-3C E -148.645432735255
  B       1.174821     -0.042095      0.085450
  B      -1.180483      0.037387     -0.082419
  B      -0.036937      1.161698      0.070989
  B       0.035939     -1.166316     -0.081197
  B       0.094773      0.088943      1.322464
  B      -0.088112     -0.079617     -1.315288
6
Coordinates from ORCA-job B6_octahedral_3d_d2.50_q0_m5_R2SCAN-3C E -148.645457014997
  B       1.171177     -0.040473      0.083059
  B      -1.174247      0.038876     -0.079937
  B      -0.036752      1.167232      0.075712
  B       0.035865     -1.169591     -0.083513
  B       0.091502      0.089227      1.321914
  B      -0.087545     -0.085271     -1.317235
6
Coordinates from ORCA-job B6_octahedral_3d_d2.50_q0_m5_R2SCAN-3C E -148.645468871926
  B       1.169724     -0.041053      0.082383
  B      -1.171292      0.039533     -0.079671
  B      -0.036878      1.171205      0.079573
  B       0.037045     -1.171896     -0.083431
  B       0.089918      0.089881      1.319996
  B      -0.088517     -0.087669     -1.318850
6
Coordinates from ORCA-job B6_octahedral_3d_d2.50_q0_m5_R2SCAN-3C E -148.645469998151
  B       1.170966     -0.041192      0.081866
  B      -1.170712      0.039637     -0.079958
  B      -0.037145      1.171069      0.080802
  B       0.036916     -1.172402     -0.083243
  B       0.089062      0.090670      1.319550
  B      -0.089088     -0.087783     -1.319017
6
Coordinates from ORCA-job B6_octahedral_3d_d2.50_q0_m5_R2SCAN-3C E -148.645470283592
  B       1.170811     -0.041362      0.082035
  B      -1.170950      0.039492     -0.080190
  B      -0.037012      1.171052      0.080590
  B       0.037129     -1.172109     -0.082870
  B       0.089276      0.090437      1.319542
  B      -0.089253     -0.087511     -1.319107
6
Coordinates from ORCA-job B6_octahedral_3d_d2.50_q0_m5_R2SCAN-3C E -148.645470319468
  B       1.170887     -0.041328      0.082025
  B      -1.171041      0.039524     -0.080248
  B      -0.036985      1.170967      0.080546
  B       0.037151     -1.171971     -0.082772
  B       0.089279      0.090323      1.319585
  B      -0.089291     -0.087515     -1.319136
