6
Coordinates from ORCA-job B6_octahedral_3d_d2.50_q0_m5_R2SCAN-3C E -148.645470319468
  B           1.17088701371871     -0.04132802375819      0.08202510847984
  B          -1.17104084930372      0.03952365017590     -0.08024821436117
  B          -0.03698541851464      1.17096744290880      0.08054558112853
  B           0.03715140372447     -1.17197127825026     -0.08277162549404
  B           0.08927905047448      0.09032296580019      1.31958542327123
  B          -0.08929120009930     -0.08751475687644     -1.31913627302438
