6
Coordinates from ORCA-job B6_random_3d_seed1003_d3.50_q0_m5_R2SCAN-3C E -148.669771881879
  B           0.30457510839068      0.46186126281619     -0.91408429863748
  B           0.32835385773004     -0.92896554887633      0.26017905224088
  B          -1.17918294820001      0.36477366315859     -0.03208166782853
  B           1.41849191270889      0.15774398187420      0.69294610190546
  B           0.06068643248295      1.01014452403373      0.70676739418457
  B          -0.93292436311256     -1.06555787300637     -0.71372659186489
