6
Coordinates from ORCA-job B6_random_3d_seed1003_d3.50_q0_m5_R2SCAN-3C E -147.909944144855
  B       0.324351      1.572447     -2.066432
  B      -0.266872     -1.525942      1.900746
  B      -2.522376      0.363074     -0.073189
  B       2.654865     -0.286495      0.181103
  B       0.192219      1.822967      1.602195
  B      -0.382187     -1.946051     -1.544423
6
Coordinates from ORCA-job B6_random_3d_seed1003_d3.50_q0_m5_R2SCAN-3C E -147.918212590506
  B       0.322823      1.557089     -2.049680
  B      -0.261191     -1.502227      1.872346
  B      -2.486107      0.357403     -0.073725
  B       2.631823     -0.279186      0.182290
  B       0.182872      1.790013      1.586953
  B      -0.390219     -1.923092     -1.518184
6
Coordinates from ORCA-job B6_random_3d_seed1003_d3.50_q0_m5_R2SCAN-3C E -147.926829374841
  B       0.321089      1.542171     -2.033123
  B      -0.255537     -1.478350      1.844269
  B      -2.450070      0.351591     -0.074541
  B       2.609188     -0.272141      0.183515
  B       0.173550      1.756489      1.571445
  B      -0.398220     -1.899760     -1.491565
6
Coordinates from ORCA-job B6_random_3d_seed1003_d3.50_q0_m5_R2SCAN-3C E -147.940439732101
  B       0.318124      1.520138     -2.008164
  B      -0.247244     -1.442449      1.802692
  B      -2.396274      0.342504     -0.076003
  B       2.575020     -0.262027      0.185354
  B       0.160059      1.705992      1.547649
  B      -0.409685     -1.864158     -1.451528
6
Coordinates from ORCA-job B6_random_3d_seed1003_d3.50_q0_m5_R2SCAN-3C E -147.962505948380
  B       0.312928      1.487718     -1.970567
  B      -0.235338     -1.388312      1.741400
  B      -2.316104      0.327938     -0.078561
  B       2.523341     -0.247667      0.188261
  B       0.141025      1.629818      1.510907
  B      -0.425852     -1.809495     -1.391440
6
Coordinates from ORCA-job B6_random_3d_seed1003_d3.50_q0_m5_R2SCAN-3C E -147.987721511138
  B       0.306794      1.455684     -1.932980
  B      -0.223535     -1.331414      1.679330
  B      -2.234034      0.311143     -0.081907
  B       2.471013     -0.233500      0.192283
  B       0.122490      1.548653      1.471552
  B      -0.442728     -1.750566     -1.328278
6
Coordinates from ORCA-job B6_random_3d_seed1003_d3.50_q0_m5_R2SCAN-3C E -148.015671340886
  B       0.299763      1.424963     -1.897002
  B      -0.212381     -1.273050      1.618964
  B      -2.153348      0.292241     -0.085828
  B       2.420168     -0.220088      0.197667
  B       0.105546      1.465039      1.431150
  B      -0.459748     -1.689105     -1.264951
6
Coordinates from ORCA-job B6_random_3d_seed1003_d3.50_q0_m5_R2SCAN-3C E -148.046822323982
  B       0.291654      1.395404     -1.862589
  B      -0.201776     -1.212843      1.560476
  B      -2.074199      0.270935     -0.090536
  B       2.370726     -0.207423      0.204690
  B       0.090655      1.379030      1.389938
  B      -0.477059     -1.625104     -1.201978
6
Coordinates from ORCA-job B6_random_3d_seed1003_d3.50_q0_m5_R2SCAN-3C E -148.081710674694
  B       0.282334      1.366652     -1.829512
  B      -0.191700     -1.150396      1.503985
  B      -1.996579      0.247032     -0.096127
  B       2.322598     -0.195385      0.213504
  B       0.078202      1.290939      1.348337
  B      -0.494856     -1.558843     -1.140187
6
Coordinates from ORCA-job B6_random_3d_seed1003_d3.50_q0_m5_R2SCAN-3C E -148.120730446713
  B       0.271527      1.338599     -1.797823
  B      -0.181934     -1.086851      1.449581
  B      -1.920399      0.220428     -0.102791
  B       2.275448     -0.184113      0.224500
  B       0.068731      1.202805      1.306958
  B      -0.513373     -1.490869     -1.080425
6
Coordinates from ORCA-job B6_random_3d_seed1003_d3.50_q0_m5_R2SCAN-3C E -148.164535317704
  B       0.258788      1.310951     -1.767533
  B      -0.171927     -1.022001      1.397298
  B      -1.845697      0.190897     -0.111134
  B       2.229217     -0.173762      0.238168
  B       0.062699      1.115129      1.266516
  B      -0.533080     -1.421214     -1.023315
6
Coordinates from ORCA-job B6_random_3d_seed1003_d3.50_q0_m5_R2SCAN-3C E -148.197437230212
  B       0.248685      1.292883     -1.748948
  B      -0.163913     -0.974315      1.364237
  B      -1.797836      0.168575     -0.118949
  B       2.200431     -0.167786      0.249757
  B       0.060637      1.052840      1.240488
  B      -0.548003     -1.372197     -0.986585
6
Coordinates from ORCA-job B6_random_3d_seed1003_d3.50_q0_m5_R2SCAN-3C E -148.233209582296
  B       0.237223      1.274963     -1.731218
  B      -0.154859     -0.926365      1.332265
  B      -1.750754      0.144533     -0.128402
  B       2.172249     -0.162816      0.263081
  B       0.060046      0.991021      1.214912
  B      -0.563905     -1.321336     -0.950639
6
Coordinates from ORCA-job B6_random_3d_seed1003_d3.50_q0_m5_R2SCAN-3C E -148.288047656689
  B       0.218491      1.248054     -1.705071
  B      -0.141262     -0.861046      1.284341
  B      -1.682667      0.111291     -0.141167
  B       2.130108     -0.157072      0.284134
  B       0.059972      0.906435      1.176833
  B      -0.584642     -1.247661     -0.899070
6
Coordinates from ORCA-job B6_random_3d_seed1003_d3.50_q0_m5_R2SCAN-3C E -148.340205911627
  B       0.198742      1.220506     -1.677669
  B      -0.128632     -0.800074      1.231266
  B      -1.612367      0.078834     -0.152009
  B       2.087916     -0.153125      0.305210
  B       0.057421      0.826323      1.136436
  B      -0.603080     -1.172464     -0.843234
6
Coordinates from ORCA-job B6_random_3d_seed1003_d3.50_q0_m5_R2SCAN-3C E -148.370548868480
  B       0.183094      1.198397     -1.653732
  B      -0.122705     -0.779838      1.181979
  B      -1.558250      0.060087     -0.155708
  B       2.052353     -0.149549      0.322467
  B       0.058177      0.791986      1.102271
  B      -0.612669     -1.121084     -0.797277
6
Coordinates from ORCA-job B6_random_3d_seed1003_d3.50_q0_m5_R2SCAN-3C E -148.388360738026
  B       0.171327      1.179526     -1.633506
  B      -0.120154     -0.774011      1.141324
  B      -1.525713      0.059803     -0.150414
  B       2.022336     -0.145673      0.335077
  B       0.061139      0.777194      1.077291
  B      -0.608935     -1.096840     -0.769772
6
Coordinates from ORCA-job B6_random_3d_seed1003_d3.50_q0_m5_R2SCAN-3C E -148.413694397171
  B       0.154176      1.148144     -1.600066
  B      -0.117630     -0.770300      1.076153
  B      -1.483303      0.069965     -0.136931
  B       1.972880     -0.137670      0.353380
  B       0.068862      0.761061      1.040709
  B      -0.594985     -1.071199     -0.733245
6
Coordinates from ORCA-job B6_random_3d_seed1003_d3.50_q0_m5_R2SCAN-3C E -148.450042915894
  B       0.131424      1.097509     -1.546033
  B      -0.115189     -0.768972      0.979722
  B      -1.426584      0.091736     -0.115922
  B       1.890527     -0.120196      0.377827
  B       0.089496      0.742473      0.990277
  B      -0.569674     -1.042551     -0.685871
6
Coordinates from ORCA-job B6_random_3d_seed1003_d3.50_q0_m5_R2SCAN-3C E -148.485975309997
  B       0.108863      1.042880     -1.487995
  B      -0.109196     -0.770315      0.896219
  B      -1.373994      0.116934     -0.099809
  B       1.793755     -0.095571      0.402284
  B       0.127234      0.728874      0.945638
  B      -0.546662     -1.022802     -0.656337
6
Coordinates from ORCA-job B6_random_3d_seed1003_d3.50_q0_m5_R2SCAN-3C E -148.522278361376
  B       0.086359      0.988849     -1.428165
  B      -0.102408     -0.774801      0.819962
  B      -1.322740      0.147568     -0.082412
  B       1.691358     -0.068507      0.426688
  B       0.170874      0.720750      0.902173
  B      -0.523443     -1.013860     -0.638247
6
Coordinates from ORCA-job B6_random_3d_seed1003_d3.50_q0_m5_R2SCAN-3C E -148.558801350026
  B       0.062694      0.934109     -1.363259
  B      -0.094070     -0.795967      0.764053
  B      -1.285698      0.204758     -0.058787
  B       1.595570     -0.040306      0.448515
  B       0.216546      0.737794      0.865137
  B      -0.495041     -1.040389     -0.655659
6
Coordinates from ORCA-job B6_random_3d_seed1003_d3.50_q0_m5_R2SCAN-3C E -148.590782511367
  B       0.025871      0.861276     -1.273337
  B      -0.074618     -0.794051      0.739177
  B      -1.236135      0.247051     -0.059317
  B       1.521105     -0.024427      0.463125
  B       0.243897      0.749068      0.825071
  B      -0.480119     -1.038916     -0.694718
6
Coordinates from ORCA-job B6_random_3d_seed1003_d3.50_q0_m5_R2SCAN-3C E -148.617212991806
  B      -0.010446      0.793713     -1.169027
  B      -0.056682     -0.810442      0.736460
  B      -1.200338      0.293544     -0.074012
  B       1.491180     -0.025313      0.464402
  B       0.245750      0.793439      0.786815
  B      -0.469464     -1.044941     -0.744637
6
Coordinates from ORCA-job B6_random_3d_seed1003_d3.50_q0_m5_R2SCAN-3C E -148.628237838253
  B      -0.023600      0.751740     -1.091666
  B      -0.032565     -0.802291      0.725208
  B      -1.182024      0.307019     -0.084917
  B       1.471316     -0.039316      0.463362
  B       0.232027      0.812603      0.747322
  B      -0.465155     -1.029756     -0.759309
6
Coordinates from ORCA-job B6_random_3d_seed1003_d3.50_q0_m5_R2SCAN-3C E -148.633971533491
  B      -0.008217      0.736300     -1.055414
  B      -0.012964     -0.802453      0.730127
  B      -1.197561      0.307384     -0.077504
  B       1.468196     -0.053140      0.460579
  B       0.218836      0.837877      0.722059
  B      -0.468290     -1.025968     -0.779847
6
Coordinates from ORCA-job B6_random_3d_seed1003_d3.50_q0_m5_R2SCAN-3C E -148.640708555640
  B       0.027733      0.713440     -1.000335
  B       0.011745     -0.798858      0.723519
  B      -1.223374      0.296152     -0.062812
  B       1.454048     -0.066012      0.454065
  B       0.201835      0.859161      0.674308
  B      -0.471987     -1.003882     -0.788745
6
Coordinates from ORCA-job B6_random_3d_seed1003_d3.50_q0_m5_R2SCAN-3C E -148.644866937019
  B       0.087827      0.673664     -0.953823
  B       0.033258     -0.804005      0.718901
  B      -1.257005      0.273512     -0.028572
  B       1.442881     -0.072926      0.443416
  B       0.176805      0.896937      0.629981
  B      -0.483765     -0.967181     -0.809903
6
Coordinates from ORCA-job B6_random_3d_seed1003_d3.50_q0_m5_R2SCAN-3C E -148.646000000518
  B       0.110759      0.644358     -0.965325
  B       0.043478     -0.811264      0.707542
  B      -1.257144      0.255918     -0.013341
  B       1.434969     -0.068744      0.448055
  B       0.170500      0.925909      0.642862
  B      -0.502562     -0.946176     -0.819793
6
Coordinates from ORCA-job B6_random_3d_seed1003_d3.50_q0_m5_R2SCAN-3C E -148.647458396454
  B       0.154652      0.629483     -0.952225
  B       0.035062     -0.831871      0.683176
  B      -1.239385      0.240204      0.006060
  B       1.436397     -0.033132      0.451934
  B       0.162888      0.950491      0.640112
  B      -0.549613     -0.955175     -0.829058
6
Coordinates from ORCA-job B6_random_3d_seed1003_d3.50_q0_m5_R2SCAN-3C E -148.650608308216
  B       0.213850      0.601047     -0.931807
  B       0.060678     -0.843860      0.633065
  B      -1.212115      0.235982      0.026513
  B       1.422228      0.010631      0.469265
  B       0.143021      0.972739      0.642205
  B      -0.627663     -0.976540     -0.839241
6
Coordinates from ORCA-job B6_random_3d_seed1003_d3.50_q0_m5_R2SCAN-3C E -148.654058091080
  B       0.263316      0.575728     -0.908053
  B       0.096874     -0.842749      0.572304
  B      -1.181377      0.242146      0.034818
  B       1.404927      0.054604      0.493611
  B       0.126947      0.980139      0.649541
  B      -0.710687     -1.009868     -0.842221
6
Coordinates from ORCA-job B6_random_3d_seed1003_d3.50_q0_m5_R2SCAN-3C E -148.656177299498
  B       0.279192      0.569605     -0.903760
  B       0.138682     -0.840074      0.523333
  B      -1.165447      0.266721      0.025253
  B       1.394296      0.076687      0.525262
  B       0.117555      0.969095      0.658800
  B      -0.764279     -1.042034     -0.828889
6
Coordinates from ORCA-job B6_random_3d_seed1003_d3.50_q0_m5_R2SCAN-3C E -148.659036903519
  B       0.327332      0.538580     -0.883726
  B       0.168867     -0.854648      0.460205
  B      -1.164114      0.258344      0.029439
  B       1.401136      0.110229      0.549671
  B       0.098483      0.996864      0.663709
  B      -0.831703     -1.049370     -0.819297
6
Coordinates from ORCA-job B6_random_3d_seed1003_d3.50_q0_m5_R2SCAN-3C E -148.663316479665
  B       0.301607      0.549998     -0.908411
  B       0.194646     -0.887165      0.425795
  B      -1.202502      0.280447     -0.008503
  B       1.435830      0.106308      0.594963
  B       0.102550      0.994639      0.668959
  B      -0.832131     -1.044227     -0.772804
6
Coordinates from ORCA-job B6_random_3d_seed1003_d3.50_q0_m5_R2SCAN-3C E -148.664828585722
  B       0.308882      0.521496     -0.923811
  B       0.223198     -0.904912      0.369570
  B      -1.173796      0.323484      0.008611
  B       1.453013      0.125506      0.633859
  B       0.053259      0.990696      0.669951
  B      -0.864556     -1.056271     -0.758180
6
Coordinates from ORCA-job B6_random_3d_seed1003_d3.50_q0_m5_R2SCAN-3C E -148.667580594667
  B       0.314224      0.521314     -0.905914
  B       0.255066     -0.884755      0.331838
  B      -1.188960      0.325025     -0.020533
  B       1.447434      0.125449      0.652170
  B       0.073289      0.996835      0.683960
  B      -0.901053     -1.083867     -0.741521
6
Coordinates from ORCA-job B6_random_3d_seed1003_d3.50_q0_m5_R2SCAN-3C E -148.668455587867
  B       0.319306      0.512709     -0.900364
  B       0.274604     -0.887944      0.300301
  B      -1.181984      0.333979     -0.033134
  B       1.442892      0.130629      0.662288
  B       0.065196      1.001043      0.693839
  B      -0.920014     -1.090416     -0.722929
6
Coordinates from ORCA-job B6_random_3d_seed1003_d3.50_q0_m5_R2SCAN-3C E -148.669294520812
  B       0.319630      0.508816     -0.896623
  B       0.293316     -0.916146      0.288676
  B      -1.170133      0.341838     -0.051527
  B       1.425341      0.142597      0.657533
  B       0.061705      1.005867      0.707718
  B      -0.929859     -1.082972     -0.705778
6
Coordinates from ORCA-job B6_random_3d_seed1003_d3.50_q0_m5_R2SCAN-3C E -148.669615327112
  B       0.331476      0.494540     -0.892564
  B       0.314405     -0.928669      0.256046
  B      -1.168455      0.363022     -0.057394
  B       1.425173      0.159745      0.669543
  B       0.051895      1.007811      0.718671
  B      -0.954494     -1.096449     -0.694302
6
Coordinates from ORCA-job B6_random_3d_seed1003_d3.50_q0_m5_R2SCAN-3C E -148.669675979524
  B       0.334549      0.490157     -0.891782
  B       0.316825     -0.932560      0.259355
  B      -1.171183      0.360262     -0.054978
  B       1.422447      0.160660      0.664971
  B       0.049545      1.008554      0.717783
  B      -0.952183     -1.087073     -0.695349
6
Coordinates from ORCA-job B6_random_3d_seed1003_d3.50_q0_m5_R2SCAN-3C E -148.669698027058
  B       0.335071      0.486405     -0.892052
  B       0.317096     -0.931643      0.259154
  B      -1.173572      0.361454     -0.053331
  B       1.421021      0.161709      0.664258
  B       0.049778      1.006110      0.717453
  B      -0.949394     -1.084035     -0.695483
6
Coordinates from ORCA-job B6_random_3d_seed1003_d3.50_q0_m5_R2SCAN-3C E -148.669714642217
  B       0.336178      0.480905     -0.894196
  B       0.319766     -0.930880      0.257157
  B      -1.177046      0.363349     -0.050277
  B       1.420379      0.162710      0.666024
  B       0.048932      1.004814      0.717269
  B      -0.948209     -1.080899     -0.695977
6
Coordinates from ORCA-job B6_random_3d_seed1003_d3.50_q0_m5_R2SCAN-3C E -148.669724679777
  B       0.334713      0.477662     -0.897403
  B       0.321304     -0.930403      0.256144
  B      -1.178302      0.364358     -0.047739
  B       1.419840      0.163311      0.669251
  B       0.049636      1.004107      0.716813
  B      -0.947191     -1.079035     -0.697067
6
Coordinates from ORCA-job B6_random_3d_seed1003_d3.50_q0_m5_R2SCAN-3C E -148.669738506744
  B       0.330014      0.473196     -0.903038
  B       0.323525     -0.929384      0.255525
  B      -1.179021      0.364814     -0.043363
  B       1.419034      0.162953      0.675435
  B       0.051531      1.004418      0.715363
  B      -0.945083     -1.075997     -0.699921
6
Coordinates from ORCA-job B6_random_3d_seed1003_d3.50_q0_m5_R2SCAN-3C E -148.669753166347
  B       0.321719      0.468512     -0.909352
  B       0.325696     -0.928561      0.256019
  B      -1.179013      0.364634     -0.038302
  B       1.418256      0.161530      0.683267
  B       0.054799      1.005986      0.712764
  B      -0.941456     -1.072101     -0.704397
6
Coordinates from ORCA-job B6_random_3d_seed1003_d3.50_q0_m5_R2SCAN-3C E -148.669766114252
  B       0.310580      0.463787     -0.914962
  B       0.327849     -0.928042      0.257641
  B      -1.178707      0.364236     -0.033203
  B       1.417837      0.159039      0.691611
  B       0.058879      1.008641      0.709058
  B      -0.936438     -1.067661     -0.710146
6
Coordinates from ORCA-job B6_random_3d_seed1003_d3.50_q0_m5_R2SCAN-3C E -148.669770627545
  B       0.304551      0.461994     -0.916166
  B       0.328694     -0.928219      0.258998
  B      -1.178681      0.364296     -0.031540
  B       1.418104      0.157567      0.694883
  B       0.060965      1.010168      0.706940
  B      -0.933634     -1.065807     -0.713115
6
Coordinates from ORCA-job B6_random_3d_seed1003_d3.50_q0_m5_R2SCAN-3C E -148.669771580646
  B       0.303831      0.461993     -0.915213
  B       0.328629     -0.928560      0.259654
  B      -1.178890      0.364537     -0.031790
  B       1.418390      0.157383      0.694396
  B       0.061107      1.010330      0.706559
  B      -0.933067     -1.065683     -0.713607
6
Coordinates from ORCA-job B6_random_3d_seed1003_d3.50_q0_m5_R2SCAN-3C E -148.669771821413
  B       0.304710      0.462049     -0.914257
  B       0.328482     -0.928836      0.259740
  B      -1.179060      0.364723     -0.032188
  B       1.418457      0.157702      0.693295
  B       0.060676      1.010170      0.706805
  B      -0.933265     -1.065808     -0.713396
6
Coordinates from ORCA-job B6_random_3d_seed1003_d3.50_q0_m5_R2SCAN-3C E -148.669771881879
  B       0.304575      0.461861     -0.914084
  B       0.328354     -0.928966      0.260179
  B      -1.179183      0.364774     -0.032082
  B       1.418492      0.157744      0.692946
  B       0.060686      1.010145      0.706767
  B      -0.932924     -1.065558     -0.713727
