6
Coordinates from ORCA-job B6_trigonal_prism_d1.60_q0_m1_R2SCAN-3C E -148.549993102099
  B       0.800000      0.461880     -0.800000
  B      -0.800000      0.461880     -0.800000
  B      -0.000000     -0.923760     -0.800000
  B       0.800000      0.461880      0.800000
  B      -0.800000      0.461880      0.800000
  B      -0.000000     -0.923760      0.800000
6
Coordinates from ORCA-job B6_trigonal_prism_d1.60_q0_m1_R2SCAN-3C E -148.582619505402
  B       0.844721      0.461943     -0.781306
  B      -0.844721      0.461943     -0.781306
  B       0.000000     -0.923886     -0.791199
  B       0.844721      0.461943      0.781306
  B      -0.844721      0.461943      0.781306
  B       0.000000     -0.923886      0.791199
6
Coordinates from ORCA-job B6_trigonal_prism_d1.60_q0_m1_R2SCAN-3C E -148.600849719810
  B       0.890979      0.460256     -0.766563
  B      -0.890979      0.460256     -0.766563
  B       0.000000     -0.920512     -0.785882
  B       0.890979      0.460256      0.766563
  B      -0.890979      0.460256      0.766563
  B       0.000000     -0.920512      0.785882
6
Coordinates from ORCA-job B6_trigonal_prism_d1.60_q0_m1_R2SCAN-3C E -148.609732782816
  B       0.939039      0.455489     -0.762262
  B      -0.939039      0.455489     -0.762262
  B       0.000000     -0.910978     -0.786029
  B       0.939039      0.455489      0.762262
  B      -0.939039      0.455489      0.762262
  B       0.000000     -0.910978      0.786029
6
Coordinates from ORCA-job B6_trigonal_prism_d1.60_q0_m1_R2SCAN-3C E -148.612586740968
  B       0.974238      0.449735     -0.765590
  B      -0.974238      0.449735     -0.765590
  B       0.000000     -0.899470     -0.788115
  B       0.974238      0.449735      0.765590
  B      -0.974238      0.449735      0.765590
  B       0.000000     -0.899470      0.788115
6
Coordinates from ORCA-job B6_trigonal_prism_d1.60_q0_m1_R2SCAN-3C E -148.613088536453
  B       0.992128      0.445613     -0.768310
  B      -0.992128      0.445613     -0.768310
  B      -0.000000     -0.891225     -0.788609
  B       0.992127      0.445611      0.768310
  B      -0.992127      0.445611      0.768310
  B       0.000000     -0.891223      0.788609
6
Coordinates from ORCA-job B6_trigonal_prism_d1.60_q0_m1_R2SCAN-3C E -148.613124898127
  B       0.996836      0.443986     -0.768947
  B      -0.996836      0.443986     -0.768947
  B      -0.000000     -0.887973     -0.788167
  B       0.996834      0.443986      0.768947
  B      -0.996834      0.443986      0.768947
  B       0.000000     -0.887971      0.788166
6
Coordinates from ORCA-job B6_trigonal_prism_d1.60_q0_m1_R2SCAN-3C E -148.613128395237
  B       0.997404      0.443470     -0.768966
  B      -0.997404      0.443470     -0.768966
  B      -0.000000     -0.886942     -0.787818
  B       0.997403      0.443472      0.768966
  B      -0.997403      0.443472      0.768966
  B       0.000000     -0.886942      0.787816
6
Coordinates from ORCA-job B6_trigonal_prism_d1.60_q0_m1_R2SCAN-3C E -148.613129203033
  B       0.997170      0.443265     -0.768897
  B      -0.997170      0.443265     -0.768897
  B      -0.000000     -0.886534     -0.787627
  B       0.997166      0.443267      0.768899
  B      -0.997166      0.443267      0.768899
  B       0.000000     -0.886532      0.787624
6
Coordinates from ORCA-job B6_trigonal_prism_d1.60_q0_m1_R2SCAN-3C E -148.613129261351
  B       0.996981      0.443261     -0.768873
  B      -0.996981      0.443261     -0.768873
  B      -0.000000     -0.886528     -0.787638
  B       0.996976      0.443265      0.768875
  B      -0.996976      0.443265      0.768875
  B       0.000000     -0.886526      0.787632
