6
Coordinates from ORCA-job B6_trigonal_prism_d1.60_q0_m1_R2SCAN-3C E -148.613129261351
  B           0.99698055683702      0.44326140602265     -0.76887257445371
  B          -0.99698056716898      0.44326140126667     -0.76887258546333
  B          -0.00000000258007     -0.88652763033745     -0.78763787067838
  B           0.99697576428381      0.44326529895715      0.76887539428413
  B          -0.99697575513606      0.44326530899088      0.76887538222040
  B           0.00000000376427     -0.88652576489990      0.78763225409089
