6
Coordinates from ORCA-job B6_random_3d_seed1001_d2.50_q0_m3_R2SCAN-3C E -148.696202330841
  B           0.09761077400707     -1.10383573786086     -0.41356233835427
  B          -0.09744628179674      1.10379199148546      0.41401722877130
  B           0.33178546081721      0.42408175840278     -1.05363865229882
  B          -0.33206168967892     -0.42373866397409      1.05344046910269
  B           1.13137126301939     -0.02924965035864      0.34442785632315
  B          -1.13125952636801      0.02895031230535     -0.34468456354406
