6
Coordinates from ORCA-job B6_random_3d_seed1001_d2.50_q0_m3_R2SCAN-3C E -148.207181451237
  B       0.160425     -1.769446     -0.520969
  B      -0.079291      1.635644      0.562039
  B       0.448005      0.628776     -1.582202
  B      -0.507912     -0.779248      1.634876
  B       1.699566      0.100717      0.524570
  B      -1.720794      0.183558     -0.618314
6
Coordinates from ORCA-job B6_random_3d_seed1001_d2.50_q0_m3_R2SCAN-3C E -148.230384511816
  B       0.157243     -1.744038     -0.501743
  B      -0.073499      1.606436      0.544940
  B       0.434424      0.622722     -1.550810
  B      -0.496912     -0.777772      1.604926
  B       1.668763      0.104233      0.515606
  B      -1.690020      0.188420     -0.612920
6
Coordinates from ORCA-job B6_random_3d_seed1001_d2.50_q0_m3_R2SCAN-3C E -148.254723513384
  B       0.154378     -1.719080     -0.482296
  B      -0.067917      1.577719      0.527399
  B       0.420375      0.617159     -1.519619
  B      -0.485710     -0.776756      1.575384
  B       1.637461      0.107235      0.506751
  B      -1.658587      0.193723     -0.607619
6
Coordinates from ORCA-job B6_random_3d_seed1001_d2.50_q0_m3_R2SCAN-3C E -148.293751533051
  B       0.150754     -1.681699     -0.452957
  B      -0.060648      1.535604      0.500820
  B       0.399011      0.609153     -1.473210
  B      -0.468491     -0.775243      1.531297
  B       1.589988      0.110096      0.493486
  B      -1.610614      0.202088     -0.599437
6
Coordinates from ORCA-job B6_random_3d_seed1001_d2.50_q0_m3_R2SCAN-3C E -148.355998426456
  B       0.147606     -1.625385     -0.407932
  B      -0.054265      1.474678      0.459141
  B       0.365667      0.598009     -1.405007
  B      -0.440790     -0.773743      1.466043
  B       1.518580      0.108937      0.474564
  B      -1.536798      0.217503     -0.586809
6
Coordinates from ORCA-job B6_random_3d_seed1001_d2.50_q0_m3_R2SCAN-3C E -148.422944341242
  B       0.142789     -1.567043     -0.360379
  B      -0.046848      1.411337      0.415134
  B       0.331943      0.587409     -1.333100
  B      -0.412540     -0.773460      1.398363
  B       1.445520      0.109195      0.454096
  B      -1.460865      0.232562     -0.574113
6
Coordinates from ORCA-job B6_random_3d_seed1001_d2.50_q0_m3_R2SCAN-3C E -148.491516327112
  B       0.133094     -1.504744     -0.308245
  B      -0.037983      1.344282      0.372547
  B       0.301980      0.579090     -1.265917
  B      -0.383345     -0.775678      1.328987
  B       1.374157      0.112240      0.434327
  B      -1.387903      0.244810     -0.561699
6
Coordinates from ORCA-job B6_random_3d_seed1001_d2.50_q0_m3_R2SCAN-3C E -148.551001516645
  B       0.117557     -1.429850     -0.248828
  B      -0.024620      1.269800      0.335402
  B       0.281822      0.572920     -1.210723
  B      -0.354632     -0.783161      1.260094
  B       1.305070      0.119325      0.414024
  B      -1.325198      0.250965     -0.549970
6
Coordinates from ORCA-job B6_random_3d_seed1001_d2.50_q0_m3_R2SCAN-3C E -148.591585341696
  B       0.106954     -1.337239     -0.217192
  B      -0.013795      1.192477      0.319171
  B       0.275469      0.547160     -1.164346
  B      -0.330376     -0.767216      1.203396
  B       1.225152      0.121269      0.388712
  B      -1.263404      0.243549     -0.529741
6
Coordinates from ORCA-job B6_random_3d_seed1001_d2.50_q0_m3_R2SCAN-3C E -148.621654580708
  B       0.103913     -1.237050     -0.244501
  B      -0.002992      1.130527      0.336791
  B       0.283375      0.500991     -1.135938
  B      -0.320001     -0.713533      1.182249
  B       1.146385      0.112301      0.364705
  B      -1.210681      0.206764     -0.503307
6
Coordinates from ORCA-job B6_random_3d_seed1001_d2.50_q0_m3_R2SCAN-3C E -148.657935631548
  B       0.102561     -1.141329     -0.269431
  B      -0.017890      1.085835      0.372243
  B       0.288220      0.448904     -1.128260
  B      -0.309881     -0.650943      1.150291
  B       1.086104      0.085237      0.345933
  B      -1.149114      0.172296     -0.470777
6
Coordinates from ORCA-job B6_random_3d_seed1001_d2.50_q0_m3_R2SCAN-3C E -148.678358522259
  B       0.109264     -1.067249     -0.316774
  B      -0.072281      1.067154      0.399554
  B       0.316770      0.383756     -1.098624
  B      -0.320192     -0.589596      1.129673
  B       1.072894      0.053743      0.306694
  B      -1.106455      0.152191     -0.420523
6
Coordinates from ORCA-job B6_random_3d_seed1001_d2.50_q0_m3_R2SCAN-3C E -148.690242005628
  B       0.091429     -1.089109     -0.371239
  B      -0.105194      1.100991      0.446656
  B       0.345028      0.358954     -1.096248
  B      -0.334891     -0.530097      1.103761
  B       1.125639      0.046397      0.307641
  B      -1.122011      0.112864     -0.390570
6
Coordinates from ORCA-job B6_random_3d_seed1001_d2.50_q0_m3_R2SCAN-3C E -148.693524393515
  B       0.074600     -1.094864     -0.394006
  B      -0.110574      1.082243      0.457856
  B       0.357333      0.360974     -1.067399
  B      -0.333213     -0.462582      1.050625
  B       1.130050      0.040394      0.311117
  B      -1.118196      0.073835     -0.358192
6
Coordinates from ORCA-job B6_random_3d_seed1001_d2.50_q0_m3_R2SCAN-3C E -148.695356991060
  B       0.080532     -1.117120     -0.390084
  B      -0.120352      1.090061      0.444497
  B       0.348699      0.393922     -1.069593
  B      -0.317731     -0.443895      1.035758
  B       1.139784      0.008139      0.333333
  B      -1.130932      0.068893     -0.353912
6
Coordinates from ORCA-job B6_random_3d_seed1001_d2.50_q0_m3_R2SCAN-3C E -148.695772741823
  B       0.079133     -1.111497     -0.393165
  B      -0.110490      1.099706      0.432275
  B       0.339230      0.405707     -1.062958
  B      -0.320198     -0.447098      1.045425
  B       1.138867     -0.001293      0.337319
  B      -1.126543      0.054476     -0.358895
6
Coordinates from ORCA-job B6_random_3d_seed1001_d2.50_q0_m3_R2SCAN-3C E -148.696108138711
  B       0.088748     -1.108341     -0.402327
  B      -0.103029      1.101112      0.420907
  B       0.333899      0.418970     -1.054710
  B      -0.326204     -0.433415      1.050007
  B       1.134063     -0.017941      0.339243
  B      -1.127477      0.039614     -0.353120
6
Coordinates from ORCA-job B6_random_3d_seed1001_d2.50_q0_m3_R2SCAN-3C E -148.696194086050
  B       0.097267     -1.105712     -0.410042
  B      -0.098529      1.102272      0.415943
  B       0.331295      0.424321     -1.052084
  B      -0.332097     -0.424291      1.053403
  B       1.131982     -0.027934      0.340610
  B      -1.129917      0.031343     -0.347829
6
Coordinates from ORCA-job B6_random_3d_seed1001_d2.50_q0_m3_R2SCAN-3C E -148.696200063780
  B       0.097531     -1.104878     -0.412513
  B      -0.097723      1.103032      0.415323
  B       0.330931      0.424417     -1.052469
  B      -0.332511     -0.422734      1.053448
  B       1.132087     -0.029077      0.342620
  B      -1.130314      0.029241     -0.346408
6
Coordinates from ORCA-job B6_random_3d_seed1001_d2.50_q0_m3_R2SCAN-3C E -148.696201862479
  B       0.098040     -1.104227     -0.413335
  B      -0.097343      1.103911      0.414533
  B       0.331439      0.424485     -1.053310
  B      -0.332659     -0.423132      1.053640
  B       1.131623     -0.029680      0.343623
  B      -1.131100      0.028643     -0.345151
6
Coordinates from ORCA-job B6_random_3d_seed1001_d2.50_q0_m3_R2SCAN-3C E -148.696202257260
  B       0.097795     -1.103888     -0.413566
  B      -0.097401      1.103856      0.414204
  B       0.331619      0.424189     -1.053600
  B      -0.332100     -0.423468      1.053550
  B       1.131392     -0.029508      0.344326
  B      -1.131305      0.028819     -0.344913
6
Coordinates from ORCA-job B6_random_3d_seed1001_d2.50_q0_m3_R2SCAN-3C E -148.696202330841
  B       0.097611     -1.103836     -0.413562
  B      -0.097446      1.103792      0.414017
  B       0.331785      0.424082     -1.053639
  B      -0.332062     -0.423739      1.053440
  B       1.131371     -0.029250      0.344428
  B      -1.131260      0.028950     -0.344685
