6
Coordinates from ORCA-job B6_planar_ring_d3.50_q0_m5_R2SCAN-3C E -147.834176550028
  B       3.500000     -0.000000      0.000000
  B       1.750000      3.031089      0.000000
  B      -1.750000      3.031089      0.000000
  B      -3.500000      0.000000      0.000000
  B      -1.750000     -3.031089      0.000000
  B       1.750000     -3.031089      0.000000
6
Coordinates from ORCA-job B6_planar_ring_d3.50_q0_m5_R2SCAN-3C E -147.844238773944
  B       3.435260     -0.000000     -0.000000
  B       1.717603      2.974915      0.000000
  B      -1.717603      2.974915     -0.000000
  B      -3.435260      0.000000     -0.000000
  B      -1.717603     -2.974915      0.000000
  B       1.717603     -2.974915     -0.000000
6
Coordinates from ORCA-job B6_planar_ring_d3.50_q0_m5_R2SCAN-3C E -147.854897414626
  B       3.370438     -0.000000     -0.000000
  B       1.685203      2.918791      0.000000
  B      -1.685203      2.918791      0.000000
  B      -3.370438      0.000000     -0.000000
  B      -1.685203     -2.918791      0.000000
  B       1.685203     -2.918791     -0.000000
6
Coordinates from ORCA-job B6_planar_ring_d3.50_q0_m5_R2SCAN-3C E -147.872079163334
  B       3.273228      0.000000     -0.000000
  B       1.636595      2.834596      0.000000
  B      -1.636595      2.834596      0.000000
  B      -3.273228     -0.000000     -0.000000
  B      -1.636595     -2.834596      0.000000
  B       1.636595     -2.834596     -0.000000
6
Coordinates from ORCA-job B6_planar_ring_d3.50_q0_m5_R2SCAN-3C E -147.900793931705
  B       3.127386      0.000000      0.000000
  B       1.563675      2.708324      0.000000
  B      -1.563675      2.708324     -0.000000
  B      -3.127386     -0.000000     -0.000000
  B      -1.563675     -2.708324      0.000000
  B       1.563675     -2.708324     -0.000000
6
Coordinates from ORCA-job B6_planar_ring_d3.50_q0_m5_R2SCAN-3C E -147.934697105573
  B       2.976380     -0.000000     -0.000000
  B       1.488069      2.577228     -0.000000
  B      -1.488069      2.577228      0.000000
  B      -2.976380     -0.000000     -0.000000
  B      -1.488069     -2.577228      0.000000
  B       1.488069     -2.577228      0.000000
6
Coordinates from ORCA-job B6_planar_ring_d3.50_q0_m5_R2SCAN-3C E -147.973226831502
  B       2.825076      0.000000      0.000000
  B       1.412456      2.446310      0.000000
  B      -1.412456      2.446310     -0.000000
  B      -2.825076     -0.000000      0.000000
  B      -1.412456     -2.446310      0.000000
  B       1.412456     -2.446310     -0.000000
6
Coordinates from ORCA-job B6_planar_ring_d3.50_q0_m5_R2SCAN-3C E -148.016815012309
  B       2.673989      0.000000      0.000000
  B       1.336864      2.315254     -0.000000
  B      -1.336863      2.315254      0.000000
  B      -2.673989     -0.000000      0.000000
  B      -1.336863     -2.315254     -0.000000
  B       1.336863     -2.315254      0.000000
6
Coordinates from ORCA-job B6_planar_ring_d3.50_q0_m5_R2SCAN-3C E -148.065433106896
  B       2.522776      0.000000      0.000000
  B       1.261269      2.184273     -0.000000
  B      -1.261269      2.184272      0.000000
  B      -2.522776     -0.000000     -0.000000
  B      -1.261269     -2.184272      0.000000
  B       1.261269     -2.184273     -0.000000
6
Coordinates from ORCA-job B6_planar_ring_d3.50_q0_m5_R2SCAN-3C E -148.118274995309
  B       2.371806      0.000000      0.000000
  B       1.185670      2.053154     -0.000000
  B      -1.185670      2.053152     -0.000000
  B      -2.371805     -0.000000     -0.000000
  B      -1.185670     -2.053152      0.000000
  B       1.185670     -2.053154     -0.000000
6
Coordinates from ORCA-job B6_planar_ring_d3.50_q0_m5_R2SCAN-3C E -148.172660515305
  B       2.220633      0.000000      0.000000
  B       1.110088      1.922143      0.000000
  B      -1.110086      1.922137     -0.000000
  B      -2.220636     -0.000000      0.000000
  B      -1.110086     -1.922137      0.000000
  B       1.110087     -1.922143     -0.000000
6
Coordinates from ORCA-job B6_planar_ring_d3.50_q0_m5_R2SCAN-3C E -148.326568553662
  B       2.069169      0.000000     -0.000000
  B       1.034515      1.791340     -0.000000
  B      -1.034446      1.791202      0.000000
  B      -2.069307      0.000000     -0.000000
  B      -1.034446     -1.791202      0.000000
  B       1.034514     -1.791340      0.000000
6
Coordinates from ORCA-job B6_planar_ring_d3.50_q0_m5_R2SCAN-3C E -148.442215533417
  B       1.920280      0.000395      0.000000
  B       0.962948      1.655898      0.000000
  B      -0.960880      1.656980     -0.000000
  B      -1.923340     -0.000328      0.000000
  B      -0.961493     -1.657224     -0.000000
  B       0.962484     -1.655721      0.000000
6
Coordinates from ORCA-job B6_planar_ring_d3.50_q0_m5_R2SCAN-3C E -148.508723802337
  B       1.817448      0.000406      0.000000
  B       0.912917      1.567927     -0.000000
  B      -0.909519      1.571330     -0.000000
  B      -1.823313     -0.000241      0.000000
  B      -0.910133     -1.571573     -0.000000
  B       0.912599     -1.567849     -0.000000
6
Coordinates from ORCA-job B6_planar_ring_d3.50_q0_m5_R2SCAN-3C E -148.566497579124
  B       1.663487     -0.000487      0.000000
  B       0.832042      1.448126     -0.000000
  B      -0.831641      1.448238     -0.000000
  B      -1.665714      0.000546      0.000000
  B      -0.831079     -1.448068     -0.000000
  B       0.832905     -1.448355     -0.000000
6
Coordinates from ORCA-job B6_planar_ring_d3.50_q0_m5_R2SCAN-3C E -148.606197668468
  B       1.642739      0.006638      0.000050
  B       0.848451      1.377723     -0.000022
  B      -0.842711      1.370156     -0.000028
  B      -1.638725     -0.006470      0.000050
  B      -0.849643     -1.370568     -0.000022
  B       0.839889     -1.377479     -0.000028
6
Coordinates from ORCA-job B6_planar_ring_d3.50_q0_m5_R2SCAN-3C E -148.564035050965
  B       1.518364      0.005432      0.000086
  B       0.828549      1.254577     -0.000038
  B      -0.825827      1.247131     -0.000048
  B      -1.515684     -0.005760      0.000086
  B      -0.827670     -1.243332     -0.000037
  B       0.822267     -1.258048     -0.000049
6
Coordinates from ORCA-job B6_planar_ring_d3.50_q0_m5_R2SCAN-3C E -148.606711115810
  B       1.550752     -0.001981      0.000088
  B       0.808321      1.355057     -0.000039
  B      -0.812045      1.355584     -0.000050
  B      -1.555082      0.001763      0.000089
  B      -0.804667     -1.350296     -0.000039
  B       0.812720     -1.360127     -0.000050
6
Coordinates from ORCA-job B6_planar_ring_d3.50_q0_m5_R2SCAN-3C E -148.617496123960
  B       1.585856     -0.076572      0.000089
  B       0.738763      1.317599     -0.000045
  B      -0.891372      1.418896     -0.000045
  B      -1.589515      0.076890      0.000090
  B      -0.737404     -1.308740     -0.000044
  B       0.893672     -1.428073     -0.000045
6
Coordinates from ORCA-job B6_planar_ring_d3.50_q0_m5_R2SCAN-3C E -148.635127081528
  B       1.540611     -0.120522      0.000077
  B       0.601238      1.248359     -0.000042
  B      -0.928839      1.551283     -0.000036
  B      -1.553327      0.118669      0.000078
  B      -0.596279     -1.238629     -0.000041
  B       0.936597     -1.559161     -0.000036
6
Coordinates from ORCA-job B6_planar_ring_d3.50_q0_m5_R2SCAN-3C E -148.634235526342
  B       1.559467     -0.070028      0.000090
  B       0.598905      1.156358     -0.000033
  B      -0.943356      1.605982     -0.000057
  B      -1.573443      0.071111      0.000091
  B      -0.586294     -1.151960     -0.000033
  B       0.944721     -1.611464     -0.000058
6
Coordinates from ORCA-job B6_planar_ring_d3.50_q0_m5_R2SCAN-3C E -148.614878877040
  B       1.332938     -0.082644     -0.000027
  B       0.499779      1.133001      0.000003
  B      -0.868486      1.610441      0.000022
  B      -1.374077      0.079577     -0.000024
  B      -0.485925     -1.170463      0.000006
  B       0.895771     -1.569912      0.000020
6
Coordinates from ORCA-job B6_planar_ring_d3.50_q0_m5_R2SCAN-3C E -148.638697248878
  B       1.421073     -0.188397     -0.000002
  B       0.468806      1.125972     -0.000002
  B      -0.976980      1.637653      0.000001
  B      -1.421308      0.177635      0.000002
  B      -0.482760     -1.126823     -0.000000
  B       0.991169     -1.626040      0.000000
6
Coordinates from ORCA-job B6_planar_ring_d3.50_q0_m5_R2SCAN-3C E -148.644161400149
  B       1.511847     -0.125685     -0.000017
  B       0.557088      1.157692      0.000002
  B      -0.970609      1.625472      0.000012
  B      -1.509144      0.128943     -0.000013
  B      -0.554447     -1.159524      0.000004
  B       0.965265     -1.626898      0.000011
6
Coordinates from ORCA-job B6_planar_ring_d3.50_q0_m5_R2SCAN-3C E -148.637201642040
  B       1.494186     -0.126671      0.000278
  B       0.489263      1.176443     -0.000068
  B      -0.959788      1.610393     -0.000207
  B      -1.418071      0.113862      0.000264
  B      -0.550791     -1.108936     -0.000042
  B       0.945202     -1.665091     -0.000225
6
Coordinates from ORCA-job B6_planar_ring_d3.50_q0_m5_R2SCAN-3C E -148.645247633324
  B       1.454674     -0.139183      0.000254
  B       0.501751      1.151343     -0.000065
  B      -0.970162      1.634749     -0.000196
  B      -1.431105      0.139002      0.000259
  B      -0.515944     -1.134437     -0.000045
  B       0.960786     -1.651474     -0.000208
6
Coordinates from ORCA-job B6_planar_ring_d3.50_q0_m5_R2SCAN-3C E -148.645983243205
  B       1.464141     -0.138582      0.000220
  B       0.535042      1.158171     -0.000069
  B      -0.958423      1.641163     -0.000168
  B      -1.472725      0.125969      0.000238
  B      -0.545626     -1.161786     -0.000049
  B       0.977590     -1.624935     -0.000173
6
Coordinates from ORCA-job B6_planar_ring_d3.50_q0_m5_R2SCAN-3C E -148.644591064921
  B       1.468111     -0.117185      0.000182
  B       0.566782      1.168086     -0.000078
  B      -0.987209      1.617761     -0.000110
  B      -1.463256      0.154579      0.000193
  B      -0.541003     -1.186543     -0.000065
  B       0.956575     -1.636697     -0.000121
6
Coordinates from ORCA-job B6_planar_ring_d3.50_q0_m5_R2SCAN-3C E -148.646929242740
  B       1.433767     -0.137802      0.000166
  B       0.536959      1.161772     -0.000078
  B      -0.978660      1.644514     -0.000099
  B      -1.435073      0.142100      0.000179
  B      -0.520040     -1.174390     -0.000061
  B       0.963047     -1.636194     -0.000108
6
Coordinates from ORCA-job B6_planar_ring_d3.50_q0_m5_R2SCAN-3C E -148.647245971005
  B       1.431266     -0.131116      0.000150
  B       0.522002      1.165396     -0.000074
  B      -0.958679      1.646946     -0.000088
  B      -1.439361      0.142816      0.000166
  B      -0.537838     -1.180422     -0.000058
  B       0.982611     -1.643620     -0.000096
6
Coordinates from ORCA-job B6_planar_ring_d3.50_q0_m5_R2SCAN-3C E -148.646911429209
  B       1.451680     -0.145782      0.000116
  B       0.541116      1.203187     -0.000072
  B      -0.978829      1.656167     -0.000055
  B      -1.431247      0.113548      0.000125
  B      -0.547196     -1.180045     -0.000050
  B       0.964476     -1.647076     -0.000063
6
Coordinates from ORCA-job B6_planar_ring_d3.50_q0_m5_R2SCAN-3C E -148.648358090973
  B       1.419955     -0.141916      0.000107
  B       0.534489      1.192159     -0.000069
  B      -0.978226      1.661370     -0.000049
  B      -1.413014      0.128914      0.000118
  B      -0.534261     -1.189298     -0.000049
  B       0.971057     -1.651229     -0.000057
6
Coordinates from ORCA-job B6_planar_ring_d3.50_q0_m5_R2SCAN-3C E -148.649066013961
  B       1.387218     -0.135705      0.000020
  B       0.537611      1.203699     -0.000046
  B      -0.975124      1.662361      0.000015
  B      -1.387012      0.134791      0.000030
  B      -0.537510     -1.211036     -0.000025
  B       0.974817     -1.654111      0.000006
6
Coordinates from ORCA-job B6_planar_ring_d3.50_q0_m5_R2SCAN-3C E -148.649455324985
  B       1.362330     -0.131885      0.000034
  B       0.540234      1.220553      0.000020
  B      -0.979098      1.673172     -0.000064
  B      -1.363676      0.136390      0.000042
  B      -0.539522     -1.229569      0.000042
  B       0.979732     -1.668660     -0.000074
6
Coordinates from ORCA-job B6_planar_ring_d3.50_q0_m5_R2SCAN-3C E -148.649560636893
  B       1.348725     -0.128331     -0.000076
  B       0.551662      1.245652     -0.000030
  B      -0.976076      1.668209      0.000094
  B      -1.348556      0.129603     -0.000066
  B      -0.552735     -1.247835     -0.000008
  B       0.976978     -1.667298      0.000085
6
Coordinates from ORCA-job B6_planar_ring_d3.50_q0_m5_R2SCAN-3C E -148.649583975313
  B       1.351630     -0.129462      0.000012
  B       0.548906      1.242474      0.000014
  B      -0.978694      1.672763     -0.000038
  B      -1.351289      0.129801      0.000024
  B      -0.549178     -1.243070      0.000033
  B       0.978625     -1.672506     -0.000045
6
Coordinates from ORCA-job B6_planar_ring_d3.50_q0_m5_R2SCAN-3C E -148.649584615921
  B       1.352390     -0.129515     -0.000032
  B       0.549174      1.242145     -0.000032
  B      -0.978387      1.671882      0.000050
  B      -1.352188      0.129607     -0.000018
  B      -0.549322     -1.242414     -0.000014
  B       0.978334     -1.671705      0.000044
6
Coordinates from ORCA-job B6_planar_ring_d3.50_q0_m5_R2SCAN-3C E -148.649584634971
  B       1.352418     -0.129540      0.000021
  B       0.549264      1.242198      0.000020
  B      -0.978355      1.671733     -0.000054
  B      -1.352341      0.129558      0.000036
  B      -0.549325     -1.242262      0.000036
  B       0.978337     -1.671687     -0.000059
