6
Coordinates from ORCA-job B6_planar_ring_d3.50_q0_m5_R2SCAN-3C E -148.649584634971
  B           1.35241826433939     -0.12953961357784      0.00002060969605
  B           0.54926419300821      1.24219803878513      0.00002034823190
  B          -0.97835464222530      1.67173279668289     -0.00005419994918
  B          -1.35234069512742      0.12955839239171      0.00003591450816
  B          -0.54932454809326     -1.24226225441239      0.00003631933580
  B           0.97833742809839     -1.67168735986949     -0.00005899182272
