6
Coordinates from ORCA-job B6_random_3d_seed1002_d3.00_q0_m3_R2SCAN-3C E -148.700582716793
  B           0.43675601861048     -0.32558397158106     -1.24914295852491
  B           0.90420064952235      0.71973767302374     -0.08986458838331
  B          -1.01939218512605      0.12335615486988     -0.86787934909638
  B           0.43463787583072     -1.05353206425847      0.20854694832856
  B           0.32742537121546      0.13521634654745      1.31734072874263
  B          -1.08362772005295      0.40080586139847      0.68099921893341
