6
Coordinates from ORCA-job B6_random_3d_seed1002_d3.00_q0_m3_R2SCAN-3C E -148.016190351938
  B       0.805712     -0.858980     -1.891957
  B       1.461707      1.817734     -0.536040
  B      -1.487647      0.972941     -1.421272
  B       0.266812     -2.147028      0.743512
  B       0.866992      0.304322      2.092414
  B      -1.913576     -0.088990      1.013343
6
Coordinates from ORCA-job B6_random_3d_seed1002_d3.00_q0_m3_R2SCAN-3C E -148.032991820715
  B       0.790869     -0.842981     -1.858694
  B       1.449299      1.789732     -0.527675
  B      -1.475064      0.946136     -1.383376
  B       0.270795     -2.105986      0.734213
  B       0.850141      0.289665      2.055697
  B      -1.886040     -0.076566      0.979835
6
Coordinates from ORCA-job B6_random_3d_seed1002_d3.00_q0_m3_R2SCAN-3C E -148.050976924715
  B       0.776618     -0.828201     -1.825586
  B       1.436541      1.762457     -0.518917
  B      -1.462631      0.919330     -1.343842
  B       0.273765     -2.064919      0.724596
  B       0.834207      0.275710      2.018816
  B      -1.858500     -0.064377      0.944933
6
Coordinates from ORCA-job B6_random_3d_seed1002_d3.00_q0_m3_R2SCAN-3C E -148.080319649388
  B       0.755714     -0.807920     -1.776167
  B       1.416404      1.722418     -0.504843
  B      -1.443766      0.879298     -1.282791
  B       0.276787     -2.003358      0.709495
  B       0.811644      0.256060      1.963389
  B      -1.816782     -0.046498      0.890916
6
Coordinates from ORCA-job B6_random_3d_seed1002_d3.00_q0_m3_R2SCAN-3C E -148.126427667249
  B       0.724532     -0.780883     -1.704120
  B       1.384588      1.664444     -0.482172
  B      -1.412139      0.826966     -1.206222
  B       0.279626     -1.911887      0.686511
  B       0.780569      0.228550      1.881932
  B      -1.757176     -0.027190      0.824070
6
Coordinates from ORCA-job B6_random_3d_seed1002_d3.00_q0_m3_R2SCAN-3C E -148.180584206436
  B       0.689996     -0.757529     -1.630246
  B       1.350124      1.607440     -0.455422
  B      -1.376785      0.773962     -1.129316
  B       0.281665     -1.816973      0.660996
  B       0.749479      0.201848      1.797385
  B      -1.694480     -0.008747      0.756602
6
Coordinates from ORCA-job B6_random_3d_seed1002_d3.00_q0_m3_R2SCAN-3C E -148.223996904992
  B       0.665945     -0.744067     -1.578791
  B       1.326921      1.570161     -0.436022
  B      -1.354020      0.733041     -1.065182
  B       0.283212     -1.752074      0.641570
  B       0.727293      0.184255      1.738307
  B      -1.649351      0.008683      0.700119
6
Coordinates from ORCA-job B6_random_3d_seed1002_d3.00_q0_m3_R2SCAN-3C E -148.254087775341
  B       0.650833     -0.735244     -1.544280
  B       1.312075      1.544652     -0.423531
  B      -1.339382      0.706031     -1.022727
  B       0.285235     -1.707092      0.628426
  B       0.711862      0.171241      1.698382
  B      -1.620623      0.020413      0.663732
6
Coordinates from ORCA-job B6_random_3d_seed1002_d3.00_q0_m3_R2SCAN-3C E -148.298505030651
  B       0.628271     -0.721365     -1.490841
  B       1.289043      1.504607     -0.405131
  B      -1.316470      0.667962     -0.964088
  B       0.289101     -1.636633      0.608921
  B       0.687898      0.149673      1.636912
  B      -1.577844      0.035756      0.614228
6
Coordinates from ORCA-job B6_random_3d_seed1002_d3.00_q0_m3_R2SCAN-3C E -148.360846325206
  B       0.593422     -0.697498     -1.408334
  B       1.253632      1.440680     -0.379726
  B      -1.273299      0.620573     -0.905009
  B       0.294320     -1.525743      0.577012
  B       0.647541      0.116271      1.543916
  B      -1.515615      0.045717      0.572141
6
Coordinates from ORCA-job B6_random_3d_seed1002_d3.00_q0_m3_R2SCAN-3C E -148.420755364583
  B       0.557388     -0.672553     -1.324815
  B       1.217758      1.377022     -0.355857
  B      -1.222974      0.581323     -0.869864
  B       0.297458     -1.414118      0.543373
  B       0.604407      0.083376      1.451180
  B      -1.454036      0.044950      0.555983
6
Coordinates from ORCA-job B6_random_3d_seed1002_d3.00_q0_m3_R2SCAN-3C E -148.461961572844
  B       0.531587     -0.655251     -1.269064
  B       1.194355      1.334696     -0.340803
  B      -1.181475      0.558300     -0.863587
  B       0.297150     -1.340196      0.515470
  B       0.570579      0.065343      1.390685
  B      -1.412196      0.037109      0.567298
6
Coordinates from ORCA-job B6_random_3d_seed1002_d3.00_q0_m3_R2SCAN-3C E -148.488806121077
  B       0.513359     -0.643845     -1.234934
  B       1.180302      1.309565     -0.332943
  B      -1.147861      0.542595     -0.865844
  B       0.292391     -1.299302      0.489625
  B       0.543110      0.062690      1.357216
  B      -1.381300      0.028298      0.586880
6
Coordinates from ORCA-job B6_random_3d_seed1002_d3.00_q0_m3_R2SCAN-3C E -148.526880032615
  B       0.483564     -0.626884     -1.187527
  B       1.158621      1.274885     -0.321349
  B      -1.094245      0.513294     -0.860231
  B       0.281131     -1.249045      0.444919
  B       0.495287      0.069212      1.312829
  B      -1.324359      0.018538      0.611357
6
Coordinates from ORCA-job B6_random_3d_seed1002_d3.00_q0_m3_R2SCAN-3C E -148.571907428113
  B       0.434488     -0.594861     -1.127845
  B       1.120004      1.219434     -0.301791
  B      -1.014535      0.466230     -0.852414
  B       0.268607     -1.191010      0.382589
  B       0.431016      0.087160      1.261067
  B      -1.239579      0.013048      0.638394
6
Coordinates from ORCA-job B6_random_3d_seed1002_d3.00_q0_m3_R2SCAN-3C E -148.607598970793
  B       0.394736     -0.537328     -1.125412
  B       1.051526      1.142129     -0.281888
  B      -0.931749      0.428270     -0.872204
  B       0.265708     -1.162227      0.366177
  B       0.369407      0.104651      1.232171
  B      -1.149628      0.024505      0.681157
6
Coordinates from ORCA-job B6_random_3d_seed1002_d3.00_q0_m3_R2SCAN-3C E -148.636180737422
  B       0.363205     -0.482448     -1.116218
  B       0.966577      1.019688     -0.236073
  B      -0.869328      0.384902     -0.891190
  B       0.289792     -1.126585      0.315842
  B       0.327068      0.143993      1.213229
  B      -1.077314      0.060449      0.714410
6
Coordinates from ORCA-job B6_random_3d_seed1002_d3.00_q0_m3_R2SCAN-3C E -148.665854771145
  B       0.380169     -0.477459     -1.145670
  B       0.921237      0.928335     -0.187988
  B      -0.896230      0.373796     -0.886872
  B       0.329527     -1.118680      0.274788
  B       0.348149      0.189705      1.248323
  B      -1.082852      0.104303      0.697419
6
Coordinates from ORCA-job B6_random_3d_seed1002_d3.00_q0_m3_R2SCAN-3C E -148.684365446966
  B       0.385792     -0.447364     -1.206122
  B       0.889076      0.831515     -0.140770
  B      -0.920706      0.349141     -0.888737
  B       0.370058     -1.095253      0.276690
  B       0.363240      0.215470      1.275960
  B      -1.087459      0.146490      0.682979
6
Coordinates from ORCA-job B6_random_3d_seed1002_d3.00_q0_m3_R2SCAN-3C E -148.692051095780
  B       0.428153     -0.435050     -1.218985
  B       0.865594      0.694546     -0.113690
  B      -0.980233      0.312595     -0.883687
  B       0.439393     -1.024930      0.200763
  B       0.334258      0.225659      1.319230
  B      -1.087165      0.227181      0.696369
6
Coordinates from ORCA-job B6_random_3d_seed1002_d3.00_q0_m3_R2SCAN-3C E -148.692702431555
  B       0.393332     -0.376553     -1.252614
  B       0.887684      0.687519     -0.132496
  B      -0.975009      0.259359     -0.911596
  B       0.446426     -1.025732      0.242053
  B       0.367777      0.195386      1.379431
  B      -1.120210      0.260021      0.675221
6
Coordinates from ORCA-job B6_random_3d_seed1002_d3.00_q0_m3_R2SCAN-3C E -148.695926872568
  B       0.406536     -0.379671     -1.275444
  B       0.883879      0.727689     -0.077224
  B      -0.996096      0.241017     -0.900002
  B       0.442657     -1.066938      0.264268
  B       0.350881      0.186783      1.304097
  B      -1.087857      0.291119      0.684306
6
Coordinates from ORCA-job B6_random_3d_seed1002_d3.00_q0_m3_R2SCAN-3C E -148.698804614140
  B       0.429445     -0.363710     -1.229480
  B       0.885358      0.724592     -0.110980
  B      -1.005268      0.222008     -0.879751
  B       0.433633     -1.066018      0.234813
  B       0.342693      0.173883      1.309879
  B      -1.085860      0.309246      0.675519
6
Coordinates from ORCA-job B6_random_3d_seed1002_d3.00_q0_m3_R2SCAN-3C E -148.699309834867
  B       0.415559     -0.365263     -1.230181
  B       0.892603      0.720247     -0.088113
  B      -1.005210      0.192100     -0.897579
  B       0.436270     -1.050005      0.209547
  B       0.348901      0.171699      1.323356
  B      -1.088122      0.331223      0.682970
6
Coordinates from ORCA-job B6_random_3d_seed1002_d3.00_q0_m3_R2SCAN-3C E -148.699743374759
  B       0.434477     -0.346412     -1.251811
  B       0.898952      0.715763     -0.102127
  B      -1.023632      0.170544     -0.894959
  B       0.443508     -1.052311      0.222857
  B       0.330756      0.151233      1.332234
  B      -1.084060      0.361183      0.693806
6
Coordinates from ORCA-job B6_random_3d_seed1002_d3.00_q0_m3_R2SCAN-3C E -148.700302997431
  B       0.428499     -0.331507     -1.246916
  B       0.896083      0.724375     -0.087915
  B      -1.024014      0.146317     -0.873427
  B       0.438110     -1.060893      0.222989
  B       0.333859      0.140720      1.319458
  B      -1.072537      0.380988      0.665810
6
Coordinates from ORCA-job B6_random_3d_seed1002_d3.00_q0_m3_R2SCAN-3C E -148.700548922781
  B       0.432098     -0.327248     -1.241730
  B       0.899349      0.720892     -0.087965
  B      -1.027219      0.134466     -0.879647
  B       0.435938     -1.056937      0.214366
  B       0.332894      0.139109      1.320569
  B      -1.073059      0.389717      0.674407
6
Coordinates from ORCA-job B6_random_3d_seed1002_d3.00_q0_m3_R2SCAN-3C E -148.700570429498
  B       0.431734     -0.326605     -1.245047
  B       0.903838      0.721394     -0.086205
  B      -1.028990      0.127467     -0.877919
  B       0.436655     -1.053652      0.211869
  B       0.331145      0.135559      1.323255
  B      -1.074382      0.395837      0.674046
6
Coordinates from ORCA-job B6_random_3d_seed1002_d3.00_q0_m3_R2SCAN-3C E -148.700576136670
  B       0.432281     -0.323993     -1.245036
  B       0.904037      0.720243     -0.086252
  B      -1.028865      0.124374     -0.876450
  B       0.436152     -1.053265      0.211968
  B       0.330231      0.134492      1.321906
  B      -1.073837      0.398149      0.673864
6
Coordinates from ORCA-job B6_random_3d_seed1002_d3.00_q0_m3_R2SCAN-3C E -148.700577114513
  B       0.432804     -0.323870     -1.245197
  B       0.904142      0.720381     -0.086567
  B      -1.028263      0.124024     -0.875815
  B       0.435540     -1.053221      0.211869
  B       0.330274      0.134393      1.321395
  B      -1.074496      0.398294      0.674315
6
Coordinates from ORCA-job B6_random_3d_seed1002_d3.00_q0_m3_R2SCAN-3C E -148.700579625378
  B       0.434872     -0.324312     -1.246766
  B       0.904293      0.720335     -0.087972
  B      -1.024589      0.123376     -0.872636
  B       0.433526     -1.052438      0.210990
  B       0.329842      0.134528      1.319399
  B      -1.077943      0.398511      0.676985
6
Coordinates from ORCA-job B6_random_3d_seed1002_d3.00_q0_m3_R2SCAN-3C E -148.700580770398
  B       0.435490     -0.324843     -1.247458
  B       0.904093      0.720312     -0.088635
  B      -1.022909      0.123526     -0.871381
  B       0.433468     -1.052530      0.210387
  B       0.329397      0.134676      1.318908
  B      -1.079539      0.398859      0.678179
6
Coordinates from ORCA-job B6_random_3d_seed1002_d3.00_q0_m3_R2SCAN-3C E -148.700582468992
  B       0.436772     -0.325899     -1.249043
  B       0.903719      0.719977     -0.089874
  B      -1.019488      0.123685     -0.868374
  B       0.434158     -1.053112      0.208781
  B       0.327883      0.135062      1.317732
  B      -1.083044      0.400287      0.680779
6
Coordinates from ORCA-job B6_random_3d_seed1002_d3.00_q0_m3_R2SCAN-3C E -148.700582660913
  B       0.436934     -0.325866     -1.249328
  B       0.903913      0.719856     -0.090053
  B      -1.018902      0.123492     -0.867663
  B       0.434480     -1.053422      0.208464
  B       0.327429      0.135137      1.317314
  B      -1.083855      0.400803      0.681266
6
Coordinates from ORCA-job B6_random_3d_seed1002_d3.00_q0_m3_R2SCAN-3C E -148.700582716793
  B       0.436756     -0.325584     -1.249143
  B       0.904201      0.719738     -0.089865
  B      -1.019392      0.123356     -0.867879
  B       0.434638     -1.053532      0.208547
  B       0.327425      0.135216      1.317341
  B      -1.083628      0.400806      0.680999
