6
Coordinates from ORCA-job B6_planar_ring_d3.00_q0_m3_R2SCAN-3C
  B           2.02283859258331     -0.00000091893365      0.00000042082490
  B           1.01131811813237      1.75119616671720     -0.00000021133965
  B          -1.01131798652639      1.75119597088109     -0.00000020895209
  B          -2.02283875427933     -0.00000094780696      0.00000041975856
  B          -1.01131619133030     -1.75119509656281     -0.00000021027325
  B           1.01131622142034     -1.75119517429487     -0.00000021001847
