6
Coordinates from ORCA-job B6_planar_ring_d3.00_q0_m3_R2SCAN-3C E -147.917718399095
  B       3.000000     -0.000000      0.000000
  B       1.500000      2.598076      0.000000
  B      -1.500000      2.598076      0.000000
  B      -3.000000      0.000000      0.000000
  B      -1.500000     -2.598076      0.000000
  B       1.500000     -2.598076      0.000000
6
Coordinates from ORCA-job B6_planar_ring_d3.00_q0_m3_R2SCAN-3C E -147.932845878355
  B       2.935151      0.000000      0.000000
  B       1.467599      2.541968     -0.000000
  B      -1.467599      2.541968      0.000000
  B      -2.935151      0.000000      0.000000
  B      -1.467599     -2.541968     -0.000000
  B       1.467599     -2.541968      0.000000
6
Coordinates from ORCA-job B6_planar_ring_d3.00_q0_m3_R2SCAN-3C E -147.948728768564
  B       2.870292      0.000000      0.000000
  B       1.435201      2.485864     -0.000000
  B      -1.435201      2.485864     -0.000000
  B      -2.870292      0.000000      0.000000
  B      -1.435201     -2.485864     -0.000000
  B       1.435201     -2.485864     -0.000000
6
Coordinates from ORCA-job B6_planar_ring_d3.00_q0_m3_R2SCAN-3C E -147.974049983621
  B       2.773109      0.000000      0.000000
  B       1.386602      2.401648     -0.000000
  B      -1.386602      2.401648     -0.000000
  B      -2.773109      0.000000      0.000000
  B      -1.386602     -2.401648     -0.000000
  B       1.386602     -2.401648     -0.000000
6
Coordinates from ORCA-job B6_planar_ring_d3.00_q0_m3_R2SCAN-3C E -148.015438507374
  B       2.627431      0.000000      0.000000
  B       1.313696      2.275273     -0.000000
  B      -1.313696      2.275273     -0.000000
  B      -2.627431      0.000000      0.000000
  B      -1.313696     -2.275273     -0.000000
  B       1.313696     -2.275273     -0.000000
6
Coordinates from ORCA-job B6_planar_ring_d3.00_q0_m3_R2SCAN-3C E -148.062444432168
  B       2.476290      0.000000      0.000000
  B       1.238105      2.144247     -0.000000
  B      -1.238105      2.144247     -0.000000
  B      -2.476290     -0.000000      0.000000
  B      -1.238105     -2.144247      0.000000
  B       1.238105     -2.144247     -0.000000
6
Coordinates from ORCA-job B6_planar_ring_d3.00_q0_m3_R2SCAN-3C E -148.112334286552
  B       2.325152      0.000000      0.000000
  B       1.162504      2.013226     -0.000000
  B      -1.162504      2.013226     -0.000000
  B      -2.325152     -0.000000      0.000000
  B      -1.162504     -2.013226     -0.000000
  B       1.162504     -2.013226     -0.000000
6
Coordinates from ORCA-job B6_planar_ring_d3.00_q0_m3_R2SCAN-3C E -148.161189021499
  B       2.174090      0.000000      0.000000
  B       1.086934      1.882142     -0.000000
  B      -1.086934      1.882142     -0.000000
  B      -2.174090     -0.000000      0.000000
  B      -1.086934     -1.882142     -0.000000
  B       1.086934     -1.882142     -0.000000
