6
Coordinates from ORCA-job B6_trigonal_prism_d3.50_q0_m5_R2SCAN-3C
  B           1.75000000000000      1.01036297000000     -1.75000000000000
  B          -1.75000000000000      1.01036297000000     -1.75000000000000
  B          -0.00000000000000     -2.02072594000000     -1.75000000000000
  B           1.75000000000000      1.01036297000000      1.75000000000000
  B          -1.75000000000000      1.01036297000000      1.75000000000000
  B          -0.00000000000000     -2.02072594000000      1.75000000000000
