6
Coordinates from ORCA-job B6_random_3d_seed1004_d1.80_q0_m5_R2SCAN-3C E -148.573573430704
  B      -0.544323     -0.492287      1.097675
  B       0.842811      0.766976      0.834753
  B       0.928994     -0.966689      0.381944
  B      -1.249320      0.098061     -0.415606
  B       0.010929      1.224658     -0.750014
  B       0.010910     -0.630718     -1.148751
6
Coordinates from ORCA-job B6_random_3d_seed1004_d1.80_q0_m5_R2SCAN-3C E -148.591382579759
  B      -0.522084     -0.504559      1.055253
  B       0.816116      0.753530      0.793813
  B       0.929791     -0.945571      0.394326
  B      -1.243416      0.119738     -0.420001
  B       0.020575      1.204576     -0.719600
  B      -0.000980     -0.627713     -1.103791
6
Coordinates from ORCA-job B6_random_3d_seed1004_d1.80_q0_m5_R2SCAN-3C E -148.606892581813
  B      -0.500741     -0.513068      1.008179
  B       0.795503      0.738282      0.750761
  B       0.937989     -0.934069      0.411664
  B      -1.247011      0.142311     -0.429470
  B       0.023547      1.189553     -0.688252
  B      -0.009287     -0.623008     -1.052882
6
Coordinates from ORCA-job B6_random_3d_seed1004_d1.80_q0_m5_R2SCAN-3C E -148.620410446595
  B      -0.483671     -0.519174      0.956184
  B       0.779301      0.723183      0.712568
  B       0.956187     -0.929027      0.428771
  B      -1.258966      0.167582     -0.439990
  B       0.022962      1.177470     -0.660669
  B      -0.015813     -0.620033     -0.996864
6
Coordinates from ORCA-job B6_random_3d_seed1004_d1.80_q0_m5_R2SCAN-3C E -148.636113414446
  B      -0.465268     -0.525411      0.871246
  B       0.763852      0.700400      0.667093
  B       0.993398     -0.926254      0.451596
  B      -1.283917      0.207018     -0.455592
  B       0.016259      1.162857     -0.627920
  B      -0.024324     -0.618611     -0.906423
6
Coordinates from ORCA-job B6_random_3d_seed1004_d1.80_q0_m5_R2SCAN-3C E -148.642791402816
  B      -0.455980     -0.536603      0.773894
  B       0.763069      0.675327      0.639193
  B       1.042864     -0.921352      0.474518
  B      -1.314349      0.252145     -0.471168
  B       0.001368      1.154049     -0.610527
  B      -0.036973     -0.623566     -0.805910
6
Coordinates from ORCA-job B6_random_3d_seed1004_d1.80_q0_m5_R2SCAN-3C E -148.646271375958
  B      -0.472423     -0.541709      0.790274
  B       0.777736      0.678380      0.649918
  B       1.050980     -0.921054      0.476341
  B      -1.319432      0.253632     -0.470975
  B      -0.002807      1.162521     -0.619585
  B      -0.034053     -0.631770     -0.825973
6
Coordinates from ORCA-job B6_random_3d_seed1004_d1.80_q0_m5_R2SCAN-3C E -148.649174346222
  B      -0.502923     -0.549659      0.777787
  B       0.805749      0.679402      0.648984
  B       1.077471     -0.921139      0.484972
  B      -1.339158      0.266139     -0.473377
  B      -0.014110      1.175315     -0.618135
  B      -0.027029     -0.650058     -0.820231
6
Coordinates from ORCA-job B6_random_3d_seed1004_d1.80_q0_m5_R2SCAN-3C E -148.649954664839
  B      -0.522901     -0.546990      0.766009
  B       0.827791      0.678642      0.636159
  B       1.087683     -0.924973      0.492444
  B      -1.351623      0.268700     -0.476143
  B      -0.026436      1.183641     -0.605257
  B      -0.014515     -0.659020     -0.813212
6
Coordinates from ORCA-job B6_random_3d_seed1004_d1.80_q0_m5_R2SCAN-3C E -148.650438037821
  B      -0.539376     -0.538291      0.755473
  B       0.853839      0.674519      0.615476
  B       1.090632     -0.931678      0.503751
  B      -1.362767      0.266462     -0.481980
  B      -0.045031      1.191573     -0.585085
  B       0.002703     -0.662585     -0.807636
6
Coordinates from ORCA-job B6_random_3d_seed1004_d1.80_q0_m5_R2SCAN-3C E -148.651031986072
  B      -0.557718     -0.522388      0.742817
  B       0.893184      0.665797      0.579256
  B       1.087860     -0.942225      0.524416
  B      -1.377170      0.259407     -0.493270
  B      -0.075248      1.201027     -0.550311
  B       0.029093     -0.661619     -0.802909
6
Coordinates from ORCA-job B6_random_3d_seed1004_d1.80_q0_m5_R2SCAN-3C E -148.651965718543
  B      -0.578265     -0.499736      0.726350
  B       0.948509      0.651001      0.519524
  B       1.076835     -0.954580      0.559345
  B      -1.396675      0.247338     -0.510431
  B      -0.117536      1.209388     -0.494623
  B       0.067133     -0.653411     -0.800165
6
Coordinates from ORCA-job B6_random_3d_seed1004_d1.80_q0_m5_R2SCAN-3C E -148.653842605960
  B      -0.598957     -0.475654      0.706570
  B       1.012070      0.630001      0.434333
  B       1.053579     -0.962272      0.608801
  B      -1.419785      0.232366     -0.528265
  B      -0.163671      1.210039     -0.419696
  B       0.116765     -0.634479     -0.801743
6
Coordinates from ORCA-job B6_random_3d_seed1004_d1.80_q0_m5_R2SCAN-3C E -148.656265512868
  B      -0.620320     -0.454708      0.687823
  B       1.064146      0.604403      0.342771
  B       1.026709     -0.964298      0.658206
  B      -1.441662      0.219669     -0.538979
  B      -0.201905      1.202650     -0.346485
  B       0.173032     -0.607716     -0.803336
6
Coordinates from ORCA-job B6_random_3d_seed1004_d1.80_q0_m5_R2SCAN-3C E -148.659680513218
  B      -0.632700     -0.450920      0.670288
  B       1.107609      0.577225      0.246031
  B       0.981198     -0.950898      0.714378
  B      -1.461083      0.206641     -0.538678
  B      -0.223558      1.185319     -0.278850
  B       0.228534     -0.567367     -0.813168
6
Coordinates from ORCA-job B6_random_3d_seed1004_d1.80_q0_m5_R2SCAN-3C E -148.661769214043
  B      -0.588028     -0.540219      0.668142
  B       1.132785      0.592884      0.233312
  B       0.887661     -0.905568      0.772397
  B      -1.464570      0.196015     -0.494762
  B      -0.177199      1.172711     -0.309218
  B       0.209353     -0.515822     -0.869872
6
Coordinates from ORCA-job B6_random_3d_seed1004_d1.80_q0_m5_R2SCAN-3C E -148.665681263884
  B      -0.614256     -0.520037      0.666131
  B       1.136754      0.570879      0.223828
  B       0.930130     -0.922073      0.780545
  B      -1.472790      0.206930     -0.505104
  B      -0.207019      1.177458     -0.304824
  B       0.227181     -0.513158     -0.860576
6
Coordinates from ORCA-job B6_random_3d_seed1004_d1.80_q0_m5_R2SCAN-3C E -148.666881766310
  B      -0.617401     -0.528639      0.663939
  B       1.142096      0.554776      0.208796
  B       0.929071     -0.922320      0.808070
  B      -1.478857      0.209072     -0.494922
  B      -0.213533      1.172649     -0.312342
  B       0.238624     -0.485538     -0.873541
6
Coordinates from ORCA-job B6_random_3d_seed1004_d1.80_q0_m5_R2SCAN-3C E -148.668466161288
  B      -0.609525     -0.556160      0.664328
  B       1.124755      0.543790      0.239122
  B       0.946485     -0.932128      0.844397
  B      -1.480875      0.220680     -0.463643
  B      -0.203278      1.166693     -0.376892
  B       0.222439     -0.442874     -0.907312
6
Coordinates from ORCA-job B6_random_3d_seed1004_d1.80_q0_m5_R2SCAN-3C E -148.668911786588
  B      -0.606468     -0.554974      0.660918
  B       1.119913      0.527086      0.222973
  B       0.937652     -0.933491      0.870420
  B      -1.486941      0.212655     -0.447801
  B      -0.200045      1.157879     -0.383193
  B       0.235889     -0.409154     -0.923317
6
Coordinates from ORCA-job B6_random_3d_seed1004_d1.80_q0_m5_R2SCAN-3C E -148.669227213383
  B      -0.598300     -0.551121      0.659283
  B       1.108878      0.528277      0.239069
  B       0.941137     -0.936315      0.869626
  B      -1.487583      0.211258     -0.442269
  B      -0.192629      1.158701     -0.394028
  B       0.228497     -0.410800     -0.931680
6
Coordinates from ORCA-job B6_random_3d_seed1004_d1.80_q0_m5_R2SCAN-3C E -148.669527579636
  B      -0.584565     -0.536444      0.655731
  B       1.094900      0.523022      0.252057
  B       0.944017     -0.941169      0.871741
  B      -1.492229      0.207495     -0.437840
  B      -0.189467      1.160441     -0.398355
  B       0.227344     -0.413345     -0.943335
6
Coordinates from ORCA-job B6_random_3d_seed1004_d1.80_q0_m5_R2SCAN-3C E -148.669627505676
  B      -0.577266     -0.527811      0.654689
  B       1.090121      0.517070      0.254612
  B       0.944987     -0.944764      0.877053
  B      -1.496151      0.206740     -0.435980
  B      -0.192786      1.160663     -0.398970
  B       0.231096     -0.411898     -0.951403
6
Coordinates from ORCA-job B6_random_3d_seed1004_d1.80_q0_m5_R2SCAN-3C E -148.669680016203
  B      -0.573918     -0.521473      0.655159
  B       1.089775      0.511902      0.251605
  B       0.944210     -0.947470      0.883025
  B      -1.499482      0.206756     -0.435122
  B      -0.198331      1.159607     -0.396475
  B       0.237746     -0.409322     -0.958192
6
Coordinates from ORCA-job B6_random_3d_seed1004_d1.80_q0_m5_R2SCAN-3C E -148.669692991634
  B      -0.574221     -0.519780      0.656313
  B       1.090859      0.510530      0.249154
  B       0.943296     -0.948205      0.885199
  B      -1.500449      0.207213     -0.434731
  B      -0.200943      1.158036     -0.394951
  B       0.241458     -0.407794     -0.960984
6
Coordinates from ORCA-job B6_random_3d_seed1004_d1.80_q0_m5_R2SCAN-3C E -148.669697963613
  B      -0.575033     -0.519195      0.657323
  B       1.091378      0.510735      0.248591
  B       0.942784     -0.948300      0.885026
  B      -1.500649      0.207627     -0.434433
  B      -0.201693      1.156595     -0.394456
  B       0.243214     -0.407462     -0.962051
6
Coordinates from ORCA-job B6_random_3d_seed1004_d1.80_q0_m5_R2SCAN-3C E -148.669702477099
  B      -0.575989     -0.518701      0.658277
  B       1.091616      0.511711      0.249160
  B       0.942436     -0.948220      0.883326
  B      -1.500751      0.208030     -0.434161
  B      -0.201697      1.155090     -0.394466
  B       0.244385     -0.407910     -0.962136
6
Coordinates from ORCA-job B6_random_3d_seed1004_d1.80_q0_m5_R2SCAN-3C E -148.669708652825
  B      -0.577534     -0.516735      0.659949
  B       1.091691      0.513166      0.250275
  B       0.941642     -0.948457      0.879510
  B      -1.501620      0.208456     -0.433370
  B      -0.201767      1.152146     -0.394674
  B       0.247588     -0.408576     -0.961690
6
Coordinates from ORCA-job B6_random_3d_seed1004_d1.80_q0_m5_R2SCAN-3C E -148.669714774051
  B      -0.578475     -0.515249      0.660884
  B       1.091543      0.514461      0.251734
  B       0.941305     -0.949004      0.875728
  B      -1.502529      0.208672     -0.432815
  B      -0.201651      1.150684     -0.395552
  B       0.249808     -0.409564     -0.959979
6
Coordinates from ORCA-job B6_random_3d_seed1004_d1.80_q0_m5_R2SCAN-3C E -148.669730732607
  B      -0.581083     -0.510254      0.663406
  B       1.090967      0.518422      0.255992
  B       0.940038     -0.951665      0.863322
  B      -1.505922      0.209109     -0.430783
  B      -0.201790      1.147314     -0.398935
  B       0.257790     -0.412925     -0.953001
6
Coordinates from ORCA-job B6_random_3d_seed1004_d1.80_q0_m5_R2SCAN-3C E -148.669739223322
  B      -0.581779     -0.508111      0.664115
  B       1.090298      0.519793      0.257461
  B       0.939410     -0.953801      0.858486
  B      -1.507714      0.209336     -0.429195
  B      -0.202425      1.146896     -0.401346
  B       0.262209     -0.414113     -0.949521
6
Coordinates from ORCA-job B6_random_3d_seed1004_d1.80_q0_m5_R2SCAN-3C E -148.669748523501
  B      -0.582299     -0.506340      0.664408
  B       1.089251      0.521046      0.257885
  B       0.938555     -0.956871      0.854380
  B      -1.509536      0.210008     -0.426872
  B      -0.204015      1.147679     -0.404187
  B       0.268045     -0.415522     -0.945615
6
Coordinates from ORCA-job B6_random_3d_seed1004_d1.80_q0_m5_R2SCAN-3C E -148.669752575036
  B      -0.582604     -0.506558      0.664250
  B       1.088621      0.521658      0.257464
  B       0.938259     -0.957923      0.853555
  B      -1.509784      0.210920     -0.425706
  B      -0.204915      1.148365     -0.405121
  B       0.270423     -0.416462     -0.944442
6
Coordinates from ORCA-job B6_random_3d_seed1004_d1.80_q0_m5_R2SCAN-3C E -148.669757482290
  B      -0.583297     -0.507633      0.663789
  B       1.087664      0.522832      0.256867
  B       0.937925     -0.958538      0.852359
  B      -1.509806      0.212810     -0.424082
  B      -0.205875      1.148940     -0.405940
  B       0.273390     -0.418410     -0.942993
6
Coordinates from ORCA-job B6_random_3d_seed1004_d1.80_q0_m5_R2SCAN-3C E -148.669761219087
  B      -0.584372     -0.508575      0.663203
  B       1.086448      0.524521      0.257169
  B       0.937780     -0.958803      0.849862
  B      -1.510319      0.215254     -0.422019
  B      -0.206466      1.148662     -0.407107
  B       0.276929     -0.421059     -0.941107
6
Coordinates from ORCA-job B6_random_3d_seed1004_d1.80_q0_m5_R2SCAN-3C E -148.669763896065
  B      -0.584891     -0.509638      0.662063
  B       1.085584      0.525420      0.257746
  B       0.937973     -0.958284      0.848792
  B      -1.511106      0.217223     -0.420326
  B      -0.206397      1.148116     -0.407915
  B       0.278838     -0.422837     -0.940361
6
Coordinates from ORCA-job B6_random_3d_seed1004_d1.80_q0_m5_R2SCAN-3C E -148.669765846251
  B      -0.585417     -0.510443      0.660663
  B       1.085331      0.526243      0.258500
  B       0.938304     -0.957498      0.847649
  B      -1.512517      0.218985     -0.418960
  B      -0.206149      1.147306     -0.408382
  B       0.280448     -0.424594     -0.939471
6
Coordinates from ORCA-job B6_random_3d_seed1004_d1.80_q0_m5_R2SCAN-3C E -148.669766536035
  B      -0.585272     -0.510787      0.659820
  B       1.085714      0.526042      0.258603
  B       0.938566     -0.957008      0.848407
  B      -1.513297      0.219269     -0.418751
  B      -0.205910      1.147030     -0.408264
  B       0.280199     -0.424546     -0.939815
6
Coordinates from ORCA-job B6_random_3d_seed1004_d1.80_q0_m5_R2SCAN-3C E -148.669766819078
  B      -0.585560     -0.510511      0.659440
  B       1.086020      0.526519      0.258925
  B       0.938550     -0.957185      0.847547
  B      -1.514318      0.219701     -0.418263
  B      -0.206026      1.146551     -0.408548
  B       0.281334     -0.425074     -0.939100
6
Coordinates from ORCA-job B6_random_3d_seed1004_d1.80_q0_m5_R2SCAN-3C E -148.669766872019
  B      -0.585499     -0.510504      0.659411
  B       1.086051      0.526508      0.258835
  B       0.938512     -0.957330      0.847753
  B      -1.514340      0.219687     -0.418202
  B      -0.206109      1.146579     -0.408611
  B       0.281385     -0.424941     -0.939186
