6
Coordinates from ORCA-job B6_random_3d_seed1004_d1.80_q0_m5_R2SCAN-3C E -148.669766872019
  B          -0.58549942045874     -0.51050356034188      0.65941051220418
  B           1.08605103241281      0.52650751717668      0.25883475801921
  B           0.93851208681089     -0.95733017957728      0.84775340738323
  B          -1.51433974685004      0.21968741977365     -0.41820213879311
  B          -0.20610885093573      1.14657940741903     -0.40861073559317
  B           0.28138489902081     -0.42494059445020     -0.93918580322035
