6
Coordinates from ORCA-job B6_planar_ring_d1.80_q0_m5_R2SCAN-3C E -148.504604151901
  B       1.800000     -0.000000      0.000000
  B       0.900000      1.558846      0.000000
  B      -0.900000      1.558846      0.000000
  B      -1.800000      0.000000      0.000000
  B      -0.900000     -1.558846      0.000000
  B       0.900000     -1.558846      0.000000
6
Coordinates from ORCA-job B6_planar_ring_d1.80_q0_m5_R2SCAN-3C E -148.539263628412
  B       1.735171     -0.000001     -0.000000
  B       0.867607      1.502721      0.000000
  B      -0.867607      1.502721      0.000000
  B      -1.735171      0.000001     -0.000000
  B      -0.867606     -1.502721      0.000000
  B       0.867607     -1.502721      0.000000
6
Coordinates from ORCA-job B6_planar_ring_d1.80_q0_m5_R2SCAN-3C E -148.561697917578
  B       1.670494      0.000005     -0.000000
  B       0.835215      1.446504      0.000000
  B      -0.835215      1.446503     -0.000000
  B      -1.670494      0.000005      0.000000
  B      -0.835224     -1.446509     -0.000000
  B       0.835224     -1.446509      0.000000
6
Coordinates from ORCA-job B6_planar_ring_d1.80_q0_m5_R2SCAN-3C E -148.593942104780
  B       1.609514      0.000002     -0.000000
  B       0.804763      1.393805      0.000000
  B      -0.804760      1.393801     -0.000000
  B      -1.609514      0.000000     -0.000000
  B      -0.804765     -1.393806      0.000000
  B       0.804762     -1.393802     -0.000000
6
Coordinates from ORCA-job B6_planar_ring_d1.80_q0_m5_R2SCAN-3C E -148.566459960475
  B       1.478063     -0.015781      0.000006
  B       0.720916      1.248548     -0.000012
  B      -0.752756      1.272133      0.000006
  B      -1.478060      0.015773      0.000006
  B      -0.720906     -1.248541     -0.000012
  B       0.752743     -1.272133      0.000006
6
Coordinates from ORCA-job B6_planar_ring_d1.80_q0_m5_R2SCAN-3C E -148.610733959328
  B       1.571076     -0.013622     -0.001808
  B       0.764889      1.324759      0.003607
  B      -0.797362      1.353745     -0.001798
  B      -1.571073      0.013626     -0.001809
  B      -0.764890     -1.324757      0.003607
  B       0.797360     -1.353751     -0.001798
6
Coordinates from ORCA-job B6_planar_ring_d1.80_q0_m5_R2SCAN-3C E -148.614360380796
  B       1.596843     -0.020993      0.003016
  B       0.764811      1.324572     -0.005929
  B      -0.816525      1.372139      0.002912
  B      -1.596834      0.020999      0.003016
  B      -0.764815     -1.324570     -0.005929
  B       0.816520     -1.372147      0.002913
6
Coordinates from ORCA-job B6_planar_ring_d1.80_q0_m5_R2SCAN-3C E -148.618419959144
  B       1.635566     -0.035951      0.002318
  B       0.749775      1.296782     -0.004844
  B      -0.848329      1.395706      0.002526
  B      -1.635559      0.035951      0.002318
  B      -0.749778     -1.296788     -0.004844
  B       0.848324     -1.395701      0.002526
6
Coordinates from ORCA-job B6_planar_ring_d1.80_q0_m5_R2SCAN-3C E -148.622323014906
  B       1.679394     -0.053973     -0.002036
  B       0.720706      1.236447      0.003965
  B      -0.882342      1.409871     -0.001928
  B      -1.679372      0.053984     -0.002036
  B      -0.720722     -1.236465      0.003965
  B       0.882337     -1.409864     -0.001928
6
Coordinates from ORCA-job B6_planar_ring_d1.80_q0_m5_R2SCAN-3C E -148.627834304671
  B       1.753364     -0.068568     -0.005249
  B       0.685672      1.122943      0.010704
  B      -0.911823      1.390116     -0.005455
  B      -1.753323      0.068576     -0.005249
  B      -0.685699     -1.122983      0.010704
  B       0.911809     -1.390085     -0.005455
6
Coordinates from ORCA-job B6_planar_ring_d1.80_q0_m5_R2SCAN-3C E -148.633488002985
  B       1.835036     -0.071347     -0.003956
  B       0.669050      1.002716      0.009124
  B      -0.916487      1.328099     -0.005167
  B      -1.834984      0.071359     -0.003957
  B      -0.669088     -1.002784      0.009125
  B       0.916474     -1.328042     -0.005168
6
Coordinates from ORCA-job B6_planar_ring_d1.80_q0_m5_R2SCAN-3C E -148.638668701186
  B       1.876808     -0.065722     -0.003324
  B       0.678043      0.957933      0.006697
  B      -0.885717      1.255500     -0.003373
  B      -1.876757      0.065729     -0.003324
  B      -0.678082     -0.958002      0.006698
  B       0.885705     -1.255438     -0.003374
6
Coordinates from ORCA-job B6_planar_ring_d1.80_q0_m5_R2SCAN-3C E -148.643978198253
  B       1.890649     -0.054148     -0.001961
  B       0.719988      0.991351      0.001883
  B      -0.832118      1.185285      0.000078
  B      -1.890611      0.054151     -0.001961
  B      -0.720017     -0.991395      0.001883
  B       0.832108     -1.185243      0.000078
6
Coordinates from ORCA-job B6_planar_ring_d1.80_q0_m5_R2SCAN-3C E -148.647792720478
  B       1.909057     -0.041997      0.002210
  B       0.771787      1.036805     -0.003471
  B      -0.797213      1.142000      0.001261
  B      -1.909043      0.041990      0.002210
  B      -0.771791     -1.036827     -0.003471
  B       0.797203     -1.141971      0.001261
6
Coordinates from ORCA-job B6_planar_ring_d1.80_q0_m5_R2SCAN-3C E -148.649467967535
  B       1.924158     -0.036215      0.000814
  B       0.810275      1.087995     -0.002577
  B      -0.772977      1.121413      0.001762
  B      -1.924151      0.036201      0.000814
  B      -0.810271     -1.087988     -0.002576
  B       0.772965     -1.121406      0.001763
6
Coordinates from ORCA-job B6_planar_ring_d1.80_q0_m5_R2SCAN-3C E -148.649532542621
  B       1.943004     -0.035114     -0.000185
  B       0.816735      1.080788     -0.000987
  B      -0.773669      1.109394      0.001172
  B      -1.943003      0.035104     -0.000185
  B      -0.816731     -1.080783     -0.000987
  B       0.773664     -1.109387      0.001172
6
Coordinates from ORCA-job B6_planar_ring_d1.80_q0_m5_R2SCAN-3C E -148.649566162568
  B       1.936550     -0.035781      0.000333
  B       0.815740      1.087536     -0.000486
  B      -0.773567      1.115790      0.000153
  B      -1.936551      0.035777      0.000333
  B      -0.815738     -1.087536     -0.000485
  B       0.773567     -1.115785      0.000153
6
Coordinates from ORCA-job B6_planar_ring_d1.80_q0_m5_R2SCAN-3C E -148.649566549377
  B       1.936666     -0.035969     -0.000148
  B       0.815032      1.086573     -0.000045
  B      -0.774170      1.116155      0.000192
  B      -1.936659      0.035970     -0.000147
  B      -0.815037     -1.086570     -0.000044
  B       0.774167     -1.116159      0.000192
6
Coordinates from ORCA-job B6_planar_ring_d1.80_q0_m5_R2SCAN-3C E -148.649566560117
  B       1.936740     -0.036019      0.000314
  B       0.814936      1.086428     -0.000173
  B      -0.774331      1.116260     -0.000141
  B      -1.936740      0.036018      0.000314
  B      -0.814936     -1.086429     -0.000173
  B       0.774331     -1.116258     -0.000141
6
Coordinates from ORCA-job B6_planar_ring_d1.80_q0_m5_R2SCAN-3C E -148.649566572090
  B       1.936738     -0.036021      0.000074
  B       0.814958      1.086469     -0.000030
  B      -0.774330      1.116269     -0.000045
  B      -1.936740      0.036019      0.000074
  B      -0.814956     -1.086470     -0.000029
  B       0.774330     -1.116266     -0.000044
