6
Coordinates from ORCA-job B6_planar_ring_d1.80_q0_m5_R2SCAN-3C E -148.649566572090
  B           1.93673801771983     -0.03602100040198      0.00007371474762
  B           0.81495802529452      1.08646859367761     -0.00002977597207
  B          -0.77432993349245      1.11626933331664     -0.00004454614261
  B          -1.93673996866793      0.03601886929448      0.00007387585714
  B          -0.81495576459331     -1.08646989602092     -0.00002919325574
  B           0.77432962373934     -1.11626589986582     -0.00004407523435
