6
Coordinates from ORCA-job B6_octahedral_3d_d2.00_q0_m1_R2SCAN-3C E -148.659848465458
  B           1.23843139436823      0.00006637314405     -0.00000000153326
  B          -1.23844255300419      0.00006636116880     -0.00000000210915
  B          -0.00000768605130      1.08365711177842      0.00000000213770
  B          -0.00000770956963     -1.08363629210840      0.00000000152025
  B           0.00001327741716     -0.00007677667623      1.24022960747651
  B           0.00001327683974     -0.00007677730662     -1.24022960749204
