6
Coordinates from ORCA-job B6_octahedral_3d_d2.00_q0_m1_R2SCAN-3C E -148.471688890113
  B       1.414214      0.000000      0.000000
  B      -1.414214      0.000000      0.000000
  B       0.000000      1.414214      0.000000
  B       0.000000     -1.414214      0.000000
  B       0.000000      0.000000      1.414214
  B       0.000000      0.000000     -1.414214
6
Coordinates from ORCA-job B6_octahedral_3d_d2.00_q0_m1_R2SCAN-3C E -148.510000285335
  B       1.384879      0.000105      0.000000
  B      -1.384879      0.000105     -0.000000
  B       0.000000      1.376204      0.000000
  B       0.000000     -1.375988     -0.000000
  B      -0.000000     -0.000213      1.385239
  B      -0.000000     -0.000213     -1.385239
6
Coordinates from ORCA-job B6_octahedral_3d_d2.00_q0_m1_R2SCAN-3C E -148.546470068994
  B       1.356755      0.000263     -0.000000
  B      -1.356755      0.000263     -0.000000
  B       0.000000      1.336320      0.000000
  B       0.000000     -1.335745     -0.000000
  B      -0.000000     -0.000550      1.357751
  B      -0.000000     -0.000550     -1.357751
6
Coordinates from ORCA-job B6_octahedral_3d_d2.00_q0_m1_R2SCAN-3C E -148.595070411310
  B       1.315889      0.000564     -0.000000
  B      -1.315889      0.000564      0.000000
  B      -0.000000      1.274684      0.000000
  B      -0.000000     -1.273483     -0.000000
  B      -0.000000     -0.001164      1.318173
  B      -0.000000     -0.001164     -1.318173
6
Coordinates from ORCA-job B6_octahedral_3d_d2.00_q0_m1_R2SCAN-3C E -148.646208106612
  B       1.256804      0.001138      0.000000
  B      -1.256804      0.001138      0.000000
  B      -0.000000      1.179638      0.000000
  B      -0.000000     -1.177632      0.000000
  B       0.000000     -0.002141      1.261634
  B      -0.000000     -0.002141     -1.261634
6
Coordinates from ORCA-job B6_octahedral_3d_d2.00_q0_m1_R2SCAN-3C E -148.658952641413
  B       1.215277      0.001693      0.000000
  B      -1.215277      0.001693      0.000000
  B      -0.000000      1.100424      0.000000
  B      -0.000000     -1.098797     -0.000000
  B      -0.000000     -0.002507      1.222465
  B      -0.000000     -0.002507     -1.222465
6
Coordinates from ORCA-job B6_octahedral_3d_d2.00_q0_m1_R2SCAN-3C E -148.659471095101
  B       1.224923      0.001420      0.000000
  B      -1.224923      0.001420      0.000000
  B       0.000000      1.100788      0.000000
  B      -0.000000     -1.100250     -0.000000
  B      -0.000000     -0.001689      1.231158
  B      -0.000000     -0.001689     -1.231158
6
Coordinates from ORCA-job B6_octahedral_3d_d2.00_q0_m1_R2SCAN-3C E -148.659785505932
  B       1.233895      0.000837      0.000000
  B      -1.233895      0.000837      0.000000
  B      -0.000000      1.091377      0.000000
  B      -0.000000     -1.091780      0.000000
  B       0.000000     -0.000636      1.238689
  B       0.000000     -0.000636     -1.238689
6
Coordinates from ORCA-job B6_octahedral_3d_d2.00_q0_m1_R2SCAN-3C E -148.659846260454
  B       1.237799      0.000310     -0.000000
  B      -1.237800      0.000310     -0.000000
  B      -0.000000      1.084475      0.000000
  B      -0.000000     -1.084788      0.000000
  B       0.000001     -0.000153      1.241051
  B       0.000001     -0.000153     -1.241051
6
Coordinates from ORCA-job B6_octahedral_3d_d2.00_q0_m1_R2SCAN-3C E -148.659847922397
  B       1.238097      0.000163     -0.000000
  B      -1.238114      0.000163     -0.000000
  B      -0.000004      1.083805      0.000000
  B      -0.000004     -1.083874      0.000000
  B       0.000012     -0.000129      1.240660
  B       0.000012     -0.000129     -1.240660
6
Coordinates from ORCA-job B6_octahedral_3d_d2.00_q0_m1_R2SCAN-3C E -148.659848465458
  B       1.238431      0.000066     -0.000000
  B      -1.238443      0.000066     -0.000000
  B      -0.000008      1.083657      0.000000
  B      -0.000008     -1.083636      0.000000
  B       0.000013     -0.000077      1.240230
  B       0.000013     -0.000077     -1.240230
