6
Coordinates from ORCA-job B6_trigonal_prism_d1.60_q0_m3_R2SCAN-3C E -148.586698496297
  B       0.800000      0.461880     -0.800000
  B      -0.800000      0.461880     -0.800000
  B      -0.000000     -0.923760     -0.800000
  B       0.800000      0.461880      0.800000
  B      -0.800000      0.461880      0.800000
  B      -0.000000     -0.923760      0.800000
6
Coordinates from ORCA-job B6_trigonal_prism_d1.60_q0_m3_R2SCAN-3C E -148.609238319631
  B       0.825937      0.476862     -0.781644
  B      -0.825937      0.476862     -0.781644
  B       0.000000     -0.953724     -0.781623
  B       0.825937      0.476862      0.781644
  B      -0.825937      0.476862      0.781644
  B      -0.000000     -0.953724      0.781623
6
Coordinates from ORCA-job B6_trigonal_prism_d1.60_q0_m3_R2SCAN-3C E -148.618228865558
  B       0.852618      0.492302     -0.768248
  B      -0.852618      0.492302     -0.768248
  B      -0.000000     -0.984605     -0.768218
  B       0.852619      0.492303      0.768248
  B      -0.852619      0.492303      0.768248
  B      -0.000000     -0.984605      0.768218
6
Coordinates from ORCA-job B6_trigonal_prism_d1.60_q0_m3_R2SCAN-3C E -148.619255503028
  B       0.862754      0.498179     -0.769858
  B      -0.862754      0.498179     -0.769858
  B      -0.000000     -0.996358     -0.769836
  B       0.862754      0.498179      0.769858
  B      -0.862754      0.498179      0.769858
  B       0.000000     -0.996358      0.769836
6
Coordinates from ORCA-job B6_trigonal_prism_d1.60_q0_m3_R2SCAN-3C E -148.619396613256
  B       0.866820      0.500541     -0.772364
  B      -0.866820      0.500541     -0.772364
  B      -0.000000     -1.001083     -0.772357
  B       0.866820      0.500541      0.772364
  B      -0.866820      0.500541      0.772364
  B       0.000000     -1.001082      0.772357
6
Coordinates from ORCA-job B6_trigonal_prism_d1.60_q0_m3_R2SCAN-3C E -148.619398591054
  B       0.867081      0.500694     -0.772842
  B      -0.867081      0.500694     -0.772842
  B      -0.000000     -1.001389     -0.772838
  B       0.867080      0.500694      0.772842
  B      -0.867080      0.500694      0.772842
  B       0.000000     -1.001388      0.772838
6
Coordinates from ORCA-job B6_trigonal_prism_d1.60_q0_m3_R2SCAN-3C E -148.619398622796
  B       0.867052      0.500679     -0.772899
  B      -0.867052      0.500679     -0.772899
  B      -0.000000     -1.001358     -0.772897
  B       0.867051      0.500679      0.772899
  B      -0.867051      0.500679      0.772899
  B       0.000000     -1.001357      0.772898
