6
Coordinates from ORCA-job B6_trigonal_prism_d1.60_q0_m3_R2SCAN-3C E -148.619398622796
  B           0.86705161414911      0.50067920337485     -0.77289855358835
  B          -0.86705160073455      0.50067922252502     -0.77289854534462
  B          -0.00000000394028     -1.00135839676913     -0.77289748503947
  B           0.86705067594810      0.50067866552277      0.77289853507166
  B          -0.86705068927582      0.50067864622271      0.77289854407779
  B           0.00000000385344     -1.00135732087622      0.77289750482298
