6
Coordinates from ORCA-job B6_random_3d_seed1004_d2.50_q0_m5_R2SCAN-3C E -148.205151838543
  B      -0.760292     -0.678931      1.533447
  B       1.160800      1.056603      1.167404
  B       1.287683     -1.345482      0.518287
  B      -1.744097      0.127543     -0.575604
  B       0.018389      1.697245     -1.031003
  B       0.037519     -0.856978     -1.612531
6
Coordinates from ORCA-job B6_random_3d_seed1004_d2.50_q0_m5_R2SCAN-3C E -148.231509006943
  B      -0.743706     -0.670802      1.502351
  B       1.141927      1.032484      1.144762
  B       1.259011     -1.314353      0.514214
  B      -1.698173      0.126213     -0.569013
  B       0.011435      1.666418     -1.013020
  B       0.029507     -0.839960     -1.579294
6
Coordinates from ORCA-job B6_random_3d_seed1004_d2.50_q0_m5_R2SCAN-3C E -148.259025600533
  B      -0.726967     -0.663012      1.471346
  B       1.123590      1.007814      1.122409
  B       1.230559     -1.282931      0.510877
  B      -1.652264      0.125337     -0.562903
  B       0.003809      1.635663     -0.995506
  B       0.021273     -0.822870     -1.546223
6
Coordinates from ORCA-job B6_random_3d_seed1004_d2.50_q0_m5_R2SCAN-3C E -148.302331337052
  B      -0.701499     -0.651056      1.424506
  B       1.096620      0.969237      1.089096
  B       1.188713     -1.235033      0.506748
  B      -1.585278      0.125165     -0.553993
  B      -0.008356      1.588659     -0.969583
  B       0.009798     -0.796972     -1.496774
6
Coordinates from ORCA-job B6_random_3d_seed1004_d2.50_q0_m5_R2SCAN-3C E -148.371751773450
  B      -0.663500     -0.632163      1.352773
  B       1.058031      0.908065      1.039818
  B       1.129166     -1.162362      0.502610
  B      -1.488097      0.127651     -0.541827
  B      -0.029310      1.516557     -0.931265
  B      -0.006289     -0.757749     -1.422109
6
Coordinates from ORCA-job B6_random_3d_seed1004_d2.50_q0_m5_R2SCAN-3C E -148.447406737780
  B      -0.624282     -0.613615      1.272596
  B       1.023787      0.840260      0.989281
  B       1.070123     -1.085210      0.502575
  B      -1.392697      0.133873     -0.530900
  B      -0.055928      1.443757     -0.892861
  B      -0.021003     -0.719065     -1.340691
6
Coordinates from ORCA-job B6_random_3d_seed1004_d2.50_q0_m5_R2SCAN-3C E -148.517774546627
  B      -0.588467     -0.592246      1.186530
  B       0.992675      0.768462      0.938450
  B       1.016359     -1.008497      0.502321
  B      -1.305464      0.146798     -0.517223
  B      -0.087719      1.371473     -0.853731
  B      -0.027384     -0.685989     -1.256346
6
Coordinates from ORCA-job B6_random_3d_seed1004_d2.50_q0_m5_R2SCAN-3C E -148.572428844500
  B      -0.567890     -0.566487      1.085615
  B       0.965867      0.689309      0.882732
  B       0.973187     -0.932372      0.493263
  B      -1.238689      0.172539     -0.487276
  B      -0.125243      1.306770     -0.815482
  B      -0.007231     -0.669760     -1.158852
6
Coordinates from ORCA-job B6_random_3d_seed1004_d2.50_q0_m5_R2SCAN-3C E -148.596819093696
  B      -0.572817     -0.548648      1.005248
  B       0.943210      0.641751      0.832457
  B       0.951179     -0.888622      0.469996
  B      -1.213300      0.183135     -0.446402
  B      -0.134891      1.279404     -0.790675
  B       0.026620     -0.667020     -1.070624
6
Coordinates from ORCA-job B6_random_3d_seed1004_d2.50_q0_m5_R2SCAN-3C E -148.610698521506
  B      -0.584300     -0.540379      0.924746
  B       0.907623      0.631723      0.775374
  B       0.938706     -0.890837      0.433499
  B      -1.193489      0.200593     -0.399206
  B      -0.138629      1.265540     -0.771301
  B       0.070089     -0.666640     -0.963112
6
Coordinates from ORCA-job B6_random_3d_seed1004_d2.50_q0_m5_R2SCAN-3C E -148.623372173516
  B      -0.565758     -0.568439      0.865536
  B       0.827616      0.557406      0.669880
  B       0.975764     -0.893256      0.459214
  B      -1.213081      0.269204     -0.368156
  B      -0.141188      1.261240     -0.783930
  B       0.116647     -0.626155     -0.842544
6
Coordinates from ORCA-job B6_random_3d_seed1004_d2.50_q0_m5_R2SCAN-3C E -148.640690002547
  B      -0.555907     -0.588188      0.803947
  B       0.735184      0.570492      0.556706
  B       1.012338     -0.956310      0.502396
  B      -1.208178      0.305208     -0.317605
  B      -0.122495      1.259932     -0.770813
  B       0.139058     -0.591133     -0.774630
6
Coordinates from ORCA-job B6_random_3d_seed1004_d2.50_q0_m5_R2SCAN-3C E -148.653783575921
  B      -0.582517     -0.648759      0.824579
  B       0.711608      0.627936      0.482887
  B       1.046276     -0.996577      0.569649
  B      -1.245368      0.300645     -0.283298
  B      -0.061065      1.285941     -0.767058
  B       0.131065     -0.569187     -0.826760
6
Coordinates from ORCA-job B6_random_3d_seed1004_d2.50_q0_m5_R2SCAN-3C E -148.658645978334
  B      -0.552614     -0.711935      0.784386
  B       0.700525      0.640312      0.416286
  B       1.023710     -0.997635      0.627102
  B      -1.237107      0.320322     -0.258641
  B      -0.052122      1.319466     -0.765582
  B       0.117608     -0.570530     -0.803551
6
Coordinates from ORCA-job B6_random_3d_seed1004_d2.50_q0_m5_R2SCAN-3C E -148.663148837525
  B      -0.549174     -0.750096      0.743160
  B       0.731850      0.626034      0.409757
  B       1.020915     -0.995380      0.691214
  B      -1.200067      0.329045     -0.237468
  B      -0.090360      1.367282     -0.796070
  B       0.086836     -0.576886     -0.810594
6
Coordinates from ORCA-job B6_random_3d_seed1004_d2.50_q0_m5_R2SCAN-3C E -148.665142083877
  B      -0.609329     -0.777248      0.694124
  B       0.732292      0.604131      0.343813
  B       1.040314     -0.935519      0.741139
  B      -1.151468      0.331117     -0.187005
  B      -0.086192      1.375329     -0.760941
  B       0.074383     -0.597809     -0.831129
6
Coordinates from ORCA-job B6_random_3d_seed1004_d2.50_q0_m5_R2SCAN-3C E -148.668243433354
  B      -0.600962     -0.824674      0.716679
  B       0.738826      0.609321      0.333209
  B       1.026251     -0.923340      0.760490
  B      -1.141959      0.376580     -0.193621
  B      -0.101157      1.384467     -0.754703
  B       0.079001     -0.622354     -0.862054
6
Coordinates from ORCA-job B6_random_3d_seed1004_d2.50_q0_m5_R2SCAN-3C E -148.667607864393
  B      -0.572637     -0.846223      0.716281
  B       0.747772      0.613688      0.325937
  B       0.989264     -0.913368      0.774514
  B      -1.164247      0.344101     -0.170386
  B      -0.069785      1.437320     -0.774021
  B       0.069633     -0.635519     -0.872324
6
Coordinates from ORCA-job B6_random_3d_seed1004_d2.50_q0_m5_R2SCAN-3C E -148.669495437396
  B      -0.593420     -0.832580      0.703832
  B       0.749068      0.597781      0.323683
  B       1.016640     -0.911095      0.779254
  B      -1.157162      0.359633     -0.176411
  B      -0.088387      1.412949     -0.763276
  B       0.073262     -0.626687     -0.867082
6
Coordinates from ORCA-job B6_random_3d_seed1004_d2.50_q0_m5_R2SCAN-3C E -148.669607230519
  B      -0.591102     -0.832773      0.696623
  B       0.748857      0.598851      0.316825
  B       1.016072     -0.914531      0.789970
  B      -1.152059      0.366843     -0.172692
  B      -0.095663      1.407514     -0.760323
  B       0.073895     -0.625905     -0.870405
6
Coordinates from ORCA-job B6_random_3d_seed1004_d2.50_q0_m5_R2SCAN-3C E -148.669669149306
  B      -0.591113     -0.831205      0.696366
  B       0.754703      0.595090      0.315196
  B       1.014029     -0.914005      0.793237
  B      -1.156871      0.366324     -0.170808
  B      -0.098144      1.405270     -0.760682
  B       0.077395     -0.621473     -0.873309
6
Coordinates from ORCA-job B6_random_3d_seed1004_d2.50_q0_m5_R2SCAN-3C E -148.669733139280
  B      -0.592445     -0.834581      0.692616
  B       0.767561      0.590822      0.306233
  B       1.009419     -0.912258      0.803874
  B      -1.165866      0.364906     -0.164617
  B      -0.100556      1.401037     -0.761580
  B       0.081888     -0.609926     -0.876526
6
Coordinates from ORCA-job B6_random_3d_seed1004_d2.50_q0_m5_R2SCAN-3C E -148.669741753205
  B      -0.592643     -0.835262      0.691126
  B       0.771142      0.590690      0.304560
  B       1.007747     -0.911979      0.807001
  B      -1.167454      0.365030     -0.162238
  B      -0.101599      1.397010     -0.761992
  B       0.082807     -0.605489     -0.878457
6
Coordinates from ORCA-job B6_random_3d_seed1004_d2.50_q0_m5_R2SCAN-3C E -148.669746208620
  B      -0.592522     -0.836509      0.690232
  B       0.772360      0.590816      0.304423
  B       1.007197     -0.911799      0.808847
  B      -1.168070      0.365055     -0.160482
  B      -0.101284      1.393950     -0.763502
  B       0.082319     -0.601514     -0.879518
6
Coordinates from ORCA-job B6_random_3d_seed1004_d2.50_q0_m5_R2SCAN-3C E -148.669752723347
  B      -0.591823     -0.838316      0.689235
  B       0.772575      0.591163      0.306137
  B       1.007030     -0.911222      0.810936
  B      -1.168285      0.365081     -0.157868
  B      -0.099852      1.389407     -0.766567
  B       0.080355     -0.596113     -0.881874
6
Coordinates from ORCA-job B6_random_3d_seed1004_d2.50_q0_m5_R2SCAN-3C E -148.669759273544
  B      -0.589690     -0.841598      0.687012
  B       0.772356      0.590499      0.309942
  B       1.007329     -0.909867      0.815975
  B      -1.168978      0.365441     -0.152625
  B      -0.097049      1.381206     -0.773035
  B       0.076032     -0.585682     -0.887269
6
Coordinates from ORCA-job B6_random_3d_seed1004_d2.50_q0_m5_R2SCAN-3C E -148.669761849927
  B      -0.589054     -0.841713      0.686896
  B       0.771385      0.589959      0.310695
  B       1.008021     -0.909497      0.816702
  B      -1.168767      0.365619     -0.152537
  B      -0.096511      1.381755     -0.773427
  B       0.074925     -0.586122     -0.888329
6
Coordinates from ORCA-job B6_random_3d_seed1004_d2.50_q0_m5_R2SCAN-3C E -148.669763168574
  B      -0.587972     -0.841483      0.686699
  B       0.770647      0.588978      0.311576
  B       1.008935     -0.909271      0.818129
  B      -1.169035      0.365720     -0.152601
  B      -0.096046      1.381932     -0.773882
  B       0.073470     -0.585876     -0.889921
6
Coordinates from ORCA-job B6_random_3d_seed1004_d2.50_q0_m5_R2SCAN-3C E -148.669763439980
  B      -0.587582     -0.841358      0.686660
  B       0.770531      0.588687      0.311671
  B       1.009172     -0.909099      0.818865
  B      -1.169080      0.365608     -0.152690
  B      -0.095858      1.381933     -0.773751
  B       0.072816     -0.585771     -0.890756
6
Coordinates from ORCA-job B6_random_3d_seed1004_d2.50_q0_m5_R2SCAN-3C E -148.669763626703
  B      -0.587370     -0.841407      0.686612
  B       0.770848      0.588489      0.311532
  B       1.009164     -0.909042      0.819456
  B      -1.169264      0.365407     -0.152756
  B      -0.095806      1.381630     -0.773749
  B       0.072428     -0.585077     -0.891095
6
Coordinates from ORCA-job B6_random_3d_seed1004_d2.50_q0_m5_R2SCAN-3C E -148.669763677636
  B      -0.587317     -0.841438      0.686667
  B       0.771144      0.588428      0.311345
  B       1.009062     -0.909034      0.819768
  B      -1.169347      0.365201     -0.152829
  B      -0.095817      1.381472     -0.773686
  B       0.072274     -0.584629     -0.891266
6
Coordinates from ORCA-job B6_random_3d_seed1004_d2.50_q0_m5_R2SCAN-3C E -148.669763679452
  B      -0.587322     -0.841427      0.686688
  B       0.771148      0.588429      0.311340
  B       1.009052     -0.909049      0.819745
  B      -1.169333      0.365179     -0.152852
  B      -0.095823      1.381459     -0.773685
  B       0.072278     -0.584592     -0.891236
