6
Coordinates from ORCA-job B6_random_3d_seed1004_d2.50_q0_m5_R2SCAN-3C E -148.669763679452
  B          -0.58732225991470     -0.84142693210324      0.68668817939850
  B           0.77114817205873      0.58842877798520      0.31134026608140
  B           1.00905227762313     -0.90904860219278      0.81974465574072
  B          -1.16933280439063      0.36517890576987     -0.15285181976599
  B          -0.09582310336817      1.38145949512492     -0.77368485393000
  B           0.07227771799163     -0.58459164458396     -0.89123641752463
