6
Coordinates from ORCA-job B6_linear_chain_d2.00_q0_m1_R2SCAN-3C E -148.299487919116
  B      -5.000000      0.000000      0.000000
  B      -3.000000      0.000000      0.000000
  B      -1.000000      0.000000      0.000000
  B       1.000000      0.000000      0.000000
  B       3.000000      0.000000      0.000000
  B       5.000000      0.000000      0.000000
6
Coordinates from ORCA-job B6_linear_chain_d2.00_q0_m1_R2SCAN-3C E -148.350020321193
  B      -4.834705      0.000000     -0.000000
  B      -2.869417     -0.000000      0.000000
  B      -0.953392     -0.000000      0.000000
  B       0.953392     -0.000000      0.000000
  B       2.869417      0.000000     -0.000000
  B       4.834705      0.000000     -0.000000
6
Coordinates from ORCA-job B6_linear_chain_d2.00_q0_m1_R2SCAN-3C E -148.399286695102
  B      -4.672016      0.000000     -0.000000
  B      -2.737457      0.000000     -0.000000
  B      -0.905405     -0.000000      0.000000
  B       0.905405     -0.000000      0.000000
  B       2.737457      0.000000      0.000000
  B       4.672016      0.000000     -0.000000
6
Coordinates from ORCA-job B6_linear_chain_d2.00_q0_m1_R2SCAN-3C E -148.462757274413
  B      -4.428784      0.000000     -0.000000
  B      -2.539204     -0.000000      0.000000
  B      -0.832804     -0.000000      0.000000
  B       0.832781     -0.000000      0.000000
  B       2.539200      0.000000      0.000000
  B       4.428811      0.000000     -0.000000
6
Coordinates from ORCA-job B6_linear_chain_d2.00_q0_m1_R2SCAN-3C E -148.500658757497
  B      -4.106683      0.000000     -0.000000
  B      -2.301067     -0.000000      0.000000
  B      -0.753420     -0.000000      0.000000
  B       0.753412     -0.000000      0.000000
  B       2.301078      0.000000     -0.000000
  B       4.106680      0.000000     -0.000000
6
Coordinates from ORCA-job B6_linear_chain_d2.00_q0_m1_R2SCAN-3C E -148.501835740212
  B      -4.064971      0.000000     -0.000000
  B      -2.305626     -0.000000      0.000000
  B      -0.752475     -0.000000      0.000000
  B       0.752487     -0.000000      0.000000
  B       2.305611      0.000000      0.000000
  B       4.064974      0.000000     -0.000000
6
Coordinates from ORCA-job B6_linear_chain_d2.00_q0_m1_R2SCAN-3C E -148.501537135735
  B      -4.054054      0.000000     -0.000000
  B      -2.307194     -0.000000      0.000000
  B      -0.767097     -0.000000      0.000000
  B       0.767058     -0.000000      0.000000
  B       2.307216      0.000000      0.000000
  B       4.054071      0.000000     -0.000000
6
Coordinates from ORCA-job B6_linear_chain_d2.00_q0_m1_R2SCAN-3C E -148.501912965635
  B      -4.061684      0.000000     -0.000000
  B      -2.308764     -0.000000      0.000000
  B      -0.757596     -0.000000      0.000000
  B       0.757587     -0.000000      0.000000
  B       2.308768      0.000000     -0.000000
  B       4.061689      0.000000     -0.000000
6
Coordinates from ORCA-job B6_linear_chain_d2.00_q0_m1_R2SCAN-3C E -148.501913709673
  B      -4.060458      0.000000     -0.000000
  B      -2.307261     -0.000000      0.000000
  B      -0.756970     -0.000000      0.000000
  B       0.756988     -0.000000      0.000000
  B       2.307251      0.000000     -0.000000
  B       4.060449      0.000000     -0.000000
6
Coordinates from ORCA-job B6_linear_chain_d2.00_q0_m1_R2SCAN-3C E -148.501913862664
  B      -4.060889      0.000000     -0.000000
  B      -2.307699     -0.000000      0.000000
  B      -0.757172     -0.000000      0.000000
  B       0.757150     -0.000000      0.000000
  B       2.307712      0.000000     -0.000000
  B       4.060897      0.000000     -0.000000
6
Coordinates from ORCA-job B6_linear_chain_d2.00_q0_m1_R2SCAN-3C E -148.501913864572
  B      -4.060881      0.000000     -0.000000
  B      -2.307718     -0.000000      0.000000
  B      -0.757147     -0.000000      0.000000
  B       0.757172     -0.000000      0.000000
  B       2.307691      0.000000     -0.000000
  B       4.060882      0.000000     -0.000000
