6
Coordinates from ORCA-job B6_linear_chain_d2.00_q0_m1_R2SCAN-3C E -148.501913864572
  B          -4.06088058803194      0.00000022325895     -0.00000023300103
  B          -2.30771804599898     -0.00000010770450      0.00000010562918
  B          -0.75714666119327     -0.00000015306461      0.00000016155875
  B           0.75717154015003     -0.00000012772855      0.00000013058798
  B           2.30769129466759      0.00000002944291     -0.00000000284770
  B           4.06088246040658      0.00000013579579     -0.00000016192717
