6
Coordinates from ORCA-job B6_planar_ring_d1.60_q0_m1_R2SCAN-3C E -148.624677013413
  B       1.600000     -0.000000      0.000000
  B       0.800000      1.385641      0.000000
  B      -0.800000      1.385641      0.000000
  B      -1.600000      0.000000      0.000000
  B      -0.800000     -1.385641      0.000000
  B       0.800000     -1.385641      0.000000
6
Coordinates from ORCA-job B6_planar_ring_d1.60_q0_m1_R2SCAN-3C E -148.642934326464
  B       1.619964     -0.000000     -0.000000
  B       0.811118      1.314757      0.000000
  B      -0.811118      1.314757      0.000000
  B      -1.619964      0.000000     -0.000000
  B      -0.811118     -1.314757      0.000000
  B       0.811118     -1.314757     -0.000000
6
Coordinates from ORCA-job B6_planar_ring_d1.60_q0_m1_R2SCAN-3C E -148.652865893406
  B       1.678110     -0.000000      0.000000
  B       0.821305      1.219520     -0.000000
  B      -0.821305      1.219520     -0.000000
  B      -1.678110      0.000000      0.000000
  B      -0.821305     -1.219520      0.000000
  B       0.821305     -1.219520     -0.000000
6
Coordinates from ORCA-job B6_planar_ring_d1.60_q0_m1_R2SCAN-3C E -148.660301523603
  B       1.750737     -0.000000     -0.000000
  B       0.824560      1.153033      0.000000
  B      -0.824560      1.153033      0.000000
  B      -1.750737      0.000000     -0.000000
  B      -0.824560     -1.153033      0.000000
  B       0.824560     -1.153033     -0.000000
6
Coordinates from ORCA-job B6_planar_ring_d1.60_q0_m1_R2SCAN-3C E -148.674261864256
  B       1.894019     -0.000000     -0.000000
  B       0.823189      1.026529      0.000000
  B      -0.823189      1.026529      0.000000
  B      -1.894019      0.000000     -0.000000
  B      -0.823189     -1.026529      0.000000
  B       0.823189     -1.026529      0.000000
6
Coordinates from ORCA-job B6_planar_ring_d1.60_q0_m1_R2SCAN-3C E -148.676435497350
  B       1.972571     -0.000000      0.000000
  B       0.811521      0.953885      0.000000
  B      -0.811521      0.953885     -0.000000
  B      -1.972571      0.000000      0.000000
  B      -0.811521     -0.953885      0.000000
  B       0.811521     -0.953885     -0.000000
6
Coordinates from ORCA-job B6_planar_ring_d1.60_q0_m1_R2SCAN-3C E -148.677568005574
  B       1.934491     -0.000000      0.000000
  B       0.806339      1.010117     -0.000000
  B      -0.806339      1.010117     -0.000000
  B      -1.934491      0.000000      0.000000
  B      -0.806339     -1.010117     -0.000000
  B       0.806339     -1.010117     -0.000000
6
Coordinates from ORCA-job B6_planar_ring_d1.60_q0_m1_R2SCAN-3C E -148.677842102184
  B       1.935239     -0.000000      0.000000
  B       0.805170      0.996514     -0.000000
  B      -0.805170      0.996514     -0.000000
  B      -1.935239      0.000000      0.000000
  B      -0.805170     -0.996514     -0.000000
  B       0.805170     -0.996514     -0.000000
6
Coordinates from ORCA-job B6_planar_ring_d1.60_q0_m1_R2SCAN-3C E -148.677864625261
  B       1.937342     -0.000000      0.000001
  B       0.803513      0.991266     -0.000001
  B      -0.803513      0.991266     -0.000001
  B      -1.937342      0.000000      0.000001
  B      -0.803513     -0.991266     -0.000001
  B       0.803513     -0.991266     -0.000001
6
Coordinates from ORCA-job B6_planar_ring_d1.60_q0_m1_R2SCAN-3C E -148.677865023191
  B       1.936843     -0.000000      0.000007
  B       0.803356      0.991783     -0.000003
  B      -0.803356      0.991783     -0.000003
  B      -1.936843      0.000000      0.000007
  B      -0.803356     -0.991783     -0.000003
  B       0.803356     -0.991783     -0.000003
6
Coordinates from ORCA-job B6_planar_ring_d1.60_q0_m1_R2SCAN-3C E -148.677865035791
  B       1.936738     -0.000000      0.000028
  B       0.803310      0.991846     -0.000014
  B      -0.803310      0.991846     -0.000014
  B      -1.936738      0.000000      0.000028
  B      -0.803310     -0.991846     -0.000014
  B       0.803310     -0.991846     -0.000014
