6
Coordinates from ORCA-job B6_planar_ring_d1.60_q0_m1_R2SCAN-3C E -148.677865035791
  B           1.93673764691823     -0.00000000259260      0.00002810673013
  B           0.80330960104122      0.99184574109446     -0.00001404309046
  B          -0.80330961866251      0.99184576301661     -0.00001406497718
  B          -1.93673764803697      0.00000000265777      0.00002810940517
  B          -0.80330960079485     -0.99184574401309     -0.00001404685446
  B           0.80330961953488     -0.99184576016315     -0.00001406121320
