6
Coordinates from ORCA-job B6_random_3d_seed1001_d3.50_q0_m5_R2SCAN-3C
  B           0.20283840000000     -2.42775477000000     -0.77558746000000
  B          -0.12170383000000      2.29395228000000      0.81665745000000
  B           0.63621993000000      0.88516639000000     -2.21373894000000
  B          -0.69612634000000     -1.03563873000000      2.26641312000000
  B           2.37984287000000      0.07082357000000      0.71517455000000
  B          -2.40107103000000      0.21345127000000     -0.80891874000000
