6
Coordinates from ORCA-job B6_rhombic_planar_d3.50_q0_m1_R2SCAN-3C E -147.857553621718
  B      -4.375000     -1.515544      0.000000
  B      -0.875000     -1.515544      0.000000
  B       2.625000     -1.515544      0.000000
  B      -2.625000      1.515544      0.000000
  B       0.875000      1.515544      0.000000
  B       4.375000      1.515544      0.000000
6
Coordinates from ORCA-job B6_rhombic_planar_d3.50_q0_m1_R2SCAN-3C E -147.867984006293
  B      -4.292466     -1.500065      0.000000
  B      -0.862998     -1.493225     -0.000000
  B       2.579419     -1.510571      0.000000
  B      -2.579419      1.510571     -0.000000
  B       0.862998      1.493225      0.000000
  B       4.292466      1.500066      0.000000
6
Coordinates from ORCA-job B6_rhombic_planar_d3.50_q0_m1_R2SCAN-3C E -147.878996122365
  B      -4.208808     -1.484708     -0.000000
  B      -0.850332     -1.471655     -0.000000
  B       2.533110     -1.506662      0.000000
  B      -2.533111      1.506662     -0.000000
  B       0.850331      1.471654      0.000000
  B       4.208809      1.484709     -0.000000
6
Coordinates from ORCA-job B6_rhombic_planar_d3.50_q0_m1_R2SCAN-3C E -147.896667498195
  B      -4.082782     -1.461445     -0.000000
  B      -0.830479     -1.440681      0.000000
  B       2.462298     -1.500893     -0.000000
  B      -2.462298      1.500894     -0.000000
  B       0.830479      1.440680      0.000000
  B       4.082782      1.461445     -0.000000
6
Coordinates from ORCA-job B6_rhombic_planar_d3.50_q0_m1_R2SCAN-3C E -147.926011550600
  B      -3.892970     -1.426269     -0.000000
  B      -0.799046     -1.397018     -0.000000
  B       2.353264     -1.492431      0.000000
  B      -2.353264      1.492432      0.000000
  B       0.799046      1.397016      0.000000
  B       3.892970      1.426270     -0.000000
6
Coordinates from ORCA-job B6_rhombic_planar_d3.50_q0_m1_R2SCAN-3C E -147.959885140255
  B      -3.698081     -1.390537      0.000000
  B      -0.762819     -1.356306     -0.000000
  B       2.237363     -1.485617     -0.000000
  B      -2.237363      1.485618     -0.000000
  B       0.762819      1.356304     -0.000000
  B       3.698081      1.390538      0.000000
6
Coordinates from ORCA-job B6_rhombic_planar_d3.50_q0_m1_R2SCAN-3C E -147.998240750704
  B      -3.501089     -1.355955     -0.000000
  B      -0.724230     -1.319967      0.000000
  B       2.116449     -1.481604      0.000000
  B      -2.116449      1.481605      0.000000
  B       0.724229      1.319965     -0.000000
  B       3.501089      1.355956     -0.000000
6
Coordinates from ORCA-job B6_rhombic_planar_d3.50_q0_m1_R2SCAN-3C E -148.027039592786
  B      -3.364795     -1.334189     -0.000000
  B      -0.697743     -1.298931      0.000000
  B       2.031051     -1.482458      0.000000
  B      -2.031050      1.482459      0.000000
  B       0.697743      1.298929     -0.000000
  B       3.364795      1.334190     -0.000000
6
Coordinates from ORCA-job B6_rhombic_planar_d3.50_q0_m1_R2SCAN-3C E -148.047490218574
  B      -3.273888     -1.320379     -0.000000
  B      -0.679509     -1.286631      0.000000
  B       1.972158     -1.483745     -0.000000
  B      -1.972158      1.483746      0.000000
  B       0.679508      1.286629     -0.000000
  B       3.273888      1.320380     -0.000000
6
Coordinates from ORCA-job B6_rhombic_planar_d3.50_q0_m1_R2SCAN-3C E -148.079981808485
  B      -3.138999     -1.300322     -0.000000
  B      -0.652049     -1.269277      0.000000
  B       1.881635     -1.484592     -0.000000
  B      -1.881636      1.484592      0.000000
  B       0.652048      1.269274     -0.000000
  B       3.139001      1.300325     -0.000000
6
Coordinates from ORCA-job B6_rhombic_planar_d3.50_q0_m1_R2SCAN-3C E -148.128896480890
  B      -2.947905     -1.272691     -0.000000
  B      -0.617414     -1.243080      0.000000
  B       1.753956     -1.484104     -0.000000
  B      -1.753958      1.484104      0.000000
  B       0.617413      1.243077     -0.000000
  B       2.947907      1.272695     -0.000000
6
Coordinates from ORCA-job B6_rhombic_planar_d3.50_q0_m1_R2SCAN-3C E -148.178271164207
  B      -2.764611     -1.247724     -0.000000
  B      -0.583685     -1.219452      0.000000
  B       1.624778     -1.481420     -0.000000
  B      -1.624777      1.481422      0.000000
  B       0.583687      1.219450     -0.000000
  B       2.764608      1.247724     -0.000000
6
Coordinates from ORCA-job B6_rhombic_planar_d3.50_q0_m1_R2SCAN-3C E -148.224603860694
  B      -2.587694     -1.225010     -0.000000
  B      -0.549057     -1.198310      0.000000
  B       1.494123     -1.477900     -0.000000
  B      -1.494121      1.477902      0.000000
  B       0.549059      1.198309     -0.000000
  B       2.587691      1.225010     -0.000000
6
Coordinates from ORCA-job B6_rhombic_planar_d3.50_q0_m1_R2SCAN-3C E -148.254981425836
  B      -2.474579     -1.210967     -0.000000
  B      -0.515511     -1.186880      0.000000
  B       1.389010     -1.465051     -0.000000
  B      -1.389009      1.465054      0.000000
  B       0.515513      1.186880     -0.000000
  B       2.474576      1.210965     -0.000000
6
Coordinates from ORCA-job B6_rhombic_planar_d3.50_q0_m1_R2SCAN-3C E -148.271158709433
  B      -2.408861     -1.201268     -0.000000
  B      -0.494311     -1.177311      0.000000
  B       1.319824     -1.446654     -0.000000
  B      -1.319823      1.446657      0.000000
  B       0.494313      1.177310     -0.000000
  B       2.408858      1.201265     -0.000000
6
Coordinates from ORCA-job B6_rhombic_planar_d3.50_q0_m1_R2SCAN-3C E -148.287202424099
  B      -2.332236     -1.183193     -0.000000
  B      -0.477236     -1.150157      0.000000
  B       1.233813     -1.394192      0.000000
  B      -1.233813      1.394195      0.000000
  B       0.477235      1.150156      0.000000
  B       2.332236      1.183190     -0.000000
6
Coordinates from ORCA-job B6_rhombic_planar_d3.50_q0_m1_R2SCAN-3C E -148.426382941151
  B      -2.285985     -1.143318     -0.000041
  B      -0.479924     -1.096556      0.000018
  B       1.192642     -1.293415      0.000023
  B      -1.192647      1.293416      0.000022
  B       0.479922      1.096555      0.000021
  B       2.285991      1.143318     -0.000042
6
Coordinates from ORCA-job B6_rhombic_planar_d3.50_q0_m1_R2SCAN-3C E -148.474209831916
  B      -2.148887     -1.073683     -0.000048
  B      -0.464294     -1.068443      0.000019
  B       1.132857     -1.229593      0.000029
  B      -1.132860      1.229594      0.000027
  B       0.464295      1.068440      0.000022
  B       2.148889      1.073685     -0.000050
6
Coordinates from ORCA-job B6_rhombic_planar_d3.50_q0_m1_R2SCAN-3C E -148.507116753437
  B      -2.092401     -1.006271     -0.000046
  B      -0.446486     -1.051308      0.000018
  B       1.134062     -1.166342      0.000028
  B      -1.134060      1.166340      0.000027
  B       0.446484      1.051303      0.000021
  B       2.092401      1.006278     -0.000047
6
Coordinates from ORCA-job B6_rhombic_planar_d3.50_q0_m1_R2SCAN-3C E -148.531257539637
  B      -2.069304     -0.960946     -0.000045
  B      -0.434479     -1.041284      0.000018
  B       1.143010     -1.119588      0.000027
  B      -1.143024      1.119590      0.000026
  B       0.434481      1.041287      0.000020
  B       2.069315      0.960942     -0.000046
6
Coordinates from ORCA-job B6_rhombic_planar_d3.50_q0_m1_R2SCAN-3C E -148.570030163414
  B      -2.033066     -0.892989     -0.000043
  B      -0.415661     -1.027175      0.000016
  B       1.153360     -1.048947      0.000026
  B      -1.153362      1.048947      0.000025
  B       0.415660      1.027173      0.000018
  B       2.033069      0.892991     -0.000043
6
Coordinates from ORCA-job B6_rhombic_planar_d3.50_q0_m1_R2SCAN-3C E -148.616560461258
  B      -1.992193     -0.821674     -0.000040
  B      -0.397370     -1.006877      0.000015
  B       1.152038     -0.962650      0.000025
  B      -1.152051      0.962652      0.000024
  B       0.397372      1.006881      0.000016
  B       1.992204      0.821669     -0.000040
6
Coordinates from ORCA-job B6_rhombic_planar_d3.50_q0_m1_R2SCAN-3C E -148.662064497658
  B      -1.955439     -0.751180     -0.000036
  B      -0.383885     -0.988249      0.000013
  B       1.158457     -0.877694      0.000023
  B      -1.158454      0.877693      0.000023
  B       0.383884      0.988244      0.000014
  B       1.955438      0.751186     -0.000037
6
Coordinates from ORCA-job B6_rhombic_planar_d3.50_q0_m1_R2SCAN-3C E -148.695127349557
  B      -1.953749     -0.685794     -0.000035
  B      -0.377165     -0.986977      0.000011
  B       1.192930     -0.799845      0.000023
  B      -1.192940      0.799843      0.000023
  B       0.377170      0.986981      0.000012
  B       1.953754      0.685792     -0.000035
6
Coordinates from ORCA-job B6_rhombic_planar_d3.50_q0_m1_R2SCAN-3C E -148.705417979423
  B      -1.927591     -0.647067     -0.000034
  B      -0.369755     -0.982192      0.000011
  B       1.177561     -0.745768      0.000023
  B      -1.177558      0.745771      0.000023
  B       0.369751      0.982191      0.000012
  B       1.927593      0.647066     -0.000034
6
Coordinates from ORCA-job B6_rhombic_planar_d3.50_q0_m1_R2SCAN-3C E -148.707426973569
  B      -1.971790     -0.658666     -0.000041
  B      -0.424441     -0.972713      0.000007
  B       1.139028     -0.667487      0.000034
  B      -1.139053      0.667480      0.000034
  B       0.424492      0.972699      0.000008
  B       1.971764      0.658686     -0.000041
6
Coordinates from ORCA-job B6_rhombic_planar_d3.50_q0_m1_R2SCAN-3C E -148.708680042671
  B      -1.969295     -0.646788     -0.000053
  B      -0.399355     -0.998143     -0.000001
  B       1.132483     -0.675291      0.000054
  B      -1.132340      0.675383      0.000055
  B       0.399169      0.998185     -0.000001
  B       1.969338      0.646653     -0.000053
6
Coordinates from ORCA-job B6_rhombic_planar_d3.50_q0_m1_R2SCAN-3C E -148.708967509346
  B      -1.934388     -0.643050     -0.000060
  B      -0.413864     -1.042602     -0.000021
  B       1.127923     -0.689702      0.000080
  B      -1.129111      0.689216      0.000082
  B       0.415263      1.042288     -0.000023
  B       1.934177      0.643850     -0.000058
6
Coordinates from ORCA-job B6_rhombic_planar_d3.50_q0_m1_R2SCAN-3C E -148.709799693668
  B      -1.950138     -0.652643     -0.000084
  B      -0.427859     -1.046212     -0.000029
  B       1.110514     -0.670339      0.000112
  B      -1.104776      0.673294      0.000113
  B       0.420101      1.047971     -0.000029
  B       1.952158      0.647929     -0.000083
6
Coordinates from ORCA-job B6_rhombic_planar_d3.50_q0_m1_R2SCAN-3C E -148.706394062296
  B      -1.987657     -0.643919     -0.000111
  B      -0.416126     -1.066830     -0.000041
  B       1.054929     -0.646647      0.000154
  B      -1.087191      0.627892      0.000155
  B       0.462295      1.057344     -0.000045
  B       1.973751      0.672160     -0.000112
6
Coordinates from ORCA-job B6_rhombic_planar_d3.50_q0_m1_R2SCAN-3C E -148.710364976544
  B      -1.963461     -0.647371     -0.000118
  B      -0.439947     -1.083402     -0.000059
  B       1.078377     -0.646420      0.000176
  B      -1.077671      0.644265      0.000176
  B       0.440997      1.079125     -0.000059
  B       1.961705      0.653803     -0.000117
6
Coordinates from ORCA-job B6_rhombic_planar_d3.50_q0_m1_R2SCAN-3C E -148.710231934940
  B      -1.949819     -0.666697     -0.000144
  B      -0.443789     -1.094011     -0.000091
  B       1.053532     -0.635616      0.000227
  B      -1.067092      0.649631      0.000241
  B       0.451899      1.111821     -0.000097
  B       1.955269      0.634872     -0.000136
6
Coordinates from ORCA-job B6_rhombic_planar_d3.50_q0_m1_R2SCAN-3C E -148.710291688906
  B      -1.939829     -0.646446     -0.000160
  B      -0.463916     -1.128547     -0.000143
  B       1.038550     -0.640466      0.000307
  B      -1.038220      0.630255      0.000300
  B       0.450766      1.129111     -0.000142
  B       1.952648      0.656093     -0.000162
6
Coordinates from ORCA-job B6_rhombic_planar_d3.50_q0_m1_R2SCAN-3C E -148.706992819767
  B      -1.992867     -0.625681     -0.000149
  B      -0.454821     -1.163344     -0.000207
  B       1.063936     -0.624953      0.000365
  B      -1.001038      0.623041      0.000331
  B       0.467971      1.118152     -0.000184
  B       1.916819      0.672785     -0.000156
6
Coordinates from ORCA-job B6_rhombic_planar_d3.50_q0_m1_R2SCAN-3C E -148.710370673847
  B      -1.971154     -0.648167     -0.000140
  B      -0.455928     -1.132606     -0.000201
  B       1.045178     -0.621038      0.000340
  B      -1.043634      0.621493      0.000342
  B       0.460451      1.131432     -0.000206
  B       1.965087      0.648886     -0.000135
6
Coordinates from ORCA-job B6_rhombic_planar_d3.50_q0_m1_R2SCAN-3C E -148.710165414568
  B      -1.935539     -0.656198     -0.000131
  B      -0.462480     -1.128119     -0.000265
  B       1.025826     -0.634412      0.000395
  B      -1.032106      0.634866      0.000398
  B       0.456820      1.134641     -0.000271
  B       1.947480      0.649221     -0.000126
6
Coordinates from ORCA-job B6_rhombic_planar_d3.50_q0_m1_R2SCAN-3C E -148.710629702141
  B      -1.957312     -0.650077     -0.000092
  B      -0.456505     -1.126000     -0.000308
  B       1.041547     -0.629044      0.000399
  B      -1.041409      0.628823      0.000402
  B       0.456832      1.125534     -0.000313
  B       1.956848      0.650765     -0.000087
6
Coordinates from ORCA-job B6_rhombic_planar_d3.50_q0_m1_R2SCAN-3C E -148.710630892845
  B      -1.956352     -0.650399     -0.000041
  B      -0.457075     -1.126416     -0.000417
  B       1.041260     -0.628964      0.000456
  B      -1.041266      0.628991      0.000460
  B       0.457119      1.126482     -0.000424
  B       1.956314      0.650307     -0.000035
6
Coordinates from ORCA-job B6_rhombic_planar_d3.50_q0_m1_R2SCAN-3C E -148.710630994555
  B      -1.956261     -0.650375     -0.000007
  B      -0.456943     -1.126041     -0.000513
  B       1.041535     -0.629254      0.000518
  B      -1.041541      0.629211      0.000522
  B       0.456919      1.126084     -0.000519
  B       1.956290      0.650376     -0.000002
6
Coordinates from ORCA-job B6_rhombic_planar_d3.50_q0_m1_R2SCAN-3C E -148.710631016831
  B      -1.956240     -0.650367      0.000079
  B      -0.456739     -1.125586     -0.000727
  B       1.041944     -0.629498      0.000645
  B      -1.041970      0.629512      0.000651
  B       0.456722      1.125539     -0.000734
  B       1.956283      0.650399      0.000086
