6
Coordinates from ORCA-job B6_rhombic_planar_d3.50_q0_m1_R2SCAN-3C E -148.710631016831
  B          -1.95623951928802     -0.65036653879616      0.00007911419876
  B          -0.45673933606598     -1.12558574256233     -0.00072672260330
  B           1.04194430769264     -0.62949782161734      0.00064523532457
  B          -1.04197041424846      0.62951239290323      0.00065066949963
  B           0.45672234844584      1.12553868100025     -0.00073420513771
  B           1.95628261346399      0.65039902907235      0.00008590871805
