6
Coordinates from ORCA-job B6_random_3d_seed1004_d3.00_q0_m1_R2SCAN-3C E -148.737094395938
  B          -0.44045956878734     -0.19210538518014      0.60498697291588
  B           0.96928127049776      0.66696152847195      0.72069742045131
  B           1.02758330025606     -0.87953836795528      0.27100808718696
  B          -1.03725112294591      0.21737635372219     -0.88335295724379
  B          -0.30637016626579      1.34516396691701      0.00641878584588
  B          -0.21278371275478     -1.15785809597572     -0.71975830915625
