6
Coordinates from ORCA-job B6_random_3d_seed1004_d3.00_q0_m1_R2SCAN-3C E -147.985839188078
  B      -0.920069     -0.806075      1.856153
  B       1.375372      1.252369      1.415331
  B       1.540563     -1.619722      0.600001
  B      -2.108991      0.137477     -0.687796
  B       0.027843      2.030090     -1.217974
  B       0.085282     -0.994139     -1.965715
6
Coordinates from ORCA-job B6_random_3d_seed1004_d3.00_q0_m1_R2SCAN-3C E -148.004697314838
  B      -0.902178     -0.797605      1.817606
  B       1.357712      1.247565      1.391627
  B       1.500376     -1.598048      0.588639
  B      -2.057174      0.123908     -0.679499
  B       0.027916      2.011189     -1.190110
  B       0.073348     -0.987009     -1.928262
6
Coordinates from ORCA-job B6_random_3d_seed1004_d3.00_q0_m1_R2SCAN-3C E -148.024724029418
  B      -0.884389     -0.789046      1.778821
  B       1.339974      1.243130      1.368226
  B       1.460082     -1.576801      0.576966
  B      -2.004998      0.110185     -0.670876
  B       0.027931      1.992466     -1.162499
  B       0.061401     -0.979935     -1.890637
6
Coordinates from ORCA-job B6_random_3d_seed1004_d3.00_q0_m1_R2SCAN-3C E -148.056996806379
  B      -0.857490     -0.775289      1.719943
  B       1.312694      1.236603      1.333555
  B       1.400198     -1.545990      0.558767
  B      -1.926796      0.090151     -0.657598
  B       0.027462      1.964090     -1.121079
  B       0.043933     -0.969565     -1.833588
6
Coordinates from ORCA-job B6_random_3d_seed1004_d3.00_q0_m1_R2SCAN-3C E -148.110598065840
  B      -0.817143     -0.752946      1.630289
  B       1.270366      1.226890      1.282354
  B       1.311607     -1.501699      0.529887
  B      -1.810581      0.061782     -0.635928
  B       0.025946      1.920512     -1.059400
  B       0.019805     -0.954538     -1.747202
6
Coordinates from ORCA-job B6_random_3d_seed1004_d3.00_q0_m1_R2SCAN-3C E -148.172789253842
  B      -0.775249     -0.727933      1.536268
  B       1.224871      1.217829      1.230722
  B       1.220168     -1.458222      0.497306
  B      -1.691092      0.034329     -0.610899
  B       0.023579      1.874464     -0.996037
  B      -0.002277     -0.940467     -1.657361
6
Coordinates from ORCA-job B6_random_3d_seed1004_d3.00_q0_m1_R2SCAN-3C E -148.241436642382
  B      -0.732792     -0.700925      1.441049
  B       1.177405      1.209097      1.180066
  B       1.129018     -1.416685      0.461779
  B      -1.571490      0.008483     -0.584589
  B       0.020469      1.826939     -0.932949
  B      -0.022610     -0.926909     -1.565355
6
Coordinates from ORCA-job B6_random_3d_seed1004_d3.00_q0_m1_R2SCAN-3C E -148.289790873669
  B      -0.703880     -0.680601      1.377450
  B       1.143742      1.202732      1.146562
  B       1.068290     -1.389970      0.435325
  B      -1.492935     -0.005841     -0.565333
  B       0.017406      1.793019     -0.890372
  B      -0.032623     -0.919340     -1.503633
6
Coordinates from ORCA-job B6_random_3d_seed1004_d3.00_q0_m1_R2SCAN-3C E -148.363345448471
  B      -0.661144     -0.646194      1.282789
  B       1.090481      1.190020      1.095343
  B       0.980416     -1.350496      0.392575
  B      -1.379139     -0.022178     -0.534710
  B       0.011504      1.737324     -0.825599
  B      -0.042119     -0.908476     -1.410398
6
Coordinates from ORCA-job B6_random_3d_seed1004_d3.00_q0_m1_R2SCAN-3C E -148.432548612988
  B      -0.615557     -0.603907      1.191929
  B       1.032309      1.172797      1.045058
  B       0.895304     -1.313251      0.347249
  B      -1.270032     -0.025395     -0.501588
  B      -0.000161      1.674663     -0.758178
  B      -0.041862     -0.904907     -1.324470
6
Coordinates from ORCA-job B6_random_3d_seed1004_d3.00_q0_m1_R2SCAN-3C E -148.494401622658
  B      -0.567021     -0.545485      1.111094
  B       0.970505      1.143742      0.997538
  B       0.818285     -1.275783      0.298701
  B      -1.166449     -0.008893     -0.473662
  B      -0.024136      1.597589     -0.684749
  B      -0.031184     -0.911169     -1.248922
6
Coordinates from ORCA-job B6_random_3d_seed1004_d3.00_q0_m1_R2SCAN-3C E -148.542922626578
  B      -0.510134     -0.474469      1.049956
  B       0.917095      1.101646      0.957080
  B       0.758640     -1.234258      0.270257
  B      -1.081993      0.018740     -0.473193
  B      -0.058378      1.514310     -0.602462
  B      -0.025230     -0.925969     -1.201637
6
Coordinates from ORCA-job B6_random_3d_seed1004_d3.00_q0_m1_R2SCAN-3C E -148.584433503764
  B      -0.462447     -0.387712      0.992235
  B       0.877045      1.046353      0.911889
  B       0.732443     -1.186407      0.270463
  B      -1.021909      0.050663     -0.493307
  B      -0.096346      1.426525     -0.498448
  B      -0.028786     -0.949422     -1.182832
6
Coordinates from ORCA-job B6_random_3d_seed1004_d3.00_q0_m1_R2SCAN-3C E -148.610856982520
  B      -0.453159     -0.322283      0.942185
  B       0.854142      0.996315      0.871714
  B       0.739164     -1.147477      0.265726
  B      -1.018150      0.069102     -0.495419
  B      -0.105216      1.382494     -0.420190
  B      -0.016781     -0.978151     -1.164015
6
Coordinates from ORCA-job B6_random_3d_seed1004_d3.00_q0_m1_R2SCAN-3C E -148.643691661471
  B      -0.440831     -0.245322      0.888593
  B       0.842037      0.896186      0.832195
  B       0.776613     -1.082844      0.274162
  B      -1.062219      0.093343     -0.524587
  B      -0.115327      1.336931     -0.344729
  B      -0.000273     -0.998294     -1.125634
6
Coordinates from ORCA-job B6_random_3d_seed1004_d3.00_q0_m1_R2SCAN-3C E -148.673728753828
  B      -0.436531     -0.187711      0.838038
  B       0.869109      0.787067      0.819347
  B       0.835881     -1.023474      0.303373
  B      -1.123700      0.126388     -0.571546
  B      -0.151669      1.303967     -0.303718
  B       0.006910     -1.006236     -1.085494
6
Coordinates from ORCA-job B6_random_3d_seed1004_d3.00_q0_m1_R2SCAN-3C E -148.695176577144
  B      -0.463597     -0.177514      0.792639
  B       0.892391      0.721279      0.787580
  B       0.878157     -0.963811      0.324018
  B      -1.171799      0.130212     -0.598213
  B      -0.142846      1.298389     -0.260667
  B       0.007693     -1.008555     -1.045356
6
Coordinates from ORCA-job B6_random_3d_seed1004_d3.00_q0_m1_R2SCAN-3C E -148.706495888945
  B      -0.479185     -0.188820      0.760530
  B       0.917283      0.676594      0.775849
  B       0.903056     -0.924411      0.338556
  B      -1.183072      0.130696     -0.618177
  B      -0.151638      1.307849     -0.248544
  B      -0.006445     -1.001908     -1.008213
6
Coordinates from ORCA-job B6_random_3d_seed1004_d3.00_q0_m1_R2SCAN-3C E -148.716862243472
  B      -0.500123     -0.204690      0.715183
  B       0.935999      0.649795      0.755504
  B       0.952046     -0.903551      0.340290
  B      -1.191115      0.135572     -0.665434
  B      -0.158559      1.327754     -0.208002
  B      -0.038248     -1.004879     -0.937541
6
Coordinates from ORCA-job B6_random_3d_seed1004_d3.00_q0_m1_R2SCAN-3C E -148.723975879049
  B      -0.462255     -0.228302      0.643660
  B       0.942528      0.618749      0.742888
  B       0.970013     -0.874231      0.332927
  B      -1.171705      0.163477     -0.722761
  B      -0.197577      1.356671     -0.157071
  B      -0.081003     -1.036365     -0.839643
6
Coordinates from ORCA-job B6_random_3d_seed1004_d3.00_q0_m1_R2SCAN-3C E -148.729098551653
  B      -0.477205     -0.206084      0.586118
  B       0.963044      0.646979      0.745087
  B       1.039679     -0.917783      0.325258
  B      -1.141999      0.186938     -0.769980
  B      -0.247920      1.362822     -0.100966
  B      -0.135599     -1.072873     -0.785517
6
Coordinates from ORCA-job B6_random_3d_seed1004_d3.00_q0_m1_R2SCAN-3C E -148.731543235291
  B      -0.436015     -0.190208      0.647417
  B       0.946986      0.673801      0.743230
  B       1.035077     -0.916086      0.311002
  B      -1.111443      0.181939     -0.837088
  B      -0.253406      1.350061     -0.062901
  B      -0.181199     -1.099507     -0.801661
6
Coordinates from ORCA-job B6_random_3d_seed1004_d3.00_q0_m1_R2SCAN-3C E -148.733889225531
  B      -0.448757     -0.170559      0.627843
  B       0.959551      0.660697      0.729819
  B       1.001843     -0.889916      0.272075
  B      -1.081426      0.217060     -0.841216
  B      -0.278585      1.322100     -0.034546
  B      -0.152626     -1.139382     -0.753976
6
Coordinates from ORCA-job B6_random_3d_seed1004_d3.00_q0_m1_R2SCAN-3C E -148.735395797302
  B      -0.430213     -0.215503      0.578304
  B       0.960923      0.656077      0.730603
  B       1.029530     -0.866957      0.292292
  B      -1.065308      0.222296     -0.852725
  B      -0.288117      1.354413     -0.020514
  B      -0.206815     -1.150326     -0.727960
6
Coordinates from ORCA-job B6_random_3d_seed1004_d3.00_q0_m1_R2SCAN-3C E -148.736573910407
  B      -0.436851     -0.182729      0.601046
  B       0.971536      0.665178      0.730853
  B       1.023446     -0.891103      0.276685
  B      -1.051484      0.198272     -0.869080
  B      -0.302899      1.365309     -0.001623
  B      -0.203748     -1.154927     -0.737880
6
Coordinates from ORCA-job B6_random_3d_seed1004_d3.00_q0_m1_R2SCAN-3C E -148.736631556743
  B      -0.441399     -0.183808      0.608875
  B       0.962305      0.667005      0.722185
  B       1.031618     -0.878087      0.277107
  B      -1.045076      0.219276     -0.873203
  B      -0.297048      1.327138     -0.002728
  B      -0.210400     -1.151523     -0.732237
6
Coordinates from ORCA-job B6_random_3d_seed1004_d3.00_q0_m1_R2SCAN-3C E -148.736594393051
  B      -0.439194     -0.205707      0.606352
  B       0.969133      0.675679      0.724093
  B       1.024451     -0.882633      0.268296
  B      -1.046897      0.228569     -0.887004
  B      -0.300998      1.344707      0.001495
  B      -0.206496     -1.160616     -0.713232
6
Coordinates from ORCA-job B6_random_3d_seed1004_d3.00_q0_m1_R2SCAN-3C E -148.736979997698
  B      -0.439061     -0.189490      0.600205
  B       0.969263      0.661095      0.722355
  B       1.026845     -0.880093      0.269985
  B      -1.036018      0.210480     -0.880106
  B      -0.308829      1.354090      0.006201
  B      -0.212200     -1.156082     -0.718640
6
Coordinates from ORCA-job B6_random_3d_seed1004_d3.00_q0_m1_R2SCAN-3C E -148.737080298298
  B      -0.440529     -0.191099      0.605992
  B       0.968812      0.667740      0.722018
  B       1.028512     -0.879361      0.272131
  B      -1.038903      0.217855     -0.881616
  B      -0.304941      1.343824      0.004621
  B      -0.212951     -1.158959     -0.723145
6
Coordinates from ORCA-job B6_random_3d_seed1004_d3.00_q0_m1_R2SCAN-3C E -148.737092625645
  B      -0.440352     -0.192243      0.604811
  B       0.968728      0.666996      0.721243
  B       1.027798     -0.879638      0.270390
  B      -1.037877      0.217385     -0.883595
  B      -0.305685      1.344437      0.005987
  B      -0.212612     -1.156936     -0.718836
6
Coordinates from ORCA-job B6_random_3d_seed1004_d3.00_q0_m1_R2SCAN-3C E -148.737094073273
  B      -0.440392     -0.192169      0.604849
  B       0.969195      0.666760      0.721060
  B       1.027588     -0.879417      0.270795
  B      -1.037260      0.217326     -0.883057
  B      -0.306364      1.345751      0.006141
  B      -0.212768     -1.158251     -0.719787
6
Coordinates from ORCA-job B6_random_3d_seed1004_d3.00_q0_m1_R2SCAN-3C E -148.737094363303
  B      -0.440446     -0.192064      0.604978
  B       0.969220      0.666940      0.720880
  B       1.027661     -0.879511      0.270942
  B      -1.037329      0.217320     -0.883277
  B      -0.306280      1.345193      0.006287
  B      -0.212826     -1.157877     -0.719810
6
Coordinates from ORCA-job B6_random_3d_seed1004_d3.00_q0_m1_R2SCAN-3C E -148.737094395938
  B      -0.440460     -0.192105      0.604987
  B       0.969281      0.666962      0.720697
  B       1.027583     -0.879538      0.271008
  B      -1.037251      0.217376     -0.883353
  B      -0.306370      1.345164      0.006419
  B      -0.212784     -1.157858     -0.719758
