6
Coordinates from ORCA-job B6_trigonal_prism_d3.50_q0_m1_R2SCAN-3C E -147.850148330577
  B       1.750000      1.010363     -1.750000
  B      -1.750000      1.010363     -1.750000
  B      -0.000000     -2.020726     -1.750000
  B       1.750000      1.010363      1.750000
  B      -1.750000      1.010363      1.750000
  B      -0.000000     -2.020726      1.750000
6
Coordinates from ORCA-job B6_trigonal_prism_d3.50_q0_m1_R2SCAN-3C E -147.860020502483
  B       1.719459      0.992730     -1.734678
  B      -1.719459      0.992730     -1.734678
  B       0.000000     -1.985461     -1.734677
  B       1.719459      0.992730      1.734678
  B      -1.719459      0.992730      1.734678
  B      -0.000000     -1.985461      1.734677
6
Coordinates from ORCA-job B6_trigonal_prism_d3.50_q0_m1_R2SCAN-3C E -147.870334837296
  B       1.688833      0.975049     -1.719699
  B      -1.688833      0.975049     -1.719699
  B       0.000000     -1.950099     -1.719695
  B       1.688833      0.975050      1.719699
  B      -1.688833      0.975050      1.719699
  B      -0.000000     -1.950099      1.719695
6
Coordinates from ORCA-job B6_trigonal_prism_d3.50_q0_m1_R2SCAN-3C E -147.886687082264
  B       1.642780      0.948457     -1.697723
  B      -1.642780      0.948457     -1.697723
  B       0.000000     -1.896913     -1.697714
  B       1.642780      0.948457      1.697723
  B      -1.642780      0.948457      1.697723
  B       0.000000     -1.896913      1.697714
6
Coordinates from ORCA-job B6_trigonal_prism_d3.50_q0_m1_R2SCAN-3C E -147.913385271722
  B       1.573443      0.908423     -1.665842
  B      -1.573443      0.908423     -1.665842
  B       0.000000     -1.816846     -1.665822
  B       1.573443      0.908423      1.665842
  B      -1.573443      0.908423      1.665842
  B       0.000000     -1.816846      1.665822
6
Coordinates from ORCA-job B6_trigonal_prism_d3.50_q0_m1_R2SCAN-3C E -147.944257954684
  B       1.501177      0.866682     -1.634461
  B      -1.501177      0.866682     -1.634461
  B      -0.000000     -1.733363     -1.634419
  B       1.501177      0.866682      1.634461
  B      -1.501177      0.866682      1.634461
  B      -0.000000     -1.733363      1.634419
6
Coordinates from ORCA-job B6_trigonal_prism_d3.50_q0_m1_R2SCAN-3C E -147.979024632673
  B       1.428534      0.824731     -1.604836
  B      -1.428534      0.824731     -1.604836
  B      -0.000000     -1.649462     -1.604783
  B       1.428534      0.824731      1.604836
  B      -1.428534      0.824731      1.604836
  B      -0.000000     -1.649462      1.604783
6
Coordinates from ORCA-job B6_trigonal_prism_d3.50_q0_m1_R2SCAN-3C E -148.018657171376
  B       1.355541      0.782566     -1.577037
  B      -1.355541      0.782566     -1.577037
  B      -0.000000     -1.565133     -1.576977
  B       1.355541      0.782566      1.577037
  B      -1.355541      0.782566      1.577037
  B      -0.000000     -1.565133      1.576977
6
Coordinates from ORCA-job B6_trigonal_prism_d3.50_q0_m1_R2SCAN-3C E -148.064473886926
  B       1.282185      0.740211     -1.551125
  B      -1.282185      0.740211     -1.551125
  B      -0.000000     -1.480423     -1.551055
  B       1.282185      0.740211      1.551125
  B      -1.282185      0.740211      1.551125
  B      -0.000000     -1.480423      1.551055
6
Coordinates from ORCA-job B6_trigonal_prism_d3.50_q0_m1_R2SCAN-3C E -148.118249152786
  B       1.208511      0.697656     -1.527179
  B      -1.208511      0.697656     -1.527179
  B      -0.000000     -1.395311     -1.527095
  B       1.208511      0.697656      1.527179
  B      -1.208511      0.697656      1.527179
  B      -0.000000     -1.395311      1.527095
6
Coordinates from ORCA-job B6_trigonal_prism_d3.50_q0_m1_R2SCAN-3C E -148.181833854736
  B       1.134501      0.654920     -1.505316
  B      -1.134501      0.654920     -1.505316
  B      -0.000000     -1.309840     -1.505235
  B       1.134501      0.654920      1.505316
  B      -1.134501      0.654920      1.505316
  B      -0.000000     -1.309840      1.505235
6
Coordinates from ORCA-job B6_trigonal_prism_d3.50_q0_m1_R2SCAN-3C E -148.255354145005
  B       1.060212      0.612023     -1.485430
  B      -1.060212      0.612023     -1.485430
  B      -0.000000     -1.224046     -1.485368
  B       1.060212      0.612023      1.485430
  B      -1.060212      0.612023      1.485430
  B      -0.000000     -1.224046      1.485368
6
Coordinates from ORCA-job B6_trigonal_prism_d3.50_q0_m1_R2SCAN-3C E -148.339067686014
  B       0.985740      0.568994     -1.467146
  B      -0.985740      0.568994     -1.467146
  B      -0.000000     -1.137989     -1.467097
  B       0.985740      0.568994      1.467146
  B      -0.985740      0.568994      1.467146
  B      -0.000000     -1.137989      1.467097
6
Coordinates from ORCA-job B6_trigonal_prism_d3.50_q0_m1_R2SCAN-3C E -148.424255680876
  B       0.911189      0.525944     -1.449358
  B      -0.911189      0.525944     -1.449358
  B      -0.000000     -1.051887     -1.449305
  B       0.911189      0.525944      1.449358
  B      -0.911189      0.525944      1.449358
  B      -0.000000     -1.051887      1.449305
6
Coordinates from ORCA-job B6_trigonal_prism_d3.50_q0_m1_R2SCAN-3C E -148.494015811975
  B       0.836902      0.483093     -1.429184
  B      -0.836902      0.483093     -1.429185
  B      -0.000000     -0.966186     -1.429103
  B       0.836902      0.483093      1.429185
  B      -0.836902      0.483093      1.429185
  B      -0.000000     -0.966186      1.429103
6
Coordinates from ORCA-job B6_trigonal_prism_d3.50_q0_m1_R2SCAN-3C E -148.518520596424
  B       0.769891      0.444505     -1.379430
  B      -0.769891      0.444505     -1.379431
  B       0.000000     -0.889010     -1.379303
  B       0.769891      0.444505      1.379431
  B      -0.769891      0.444505      1.379431
  B       0.000000     -0.889010      1.379303
6
Coordinates from ORCA-job B6_trigonal_prism_d3.50_q0_m1_R2SCAN-3C E -148.529605748106
  B       0.784638      0.452947     -1.300062
  B      -0.784638      0.452946     -1.300062
  B      -0.000000     -0.905893     -1.299909
  B       0.784638      0.452946      1.300062
  B      -0.784638      0.452946      1.300062
  B      -0.000000     -0.905893      1.299909
6
Coordinates from ORCA-job B6_trigonal_prism_d3.50_q0_m1_R2SCAN-3C E -148.537608186428
  B       0.788199      0.455062     -1.220703
  B      -0.788199      0.455062     -1.220703
  B       0.000000     -0.910124     -1.220497
  B       0.788200      0.455062      1.220703
  B      -0.788200      0.455062      1.220703
  B       0.000000     -0.910124      1.220497
6
Coordinates from ORCA-job B6_trigonal_prism_d3.50_q0_m1_R2SCAN-3C E -148.541832994892
  B       0.787949      0.454270     -1.141345
  B      -0.787949      0.454269     -1.141345
  B      -0.000000     -0.908539     -1.141085
  B       0.787943      0.454266      1.141345
  B      -0.787943      0.454266      1.141345
  B      -0.000000     -0.908532      1.141085
6
Coordinates from ORCA-job B6_trigonal_prism_d3.50_q0_m1_R2SCAN-3C E -148.541856691441
  B       0.781368      0.455805     -1.125826
  B      -0.781370      0.455809     -1.125826
  B       0.000002     -0.911614     -1.125582
  B       0.781436      0.455846      1.125826
  B      -0.781438      0.455849      1.125826
  B       0.000002     -0.911694      1.125582
6
Coordinates from ORCA-job B6_trigonal_prism_d3.50_q0_m1_R2SCAN-3C E -148.541458613299
  B       0.791576      0.447637     -1.116113
  B      -0.791573      0.447632     -1.116114
  B      -0.000003     -0.895271     -1.114670
  B       0.791325      0.447501      1.116115
  B      -0.791322      0.447497      1.116116
  B      -0.000003     -0.894997      1.114668
6
Coordinates from ORCA-job B6_trigonal_prism_d3.50_q0_m1_R2SCAN-3C E -148.541951088257
  B       0.785579      0.452819     -1.133638
  B      -0.785576      0.452814     -1.133637
  B      -0.000003     -0.905639     -1.132580
  B       0.785849      0.453008      1.133643
  B      -0.785846      0.453003      1.133642
  B      -0.000003     -0.906005      1.132570
6
Coordinates from ORCA-job B6_trigonal_prism_d3.50_q0_m1_R2SCAN-3C E -148.541938913273
  B       0.786069      0.454262     -1.130685
  B      -0.786085      0.454290     -1.130685
  B       0.000016     -0.908553     -1.128927
  B       0.783095      0.452460      1.130685
  B      -0.783110      0.452488      1.130686
  B       0.000016     -0.904946      1.128926
6
Coordinates from ORCA-job B6_trigonal_prism_d3.50_q0_m1_R2SCAN-3C E -148.541913569693
  B       0.781758      0.453089     -1.126445
  B      -0.781764      0.453098     -1.126444
  B       0.000006     -0.906193     -1.123261
  B       0.784674      0.454613      1.126455
  B      -0.784678      0.454620      1.126455
  B       0.000004     -0.909227      1.123241
6
Coordinates from ORCA-job B6_trigonal_prism_d3.50_q0_m1_R2SCAN-3C E -148.541955090208
  B       0.785247      0.452675     -1.133254
  B      -0.785200      0.452592     -1.133249
  B      -0.000047     -0.905297     -1.129986
  B       0.785669      0.453263      1.133280
  B      -0.785623      0.453182      1.133276
  B      -0.000046     -0.906415      1.129932
6
Coordinates from ORCA-job B6_trigonal_prism_d3.50_q0_m1_R2SCAN-3C E -148.541959623265
  B       0.784585      0.453325     -1.132464
  B      -0.784829      0.453748     -1.132472
  B       0.000245     -0.907057     -1.126807
  B       0.784785      0.452695      1.132446
  B      -0.785025      0.453109      1.132458
  B       0.000239     -0.905821      1.126838
6
Coordinates from ORCA-job B6_trigonal_prism_d3.50_q0_m1_R2SCAN-3C E -148.541959882311
  B       0.785680      0.454386     -1.133014
  B      -0.784552      0.452435     -1.132929
  B      -0.001124     -0.906887     -1.122127
  B       0.784036      0.454444      1.133068
  B      -0.782910      0.452488      1.132992
  B      -0.001129     -0.906866      1.122011
6
Coordinates from ORCA-job B6_trigonal_prism_d3.50_q0_m1_R2SCAN-3C E -148.542002164383
  B       0.785616      0.453242     -1.136711
  B      -0.785265      0.452653     -1.136634
  B      -0.000341     -0.906072     -1.110296
  B       0.781845      0.454723      1.136858
  B      -0.781516      0.454140      1.136809
  B      -0.000338     -0.908687      1.109974
6
Coordinates from ORCA-job B6_trigonal_prism_d3.50_q0_m1_R2SCAN-3C E -148.542360067000
  B       0.784390      0.458656     -1.150644
  B      -0.779670      0.450523     -1.150055
  B      -0.004689     -0.909396     -1.073117
  B       0.783356      0.457601      1.150693
  B      -0.778642      0.449358      1.150190
  B      -0.004746     -0.906743      1.072932
6
Coordinates from ORCA-job B6_trigonal_prism_d3.50_q0_m1_R2SCAN-3C E -148.543036404992
  B       0.787330      0.450755     -1.164065
  B      -0.787356      0.450901     -1.164060
  B       0.000073     -0.902603     -1.041684
  B       0.771204      0.457038      1.165113
  B      -0.771598      0.457741      1.165305
  B       0.000347     -0.913833      1.039391
6
Coordinates from ORCA-job B6_trigonal_prism_d3.50_q0_m1_R2SCAN-3C E -148.543851472614
  B       0.786334      0.445239     -1.179323
  B      -0.790444      0.452535     -1.179865
  B       0.004177     -0.899058     -1.025532
  B       0.769971      0.453165      1.180598
  B      -0.774630      0.461318      1.181436
  B       0.004592     -0.913199      1.022688
6
Coordinates from ORCA-job B6_trigonal_prism_d3.50_q0_m1_R2SCAN-3C E -148.545287797842
  B       0.786666      0.441687     -1.197667
  B      -0.792294      0.451494     -1.198357
  B       0.005785     -0.894316     -0.992769
  B       0.763739      0.451100      1.198618
  B      -0.770816      0.463620      1.200007
  B       0.006919     -0.913586      0.990167
6
Coordinates from ORCA-job B6_trigonal_prism_d3.50_q0_m1_R2SCAN-3C E -148.547837303259
  B       0.786494      0.435315     -1.224945
  B      -0.794969      0.449700     -1.226146
  B       0.008639     -0.884560     -0.942015
  B       0.754654      0.447053      1.224607
  B      -0.765089      0.465846      1.226587
  B       0.010269     -0.913354      0.941913
6
Coordinates from ORCA-job B6_trigonal_prism_d3.50_q0_m1_R2SCAN-3C E -148.550941910220
  B       0.784203      0.431096     -1.262186
  B      -0.795013      0.448513     -1.263079
  B       0.010861     -0.871858     -0.895219
  B       0.749000      0.438694      1.255461
  B      -0.763162      0.465278      1.257407
  B       0.014112     -0.911723      0.907616
6
Coordinates from ORCA-job B6_trigonal_prism_d3.50_q0_m1_R2SCAN-3C E -148.555198476439
  B       0.776152      0.428600     -1.311824
  B      -0.784131      0.441018     -1.310156
  B       0.009650     -0.858953     -0.822708
  B       0.754750      0.425547      1.297328
  B      -0.771638      0.458077      1.302860
  B       0.015218     -0.894289      0.844500
6
Coordinates from ORCA-job B6_trigonal_prism_d3.50_q0_m1_R2SCAN-3C E -148.559794207849
  B       0.778201      0.405828     -1.367167
  B      -0.787639      0.427094     -1.368092
  B       0.014209     -0.853853     -0.831477
  B       0.747516      0.426800      1.376445
  B      -0.766459      0.456876      1.389436
  B       0.014172     -0.862745      0.800855
6
Coordinates from ORCA-job B6_trigonal_prism_d3.50_q0_m1_R2SCAN-3C E -148.565379357068
  B       0.782860      0.368888     -1.424065
  B      -0.796259      0.407201     -1.431287
  B       0.019707     -0.851895     -0.855914
  B       0.739657      0.434479      1.480997
  B      -0.753843      0.446634      1.493643
  B       0.007878     -0.805308      0.736627
6
Coordinates from ORCA-job B6_trigonal_prism_d3.50_q0_m1_R2SCAN-3C E -148.570988620771
  B       0.786105      0.352893     -1.483033
  B      -0.796251      0.388336     -1.492887
  B       0.019726     -0.850453     -0.876604
  B       0.730647      0.426330      1.557021
  B      -0.749881      0.445609      1.585526
  B       0.009654     -0.762715      0.709977
6
Coordinates from ORCA-job B6_trigonal_prism_d3.50_q0_m1_R2SCAN-3C E -148.577445875791
  B       0.778780      0.354750     -1.523287
  B      -0.787142      0.385008     -1.540430
  B       0.015685     -0.859001     -0.903163
  B       0.743530      0.422290      1.600534
  B      -0.759177      0.438198      1.628952
  B       0.008323     -0.741246      0.737393
6
Coordinates from ORCA-job B6_trigonal_prism_d3.50_q0_m1_R2SCAN-3C E -148.585091306890
  B       0.773541      0.344420     -1.571072
  B      -0.771023      0.357791     -1.583472
  B       0.002814     -0.863004     -0.929527
  B       0.746494      0.418434      1.679520
  B      -0.746344      0.409943      1.687656
  B      -0.005482     -0.667584      0.716894
6
Coordinates from ORCA-job B6_trigonal_prism_d3.50_q0_m1_R2SCAN-3C E -148.591526080283
  B       0.762480      0.341639     -1.662403
  B      -0.738863      0.318244     -1.655949
  B      -0.010880     -0.839189     -0.911647
  B       0.749215      0.379566      1.744756
  B      -0.755334      0.384772      1.776437
  B      -0.006618     -0.585033      0.708807
6
Coordinates from ORCA-job B6_trigonal_prism_d3.50_q0_m1_R2SCAN-3C E -148.595258022667
  B       0.772623      0.290140     -1.689811
  B      -0.765695      0.299775     -1.711854
  B      -0.003224     -0.830090     -0.956880
  B       0.737378      0.379730      1.853764
  B      -0.722688      0.345429      1.847033
  B      -0.018394     -0.484984      0.657748
6
Coordinates from ORCA-job B6_trigonal_prism_d3.50_q0_m1_R2SCAN-3C E -148.600280640232
  B       0.771266      0.278226     -1.773186
  B      -0.773590      0.293221     -1.813041
  B       0.008372     -0.788147     -0.915619
  B       0.745832      0.340169      1.876461
  B      -0.747740      0.332583      1.909447
  B      -0.004140     -0.456052      0.715938
6
Coordinates from ORCA-job B6_trigonal_prism_d3.50_q0_m1_R2SCAN-3C E -148.603513496839
  B       0.756362      0.274533     -1.850121
  B      -0.742656      0.266915     -1.856627
  B      -0.000033     -0.750899     -0.888429
  B       0.750161      0.314330      1.910774
  B      -0.759555      0.318209      1.958470
  B      -0.004279     -0.423088      0.725932
6
Coordinates from ORCA-job B6_trigonal_prism_d3.50_q0_m1_R2SCAN-3C E -148.608349911139
  B       0.753407      0.242747     -1.946534
  B      -0.740765      0.230779     -1.942992
  B       0.004451     -0.675701     -0.866706
  B       0.741240      0.269578      1.973794
  B      -0.760933      0.290253      2.031090
  B       0.002600     -0.357656      0.751349
6
Coordinates from ORCA-job B6_trigonal_prism_d3.50_q0_m1_R2SCAN-3C E -148.614616311172
  B       0.747338      0.193560     -2.026131
  B      -0.746498      0.189706     -2.018075
  B       0.012247     -0.578510     -0.848988
  B       0.736747      0.226554      2.055956
  B      -0.752595      0.249544      2.073508
  B       0.002762     -0.280854      0.763730
6
Coordinates from ORCA-job B6_trigonal_prism_d3.50_q0_m1_R2SCAN-3C E -148.619784300278
  B       0.738217      0.146747     -2.108671
  B      -0.750713      0.148093     -2.097736
  B       0.021903     -0.474315     -0.831666
  B       0.732692      0.182842      2.129721
  B      -0.755790      0.220635      2.126946
  B       0.013691     -0.224003      0.781406
6
Coordinates from ORCA-job B6_trigonal_prism_d3.50_q0_m1_R2SCAN-3C E -148.624203164947
  B       0.736341      0.097689     -2.167909
  B      -0.763402      0.101028     -2.129378
  B       0.029277     -0.359375     -0.827762
  B       0.729864      0.138157      2.194484
  B      -0.758450      0.193141      2.133701
  B       0.026369     -0.170641      0.796865
6
Coordinates from ORCA-job B6_trigonal_prism_d3.50_q0_m1_R2SCAN-3C E -148.625899947519
  B       0.711372      0.058843     -2.252144
  B      -0.751084      0.061699     -2.195329
  B       0.038615     -0.267558     -0.824366
  B       0.719280      0.096309      2.259961
  B      -0.763531      0.173444      2.181009
  B       0.045347     -0.122738      0.830869
6
Coordinates from ORCA-job B6_trigonal_prism_d3.50_q0_m1_R2SCAN-3C E -148.627542775301
  B       0.723752      0.044073     -2.252812
  B      -0.767256      0.044644     -2.189127
  B       0.043163     -0.225140     -0.824372
  B       0.721521      0.082421      2.264382
  B      -0.769038      0.169283      2.179255
  B       0.047858     -0.115280      0.822674
6
Coordinates from ORCA-job B6_trigonal_prism_d3.50_q0_m1_R2SCAN-3C E -148.628447734655
  B       0.717697      0.025746     -2.249121
  B      -0.763476      0.013459     -2.178319
  B       0.044321     -0.161378     -0.822376
  B       0.715590      0.055676      2.263634
  B      -0.763550      0.162935      2.165721
  B       0.049418     -0.096438      0.820462
6
Coordinates from ORCA-job B6_trigonal_prism_d3.50_q0_m1_R2SCAN-3C E -148.629057208687
  B       0.723122      0.004172     -2.266475
  B      -0.769465     -0.013796     -2.203362
  B       0.048027     -0.104249     -0.825333
  B       0.719922      0.031213      2.279551
  B      -0.763043      0.151368      2.186911
  B       0.041436     -0.068708      0.828708
6
Coordinates from ORCA-job B6_trigonal_prism_d3.50_q0_m1_R2SCAN-3C E -148.629300328282
  B       0.727222     -0.006889     -2.267447
  B      -0.763139     -0.032071     -2.207651
  B       0.038984     -0.068324     -0.823854
  B       0.723238      0.016150      2.272152
  B      -0.762730      0.146307      2.198699
  B       0.036426     -0.055173      0.828100
6
Coordinates from ORCA-job B6_trigonal_prism_d3.50_q0_m1_R2SCAN-3C E -148.629408514903
  B       0.744393     -0.019969     -2.247589
  B      -0.757830     -0.049879     -2.215535
  B       0.017112     -0.033777     -0.826914
  B       0.732424      0.002051      2.253609
  B      -0.751589      0.135631      2.213568
  B       0.015491     -0.034056      0.822860
6
Coordinates from ORCA-job B6_trigonal_prism_d3.50_q0_m1_R2SCAN-3C E -148.629480182968
  B       0.744369     -0.026803     -2.233954
  B      -0.745468     -0.063868     -2.229540
  B       0.004327     -0.009662     -0.820754
  B       0.742937     -0.009546      2.238446
  B      -0.747580      0.131330      2.220982
  B       0.001415     -0.021452      0.824820
6
Coordinates from ORCA-job B6_trigonal_prism_d3.50_q0_m1_R2SCAN-3C E -148.629543549250
  B       0.745697     -0.024559     -2.238105
  B      -0.746508     -0.059996     -2.232716
  B       0.004222     -0.019429     -0.823929
  B       0.739839     -0.007146      2.243042
  B      -0.745429      0.131596      2.227358
  B       0.002179     -0.020466      0.824350
6
Coordinates from ORCA-job B6_trigonal_prism_d3.50_q0_m1_R2SCAN-3C E -148.629579896293
  B       0.750045     -0.021462     -2.234076
  B      -0.744562     -0.057014     -2.235497
  B      -0.001704     -0.029605     -0.824644
  B       0.742710     -0.006068      2.237996
  B      -0.742833      0.132281      2.231552
  B      -0.003655     -0.018132      0.824669
6
Coordinates from ORCA-job B6_trigonal_prism_d3.50_q0_m1_R2SCAN-3C E -148.629611705560
  B       0.753822     -0.018743     -2.226016
  B      -0.738456     -0.059089     -2.244594
  B      -0.010818     -0.035015     -0.823456
  B       0.748584     -0.009992      2.228598
  B      -0.738424      0.132361      2.240354
  B      -0.014708     -0.009521      0.825113
6
Coordinates from ORCA-job B6_trigonal_prism_d3.50_q0_m1_R2SCAN-3C E -148.629610366274
  B       0.759091     -0.019809     -2.220074
  B      -0.734762     -0.066683     -2.249122
  B      -0.020080     -0.027791     -0.824355
  B       0.750390     -0.017255      2.223204
  B      -0.732331      0.130002      2.246864
  B      -0.022309      0.001536      0.823484
6
Coordinates from ORCA-job B6_trigonal_prism_d3.50_q0_m1_R2SCAN-3C E -148.629631526041
  B       0.756450     -0.018854     -2.220969
  B      -0.735490     -0.069124     -2.247386
  B      -0.016098     -0.026010     -0.823006
  B       0.750188     -0.019905      2.222882
  B      -0.735051      0.131126      2.244411
  B      -0.019999      0.002768      0.824067
6
Coordinates from ORCA-job B6_trigonal_prism_d3.50_q0_m1_R2SCAN-3C E -148.629646851593
  B       0.754090     -0.016844     -2.223760
  B      -0.737314     -0.073102     -2.244225
  B      -0.011594     -0.024299     -0.822784
  B       0.748208     -0.024350      2.225212
  B      -0.737301      0.132779      2.241561
  B      -0.016089      0.005815      0.823996
6
Coordinates from ORCA-job B6_trigonal_prism_d3.50_q0_m1_R2SCAN-3C E -148.629683641145
  B       0.740649     -0.004456     -2.241794
  B      -0.748155     -0.101304     -2.224288
  B       0.013978     -0.009595     -0.822437
  B       0.733966     -0.054818      2.240899
  B      -0.748509      0.142850      2.224161
  B       0.008072      0.027323      0.823459
6
Coordinates from ORCA-job B6_trigonal_prism_d3.50_q0_m1_R2SCAN-3C E -148.629694729828
  B       0.742388     -0.002233     -2.239702
  B      -0.748161     -0.101935     -2.225494
  B       0.009480     -0.012115     -0.823273
  B       0.733307     -0.055715      2.241943
  B      -0.747014      0.144306      2.224091
  B       0.010000      0.027692      0.822435
6
Coordinates from ORCA-job B6_trigonal_prism_d3.50_q0_m1_R2SCAN-3C E -148.629702164836
  B       0.746791     -0.000494     -2.234618
  B      -0.742796     -0.106943     -2.231814
  B       0.001624     -0.010889     -0.823057
  B       0.737513     -0.061324      2.234262
  B      -0.741585      0.145951      2.232394
  B      -0.001547      0.033700      0.822834
6
Coordinates from ORCA-job B6_trigonal_prism_d3.50_q0_m1_R2SCAN-3C E -148.629712373754
  B       0.745953      0.004715     -2.236061
  B      -0.743322     -0.114814     -2.230350
  B       0.002261     -0.008265     -0.823307
  B       0.735216     -0.069204      2.236260
  B      -0.741200      0.150790      2.230893
  B       0.001092      0.036778      0.822566
6
Coordinates from ORCA-job B6_trigonal_prism_d3.50_q0_m1_R2SCAN-3C E -148.629783335673
  B       0.739315      0.043029     -2.243597
  B      -0.743391     -0.164198     -2.220430
  B       0.007927      0.003127     -0.823785
  B       0.721076     -0.118304      2.243270
  B      -0.736727      0.187557      2.223686
  B       0.011800      0.048790      0.820856
6
Coordinates from ORCA-job B6_trigonal_prism_d3.50_q0_m1_R2SCAN-3C E -148.629906285294
  B       0.728482      0.094965     -2.251496
  B      -0.738817     -0.221469     -2.208595
  B       0.013912      0.010754     -0.824075
  B       0.701451     -0.173672      2.249677
  B      -0.726569      0.238631      2.215779
  B       0.021541      0.050790      0.818710
6
Coordinates from ORCA-job B6_trigonal_prism_d3.50_q0_m1_R2SCAN-3C E -148.630010329496
  B       0.721024      0.131778     -2.254615
  B      -0.734431     -0.248096     -2.203533
  B       0.017004      0.005849     -0.824096
  B       0.690473     -0.196297      2.254854
  B      -0.717308      0.276552      2.210023
  B       0.023239      0.030213      0.817368
6
Coordinates from ORCA-job B6_trigonal_prism_d3.50_q0_m1_R2SCAN-3C E -148.630126558264
  B       0.707052      0.178971     -2.257070
  B      -0.724163     -0.293836     -2.196341
  B       0.018038      0.006866     -0.823881
  B       0.670268     -0.239568      2.259825
  B      -0.702218      0.323431      2.201892
  B       0.031023      0.024136      0.815576
6
Coordinates from ORCA-job B6_trigonal_prism_d3.50_q0_m1_R2SCAN-3C E -148.630252723859
  B       0.689072      0.248478     -2.238566
  B      -0.705689     -0.319370     -2.220057
  B      -0.000098     -0.032512     -0.825741
  B       0.657605     -0.256647      2.273968
  B      -0.676160      0.395811      2.191409
  B       0.035269     -0.035760      0.818987
6
Coordinates from ORCA-job B6_trigonal_prism_d3.50_q0_m1_R2SCAN-3C E -148.630659003301
  B       0.652865      0.310292     -2.239863
  B      -0.681153     -0.392884     -2.206669
  B       0.013426     -0.019776     -0.821131
  B       0.618899     -0.330851      2.276139
  B      -0.644455      0.456574      2.176409
  B       0.040418     -0.023354      0.815115
6
Coordinates from ORCA-job B6_trigonal_prism_d3.50_q0_m1_R2SCAN-3C E -148.631000299013
  B       0.627159      0.352706     -2.239200
  B      -0.654565     -0.438586     -2.209233
  B       0.013521     -0.024687     -0.817519
  B       0.592057     -0.377958      2.272382
  B      -0.615082      0.497291      2.178133
  B       0.036910     -0.008766      0.815438
6
Coordinates from ORCA-job B6_trigonal_prism_d3.50_q0_m1_R2SCAN-3C E -148.631323342480
  B       0.595415      0.399586     -2.239043
  B      -0.614191     -0.490322     -2.219336
  B       0.009864     -0.032054     -0.816021
  B       0.561292     -0.429809      2.263309
  B      -0.574026      0.545554      2.193571
  B       0.021645      0.007045      0.817520
6
Coordinates from ORCA-job B6_trigonal_prism_d3.50_q0_m1_R2SCAN-3C E -148.631417821791
  B       0.556811      0.452222     -2.237686
  B      -0.567273     -0.547014     -2.217491
  B       0.005379     -0.029529     -0.814454
  B       0.519487     -0.480897      2.254653
  B      -0.524014      0.598885      2.199779
  B       0.009609      0.006332      0.815200
6
Coordinates from ORCA-job B6_trigonal_prism_d3.50_q0_m1_R2SCAN-3C E -148.630760949302
  B       0.560893      0.436055     -2.251654
  B      -0.530879     -0.565469     -2.241392
  B      -0.017330     -0.027131     -0.828322
  B       0.522885     -0.500704      2.214201
  B      -0.502898      0.595771      2.269634
  B      -0.032672      0.061479      0.837533
6
Coordinates from ORCA-job B6_trigonal_prism_d3.50_q0_m1_R2SCAN-3C E -148.631488733916
  B       0.554160      0.450546     -2.242321
  B      -0.553096     -0.560337     -2.220449
  B      -0.000852     -0.022452     -0.819186
  B       0.514122     -0.492679      2.241727
  B      -0.514151      0.599416      2.220636
  B      -0.000182      0.025506      0.819594
6
Coordinates from ORCA-job B6_trigonal_prism_d3.50_q0_m1_R2SCAN-3C E -148.631459516052
  B       0.557296      0.441718     -2.250893
  B      -0.564299     -0.549420     -2.214378
  B       0.013780     -0.016317     -0.820907
  B       0.520584     -0.482101      2.247675
  B      -0.523608      0.591804      2.217793
  B      -0.003754      0.014316      0.820711
6
Coordinates from ORCA-job B6_trigonal_prism_d3.50_q0_m1_R2SCAN-3C E -148.631490998270
  B       0.552115      0.450184     -2.246909
  B      -0.553898     -0.559865     -2.216242
  B       0.001183     -0.016799     -0.819500
  B       0.511828     -0.492453      2.246735
  B      -0.515654      0.599343      2.216187
  B       0.004426      0.019590      0.819729
6
Coordinates from ORCA-job B6_trigonal_prism_d3.50_q0_m1_R2SCAN-3C E -148.631483209333
  B       0.553246      0.454066     -2.239057
  B      -0.550940     -0.562637     -2.221464
  B      -0.001163     -0.025176     -0.819084
  B       0.513076     -0.493642      2.239339
  B      -0.510096      0.602529      2.221044
  B      -0.004123      0.024860      0.819223
6
Coordinates from ORCA-job B6_trigonal_prism_d3.50_q0_m1_R2SCAN-3C E -148.631494111935
  B       0.551050      0.453087     -2.244465
  B      -0.551773     -0.562016     -2.217870
  B       0.001175     -0.019566     -0.819512
  B       0.510879     -0.493738      2.244617
  B      -0.512113      0.601892      2.217640
  B       0.000782      0.020341      0.819590
6
Coordinates from ORCA-job B6_trigonal_prism_d3.50_q0_m1_R2SCAN-3C E -148.631494212608
  B       0.550318      0.453932     -2.244299
  B      -0.550922     -0.562808     -2.218127
  B       0.000920     -0.019662     -0.819589
  B       0.510104     -0.494401      2.244793
  B      -0.511142      0.602678      2.217632
  B       0.000722      0.020262      0.819590
6
Coordinates from ORCA-job B6_trigonal_prism_d3.50_q0_m1_R2SCAN-3C E -148.631494235257
  B       0.549768      0.454558     -2.244218
  B      -0.550324     -0.563365     -2.218330
  B       0.000766     -0.019799     -0.819645
  B       0.509521     -0.494896      2.244933
  B      -0.510472      0.603246      2.217634
  B       0.000741      0.020255      0.819626
