6
Coordinates from ORCA-job B6_trigonal_prism_d3.50_q0_m1_R2SCAN-3C E -148.631494235257
  B           0.54976819431832      0.45455846001814     -2.24421800644202
  B          -0.55032351942118     -0.56336453266347     -2.21832969149752
  B           0.00076586678905     -0.01979939407733     -0.81964533728517
  B           0.50952091699049     -0.49489578439882      2.24493325218354
  B          -0.51047218040922      0.60324578597727      2.21763350315293
  B           0.00074072173253      0.02025546514421      0.81962627988823
