6
Coordinates from ORCA-job B6_rectangular_planar_d3.50_q0_m3_R2SCAN-3C E -148.727967374712
  B          -1.61928058205636     -0.91345644633406     -0.00038444256452
  B           0.00016557354451     -0.57492358864300     -0.00003961449403
  B           1.61975836415710     -0.91222479544776      0.00040153437408
  B          -1.42485314681190      0.58553956620040      0.00045786600690
  B          -0.00038453117821      1.22837885046358     -0.00001791510048
  B           1.42459432234487      0.58668641376084     -0.00041742822195
