6
Coordinates from ORCA-job B6_rectangular_planar_d3.50_q0_m3_R2SCAN-3C E -147.873864390747
  B      -3.500000     -1.750000      0.000000
  B       0.000000     -1.750000      0.000000
  B       3.500000     -1.750000      0.000000
  B      -3.500000      1.750000      0.000000
  B       0.000000      1.750000      0.000000
  B       3.500000      1.750000      0.000000
6
Coordinates from ORCA-job B6_rectangular_planar_d3.50_q0_m3_R2SCAN-3C E -147.883787155509
  B      -3.443232     -1.719248      0.000000
  B      -0.000001     -1.715561     -0.000000
  B       3.443230     -1.719246      0.000000
  B      -3.443230      1.719246      0.000000
  B       0.000001      1.715561     -0.000000
  B       3.443232      1.719248      0.000000
6
Coordinates from ORCA-job B6_rectangular_planar_d3.50_q0_m3_R2SCAN-3C E -147.894327590782
  B      -3.385674     -1.688731      0.000000
  B      -0.000002     -1.682018     -0.000000
  B       3.385671     -1.688728      0.000000
  B      -3.385672      1.688729      0.000000
  B       0.000002      1.682016     -0.000000
  B       3.385676      1.688732      0.000000
6
Coordinates from ORCA-job B6_rectangular_planar_d3.50_q0_m3_R2SCAN-3C E -147.911331791046
  B      -3.298369     -1.643212      0.000000
  B      -0.000015     -1.632940     -0.000000
  B       3.298348     -1.643195      0.000000
  B      -3.298351      1.643194      0.000000
  B       0.000014      1.632940     -0.000000
  B       3.298373      1.643213      0.000000
6
Coordinates from ORCA-job B6_rectangular_planar_d3.50_q0_m3_R2SCAN-3C E -147.944582592578
  B      -3.165640     -1.575413     -0.000000
  B      -0.000135     -1.561868      0.000000
  B       3.165464     -1.575263     -0.000000
  B      -3.165472      1.575256     -0.000000
  B       0.000134      1.561873      0.000000
  B       3.165648      1.575415     -0.000000
6
Coordinates from ORCA-job B6_rectangular_planar_d3.50_q0_m3_R2SCAN-3C E -147.977425514377
  B      -3.036747     -1.503981      0.000002
  B      -0.007762     -1.478688     -0.000006
  B       3.043028     -1.497873      0.000004
  B      -3.040748      1.498316      0.000004
  B      -0.009135      1.488534     -0.000006
  B       3.051364      1.493692      0.000002
6
Coordinates from ORCA-job B6_rectangular_planar_d3.50_q0_m3_R2SCAN-3C E -148.016386954608
  B      -2.906191     -1.431335      0.000003
  B      -0.010788     -1.394637     -0.000006
  B       2.914767     -1.420746      0.000004
  B      -2.916004      1.420298      0.000004
  B      -0.012887      1.414470     -0.000006
  B       2.931104      1.411951      0.000003
6
Coordinates from ORCA-job B6_rectangular_planar_d3.50_q0_m3_R2SCAN-3C E -148.045882594550
  B      -2.818851     -1.383143      0.000003
  B      -0.011981     -1.336610     -0.000006
  B       2.828353     -1.371089      0.000004
  B      -2.833018      1.367892      0.000004
  B      -0.014316      1.364572     -0.000006
  B       2.849813      1.358379      0.000003
6
Coordinates from ORCA-job B6_rectangular_planar_d3.50_q0_m3_R2SCAN-3C E -148.095732641534
  B      -2.687862     -1.311233      0.000003
  B      -0.013842     -1.251260     -0.000006
  B       2.698939     -1.297508      0.000004
  B      -2.708697      1.289886      0.000004
  B      -0.016479      1.291085     -0.000006
  B       2.727942      1.279031      0.000003
6
Coordinates from ORCA-job B6_rectangular_planar_d3.50_q0_m3_R2SCAN-3C E -148.153514926945
  B      -2.556777     -1.240253      0.000003
  B      -0.015981     -1.164615     -0.000006
  B       2.569700     -1.225213      0.000003
  B      -2.584939      1.211544      0.000003
  B      -0.018888      1.218818     -0.000006
  B       2.606885      1.199719      0.000003
6
Coordinates from ORCA-job B6_rectangular_planar_d3.50_q0_m3_R2SCAN-3C E -148.218268630409
  B      -2.425816     -1.167978      0.000002
  B      -0.018355     -1.080309     -0.000006
  B       2.441249     -1.152300      0.000003
  B      -2.460546      1.134452      0.000003
  B      -0.021853      1.144265     -0.000006
  B       2.485321      1.121870      0.000002
6
Coordinates from ORCA-job B6_rectangular_planar_d3.50_q0_m3_R2SCAN-3C E -148.287550996325
  B      -2.287577     -1.099080      0.000002
  B      -0.021175     -0.995956     -0.000005
  B       2.306196     -1.083467      0.000003
  B      -2.330548      1.060485      0.000003
  B      -0.025470      1.070431     -0.000006
  B       2.358574      1.047586      0.000002
6
Coordinates from ORCA-job B6_rectangular_planar_d3.50_q0_m3_R2SCAN-3C E -148.380951835626
  B      -2.137179     -1.037063      0.000002
  B      -0.024554     -0.915481     -0.000005
  B       2.159697     -1.022220      0.000003
  B      -2.190548      0.992025      0.000003
  B      -0.029877      1.003405     -0.000006
  B       2.222462      0.979335      0.000003
6
Coordinates from ORCA-job B6_rectangular_planar_d3.50_q0_m3_R2SCAN-3C E -148.485415315363
  B      -1.986905     -0.970896      0.000002
  B      -0.027341     -0.850610     -0.000005
  B       2.011986     -0.956449      0.000003
  B      -2.045403      0.919509      0.000003
  B      -0.033256      0.951003     -0.000005
  B       2.080920      0.907443      0.000002
6
Coordinates from ORCA-job B6_rectangular_planar_d3.50_q0_m3_R2SCAN-3C E -148.574320292188
  B      -1.828922     -0.914202      0.000002
  B      -0.026838     -0.824197     -0.000004
  B       1.854386     -0.906037      0.000003
  B      -1.886324      0.862999      0.000003
  B      -0.033624      0.925165     -0.000005
  B       1.921321      0.856272      0.000002
6
Coordinates from ORCA-job B6_rectangular_planar_d3.50_q0_m3_R2SCAN-3C E -148.635219414484
  B      -1.678916     -0.872687      0.000001
  B      -0.023620     -0.830316     -0.000004
  B       1.700463     -0.876118      0.000003
  B      -1.724906      0.821237      0.000002
  B      -0.033461      0.931238     -0.000004
  B       1.760440      0.826646      0.000001
6
Coordinates from ORCA-job B6_rectangular_planar_d3.50_q0_m3_R2SCAN-3C E -148.690257298618
  B      -1.635160     -0.814449     -0.000014
  B       0.015067     -0.867281     -0.000006
  B       1.610871     -0.846693      0.000020
  B      -1.582029      0.770198      0.000016
  B      -0.019150      0.946263      0.000001
  B       1.610400      0.811962     -0.000017
6
Coordinates from ORCA-job B6_rectangular_planar_d3.50_q0_m3_R2SCAN-3C E -148.691886037634
  B      -1.559052     -0.750341     -0.000024
  B       0.011262     -0.866205     -0.000005
  B       1.527458     -0.772942      0.000028
  B      -1.457425      0.679800      0.000023
  B       0.010853      0.982503      0.000004
  B       1.466904      0.727185     -0.000027
6
Coordinates from ORCA-job B6_rectangular_planar_d3.50_q0_m3_R2SCAN-3C E -148.702406811531
  B      -1.559166     -0.862684     -0.000034
  B      -0.020569     -0.818205     -0.000005
  B       1.540595     -0.778888      0.000035
  B      -1.485068      0.725703      0.000033
  B       0.013856      1.052709      0.000006
  B       1.510350      0.681366     -0.000036
6
Coordinates from ORCA-job B6_rectangular_planar_d3.50_q0_m3_R2SCAN-3C E -148.713350626989
  B      -1.628772     -0.865145     -0.000035
  B      -0.019238     -0.776538     -0.000005
  B       1.594033     -0.828844      0.000039
  B      -1.524491      0.677908      0.000034
  B       0.019482      1.091218      0.000005
  B       1.558987      0.701401     -0.000039
6
Coordinates from ORCA-job B6_rectangular_planar_d3.50_q0_m3_R2SCAN-3C E -148.722680911671
  B      -1.656807     -0.887724     -0.000038
  B      -0.028816     -0.700747     -0.000005
  B       1.596687     -0.853371      0.000044
  B      -1.440487      0.619636      0.000036
  B       0.014684      1.143843      0.000006
  B       1.514740      0.678363     -0.000042
6
Coordinates from ORCA-job B6_rectangular_planar_d3.50_q0_m3_R2SCAN-3C E -148.725874782236
  B      -1.637016     -0.934676     -0.000039
  B      -0.028794     -0.596915     -0.000005
  B       1.538692     -0.882815      0.000045
  B      -1.388033      0.550639      0.000036
  B       0.050591      1.222964      0.000007
  B       1.464560      0.640803     -0.000044
6
Coordinates from ORCA-job B6_rectangular_planar_d3.50_q0_m3_R2SCAN-3C E -148.723442910022
  B      -1.707438     -0.949380     -0.000046
  B       0.010307     -0.549367      0.000000
  B       1.567790     -0.864675      0.000050
  B      -1.360091      0.538290      0.000035
  B       0.016386      1.233844      0.000016
  B       1.473046      0.591287     -0.000055
6
Coordinates from ORCA-job B6_rectangular_planar_d3.50_q0_m3_R2SCAN-3C E -148.726041668823
  B      -1.691262     -0.929814     -0.000049
  B      -0.034401     -0.567394      0.000001
  B       1.631263     -0.888638      0.000053
  B      -1.389577      0.563088      0.000038
  B       0.023990      1.200554      0.000014
  B       1.459987      0.622204     -0.000058
6
Coordinates from ORCA-job B6_rectangular_planar_d3.50_q0_m3_R2SCAN-3C E -148.727145658200
  B      -1.633888     -0.917931     -0.000049
  B      -0.013988     -0.578957     -0.000003
  B       1.586027     -0.909652      0.000056
  B      -1.413628      0.559283      0.000044
  B       0.012596      1.226477      0.000011
  B       1.462881      0.620780     -0.000059
6
Coordinates from ORCA-job B6_rectangular_planar_d3.50_q0_m3_R2SCAN-3C E -148.725790365818
  B      -1.665419     -0.923396     -0.000056
  B       0.021783     -0.599039     -0.000009
  B       1.595676     -0.882828      0.000061
  B      -1.425511      0.580813      0.000058
  B       0.037373      1.213642      0.000002
  B       1.436097      0.610808     -0.000056
6
Coordinates from ORCA-job B6_rectangular_planar_d3.50_q0_m3_R2SCAN-3C E -148.727710496748
  B      -1.652664     -0.926373     -0.000059
  B      -0.000879     -0.578825     -0.000006
  B       1.603459     -0.895138      0.000063
  B      -1.405121      0.572643      0.000059
  B       0.014766      1.227992      0.000003
  B       1.440439      0.599701     -0.000060
6
Coordinates from ORCA-job B6_rectangular_planar_d3.50_q0_m3_R2SCAN-3C E -148.727846806348
  B      -1.629779     -0.917884     -0.000074
  B      -0.007536     -0.575899      0.000013
  B       1.600908     -0.906751      0.000071
  B      -1.415020      0.572464      0.000061
  B       0.008659      1.224470      0.000017
  B       1.442768      0.603601     -0.000087
6
Coordinates from ORCA-job B6_rectangular_planar_d3.50_q0_m3_R2SCAN-3C E -148.727937043572
  B      -1.630338     -0.918491     -0.000080
  B      -0.005220     -0.574811     -0.000030
  B       1.609304     -0.906498      0.000096
  B      -1.414436      0.576126      0.000106
  B       0.006955      1.228302     -0.000015
  B       1.433735      0.595371     -0.000076
6
Coordinates from ORCA-job B6_rectangular_planar_d3.50_q0_m3_R2SCAN-3C E -148.727958498487
  B      -1.625892     -0.916882     -0.000146
  B      -0.001774     -0.574176      0.000130
  B       1.614380     -0.909122      0.000086
  B      -1.419433      0.581158      0.000038
  B       0.003252      1.228303      0.000100
  B       1.429467      0.590719     -0.000208
6
Coordinates from ORCA-job B6_rectangular_planar_d3.50_q0_m3_R2SCAN-3C E -148.727966160620
  B      -1.619611     -0.913303      0.000004
  B      -0.000084     -0.575886     -0.000769
  B       1.620663     -0.911880      0.000351
  B      -1.424470      0.585596      0.000675
  B      -0.000373      1.229344     -0.000557
  B       1.423876      0.586130      0.000297
6
Coordinates from ORCA-job B6_rectangular_planar_d3.50_q0_m3_R2SCAN-3C E -148.727966181073
  B      -1.618413     -0.913372     -0.000761
  B       0.000486     -0.574156      0.002352
  B       1.620102     -0.912740     -0.000329
  B      -1.425311      0.585857     -0.001250
  B      -0.000772      1.228434      0.001714
  B       1.423909      0.585977     -0.001725
6
Coordinates from ORCA-job B6_rectangular_planar_d3.50_q0_m3_R2SCAN-3C E -148.727966227764
  B      -1.618862     -0.913659      0.000151
  B       0.000439     -0.573871     -0.001781
  B       1.619297     -0.912602      0.000665
  B      -1.425168      0.585581      0.001417
  B      -0.000496      1.227852     -0.001304
  B       1.424790      0.586699      0.000851
6
Coordinates from ORCA-job B6_rectangular_planar_d3.50_q0_m3_R2SCAN-3C E -148.727967164864
  B      -1.619706     -0.913364     -0.000282
  B      -0.000031     -0.575677     -0.000039
  B       1.619927     -0.911923      0.000281
  B      -1.424715      0.585534      0.000361
  B      -0.000263      1.228502     -0.000060
  B       1.424788      0.586929     -0.000261
6
Coordinates from ORCA-job B6_rectangular_planar_d3.50_q0_m3_R2SCAN-3C E -148.727967346656
  B      -1.619008     -0.913430     -0.000374
  B       0.000276     -0.574693      0.000156
  B       1.619862     -0.912399      0.000308
  B      -1.424898      0.585560      0.000263
  B      -0.000502      1.228566      0.000141
  B       1.424271      0.586395     -0.000494
6
Coordinates from ORCA-job B6_rectangular_planar_d3.50_q0_m3_R2SCAN-3C E -148.727967374712
  B      -1.619281     -0.913456     -0.000384
  B       0.000166     -0.574924     -0.000040
  B       1.619758     -0.912225      0.000402
  B      -1.424853      0.585540      0.000458
  B      -0.000385      1.228379     -0.000018
  B       1.424594      0.586686     -0.000417
