6
Coordinates from ORCA-job B6_random_3d_seed1000_d1.80_q0_m3_R2SCAN-3C E -148.709707579144
  B           0.77271230362589     -0.64815400552938      1.09885849935236
  B           1.29629657295833      0.18593663964314     -0.11788044139276
  B          -0.12533328858576     -0.76092388625167     -0.27798416734058
  B          -0.67665883218745      0.17103002466596      0.95335654112130
  B           0.07443379184293      0.74048466031572     -1.08381640686682
  B          -1.34145055765393      0.31162655715624     -0.57253402487350
