6
Coordinates from ORCA-job B6_random_3d_seed1000_d1.80_q0_m3_R2SCAN-3C E -148.577627543917
  B       0.550456     -0.570631      1.130656
  B       1.436247     -0.160948     -0.406415
  B      -0.030358     -1.312426     -0.494453
  B      -0.612974      0.643261      0.959974
  B      -0.087418      1.365199     -0.607956
  B      -1.255952      0.035546     -0.581807
6
Coordinates from ORCA-job B6_random_3d_seed1000_d1.80_q0_m3_R2SCAN-3C E -148.599255309733
  B       0.555057     -0.556078      1.104566
  B       1.364860     -0.128259     -0.388181
  B      -0.041747     -1.260748     -0.485388
  B      -0.597205      0.624036      0.943630
  B      -0.058913      1.287155     -0.594801
  B      -1.222053      0.033894     -0.579826
6
Coordinates from ORCA-job B6_random_3d_seed1000_d1.80_q0_m3_R2SCAN-3C E -148.619162709348
  B       0.570475     -0.538412      1.088061
  B       1.291561     -0.092317     -0.358652
  B      -0.061637     -1.207587     -0.485823
  B      -0.571088      0.602016      0.934874
  B      -0.034012      1.202730     -0.587591
  B      -1.195300      0.033570     -0.590868
6
Coordinates from ORCA-job B6_random_3d_seed1000_d1.80_q0_m3_R2SCAN-3C E -148.632240800278
  B       0.585473     -0.517002      1.082784
  B       1.210924     -0.047205     -0.330199
  B      -0.084120     -1.152236     -0.498320
  B      -0.539781      0.580784      0.937419
  B       0.000940      1.106844     -0.584910
  B      -1.173437      0.028815     -0.606773
6
Coordinates from ORCA-job B6_random_3d_seed1000_d1.80_q0_m3_R2SCAN-3C E -148.643626001638
  B       0.602457     -0.533237      1.083206
  B       1.188754      0.013344     -0.237904
  B      -0.108800     -1.049530     -0.535196
  B      -0.491217      0.554956      0.938934
  B       0.009241      0.975702     -0.658599
  B      -1.200434      0.038765     -0.590441
6
Coordinates from ORCA-job B6_random_3d_seed1000_d1.80_q0_m3_R2SCAN-3C E -148.653406712444
  B       0.648151     -0.559141      1.085091
  B       1.216645      0.078901     -0.119513
  B      -0.149243     -0.909253     -0.547678
  B      -0.465328      0.487323      0.928314
  B       0.009730      0.823512     -0.775544
  B      -1.259954      0.078658     -0.570671
6
Coordinates from ORCA-job B6_random_3d_seed1000_d1.80_q0_m3_R2SCAN-3C E -148.670869226698
  B       0.675836     -0.566077      1.109106
  B       1.255750      0.080061     -0.138641
  B      -0.150002     -0.921745     -0.511397
  B      -0.504847      0.449665      0.922888
  B       0.022707      0.847754     -0.801431
  B      -1.299443      0.110343     -0.580524
6
Coordinates from ORCA-job B6_random_3d_seed1000_d1.80_q0_m3_R2SCAN-3C E -148.678093847313
  B       0.718834     -0.570174      1.127885
  B       1.259853      0.152059     -0.174404
  B      -0.189714     -0.912262     -0.447140
  B      -0.569098      0.352138      0.907586
  B       0.117282      0.810264     -0.841656
  B      -1.337156      0.167975     -0.572271
6
Coordinates from ORCA-job B6_random_3d_seed1000_d1.80_q0_m3_R2SCAN-3C E -148.687039876909
  B       0.760577     -0.579880      1.159313
  B       1.350391      0.130901     -0.132068
  B      -0.211940     -0.900704     -0.393421
  B      -0.605285      0.273972      0.875876
  B       0.077411      0.866066     -0.945096
  B      -1.371153      0.209645     -0.564604
6
Coordinates from ORCA-job B6_random_3d_seed1000_d1.80_q0_m3_R2SCAN-3C E -148.692016377479
  B       0.799611     -0.614035      1.171389
  B       1.372631      0.155028     -0.074661
  B      -0.224583     -0.817646     -0.340805
  B      -0.607750      0.190717      0.848514
  B       0.055596      0.825760     -1.043481
  B      -1.395505      0.260175     -0.560955
6
Coordinates from ORCA-job B6_random_3d_seed1000_d1.80_q0_m3_R2SCAN-3C E -148.701715165218
  B       0.783539     -0.623552      1.146440
  B       1.319565      0.159534     -0.074806
  B      -0.188852     -0.794242     -0.362414
  B      -0.591980      0.221014      0.882637
  B       0.045498      0.778528     -1.019427
  B      -1.367770      0.258719     -0.572431
6
Coordinates from ORCA-job B6_random_3d_seed1000_d1.80_q0_m3_R2SCAN-3C E -148.706310729700
  B       0.778204     -0.626423      1.131129
  B       1.260274      0.159647     -0.115561
  B      -0.159753     -0.792509     -0.321238
  B      -0.608522      0.208899      0.907674
  B       0.065047      0.781329     -1.012972
  B      -1.335250      0.269056     -0.589032
6
Coordinates from ORCA-job B6_random_3d_seed1000_d1.80_q0_m3_R2SCAN-3C E -148.708071951554
  B       0.780809     -0.646026      1.123553
  B       1.259227      0.172197     -0.104306
  B      -0.141413     -0.775912     -0.300239
  B      -0.619746      0.195352      0.918452
  B       0.059809      0.763831     -1.049679
  B      -1.338686      0.290558     -0.587782
6
Coordinates from ORCA-job B6_random_3d_seed1000_d1.80_q0_m3_R2SCAN-3C E -148.709385987024
  B       0.778798     -0.659846      1.110715
  B       1.276727      0.191095     -0.108303
  B      -0.126827     -0.770561     -0.279561
  B      -0.652599      0.180872      0.937834
  B       0.069148      0.746673     -1.082344
  B      -1.345246      0.311768     -0.578341
6
Coordinates from ORCA-job B6_random_3d_seed1000_d1.80_q0_m3_R2SCAN-3C E -148.709610950016
  B       0.775632     -0.659467      1.101446
  B       1.287736      0.195374     -0.111595
  B      -0.122639     -0.764895     -0.277284
  B      -0.667942      0.176912      0.948275
  B       0.072347      0.735665     -1.086220
  B      -1.345133      0.316412     -0.574622
6
Coordinates from ORCA-job B6_random_3d_seed1000_d1.80_q0_m3_R2SCAN-3C E -148.709681088227
  B       0.774013     -0.653909      1.098065
  B       1.294253      0.192495     -0.115012
  B      -0.124413     -0.763963     -0.276884
  B      -0.674305      0.174142      0.951186
  B       0.074333      0.736342     -1.084262
  B      -1.343881      0.314894     -0.573093
6
Coordinates from ORCA-job B6_random_3d_seed1000_d1.80_q0_m3_R2SCAN-3C E -148.709703211898
  B       0.772926     -0.649415      1.096828
  B       1.296651      0.188446     -0.116821
  B      -0.125838     -0.762937     -0.277100
  B      -0.676259      0.172600      0.952250
  B       0.074598      0.738900     -1.082365
  B      -1.342078      0.312406     -0.572793
6
Coordinates from ORCA-job B6_random_3d_seed1000_d1.80_q0_m3_R2SCAN-3C E -148.709705566609
  B       0.772718     -0.648622      1.097346
  B       1.296597      0.187151     -0.117170
  B      -0.125944     -0.762411     -0.277391
  B      -0.676135      0.172280      0.952334
  B       0.074393      0.739980     -1.082356
  B      -1.341630      0.311623     -0.572764
6
Coordinates from ORCA-job B6_random_3d_seed1000_d1.80_q0_m3_R2SCAN-3C E -148.709706936011
  B       0.772573     -0.648209      1.098199
  B       1.296369      0.186070     -0.117593
  B      -0.125704     -0.761605     -0.277744
  B      -0.676153      0.171847      0.952625
  B       0.074252      0.740784     -1.082838
  B      -1.341337      0.311113     -0.572649
6
Coordinates from ORCA-job B6_random_3d_seed1000_d1.80_q0_m3_R2SCAN-3C E -148.709707351900
  B       0.772581     -0.648274      1.098556
  B       1.296296      0.185942     -0.117725
  B      -0.125437     -0.761212     -0.277843
  B      -0.676343      0.171553      0.952921
  B       0.074278      0.740746     -1.083351
  B      -1.341375      0.311246     -0.572557
6
Coordinates from ORCA-job B6_random_3d_seed1000_d1.80_q0_m3_R2SCAN-3C E -148.709707516116
  B       0.772651     -0.648245      1.098783
  B       1.296283      0.185926     -0.117845
  B      -0.125324     -0.760998     -0.277948
  B      -0.676544      0.171269      0.953175
  B       0.074363      0.740594     -1.083641
  B      -1.341429      0.311453     -0.572524
6
Coordinates from ORCA-job B6_random_3d_seed1000_d1.80_q0_m3_R2SCAN-3C E -148.709707579144
  B       0.772712     -0.648154      1.098858
  B       1.296297      0.185937     -0.117880
  B      -0.125333     -0.760924     -0.277984
  B      -0.676659      0.171030      0.953357
  B       0.074434      0.740485     -1.083816
  B      -1.341451      0.311627     -0.572534
