6
Coordinates from ORCA-job B6_trigonal_prism_d2.00_q0_m1_R2SCAN-3C E -148.594156673771
  B           0.79521716479386      0.50899082770160     -0.90966920091464
  B          -0.79521848572553      0.50899337197290     -0.90966729009579
  B           0.00000132015663     -1.01798062256039     -0.84683913090074
  B           0.79523678075951      0.50899374883083      0.90966734080503
  B          -0.79523810636671      0.50899628880293      0.90966542854789
  B           0.00000132638224     -1.01799361474787      0.84684285255825
