6
Coordinates from ORCA-job B6_trigonal_prism_d2.00_q0_m1_R2SCAN-3C E -148.473239225589
  B       1.000000      0.577350     -1.000000
  B      -1.000000      0.577350     -1.000000
  B      -0.000000     -1.154701     -1.000000
  B       1.000000      0.577350      1.000000
  B      -1.000000      0.577350      1.000000
  B      -0.000000     -1.154701      1.000000
6
Coordinates from ORCA-job B6_trigonal_prism_d2.00_q0_m1_R2SCAN-3C E -148.505189592222
  B       0.963045      0.570067     -0.975236
  B      -0.963045      0.570067     -0.975236
  B       0.000000     -1.140133     -0.972492
  B       0.963045      0.570067      0.975236
  B      -0.963045      0.570067      0.975236
  B       0.000000     -1.140133      0.972492
6
Coordinates from ORCA-job B6_trigonal_prism_d2.00_q0_m1_R2SCAN-3C E -148.534155587067
  B       0.924407      0.562479     -0.953545
  B      -0.924407      0.562479     -0.953545
  B       0.000000     -1.124958     -0.947079
  B       0.924407      0.562479      0.953545
  B      -0.924407      0.562479      0.953545
  B       0.000000     -1.124958      0.947079
6
Coordinates from ORCA-job B6_trigonal_prism_d2.00_q0_m1_R2SCAN-3C E -148.569658545806
  B       0.865021      0.549662     -0.926196
  B      -0.865021      0.549662     -0.926196
  B       0.000000     -1.099324     -0.912038
  B       0.865021      0.549662      0.926196
  B      -0.865021      0.549662      0.926196
  B       0.000000     -1.099324      0.912038
6
Coordinates from ORCA-job B6_trigonal_prism_d2.00_q0_m1_R2SCAN-3C E -148.592889714615
  B       0.785449      0.520377     -0.894793
  B      -0.785449      0.520377     -0.894793
  B       0.000000     -1.040755     -0.863737
  B       0.785449      0.520377      0.894793
  B      -0.785449      0.520377      0.894793
  B       0.000000     -1.040755      0.863737
6
Coordinates from ORCA-job B6_trigonal_prism_d2.00_q0_m1_R2SCAN-3C E -148.593893599520
  B       0.798730      0.508409     -0.895075
  B      -0.798730      0.508409     -0.895075
  B       0.000000     -1.016818     -0.852620
  B       0.798730      0.508409      0.895075
  B      -0.798730      0.508409      0.895075
  B       0.000000     -1.016818      0.852620
6
Coordinates from ORCA-job B6_trigonal_prism_d2.00_q0_m1_R2SCAN-3C E -148.594095129751
  B       0.795906      0.509354     -0.902600
  B      -0.795906      0.509354     -0.902600
  B       0.000000     -1.018707     -0.852547
  B       0.795906      0.509354      0.902600
  B      -0.795907      0.509354      0.902600
  B       0.000000     -1.018707      0.852547
6
Coordinates from ORCA-job B6_trigonal_prism_d2.00_q0_m1_R2SCAN-3C E -148.594153897519
  B       0.794847      0.509376     -0.908290
  B      -0.794848      0.509376     -0.908289
  B       0.000000     -1.018752     -0.847478
  B       0.794848      0.509376      0.908290
  B      -0.794848      0.509377      0.908289
  B       0.000000     -1.018753      0.847478
6
Coordinates from ORCA-job B6_trigonal_prism_d2.00_q0_m1_R2SCAN-3C E -148.594156636610
  B       0.795177      0.508987     -0.909682
  B      -0.795177      0.508988     -0.909681
  B       0.000001     -1.017975     -0.847007
  B       0.795168      0.508983      0.909682
  B      -0.795169      0.508984      0.909681
  B       0.000001     -1.017967      0.847008
6
Coordinates from ORCA-job B6_trigonal_prism_d2.00_q0_m1_R2SCAN-3C E -148.594156673771
  B       0.795217      0.508991     -0.909669
  B      -0.795218      0.508993     -0.909667
  B       0.000001     -1.017981     -0.846839
  B       0.795237      0.508994      0.909667
  B      -0.795238      0.508996      0.909665
  B       0.000001     -1.017994      0.846843
