6
Coordinates from ORCA-job B6_rectangular_planar_d2.50_q0_m3_R2SCAN-3C E -148.728609378006
  B          -1.60522644876776     -0.89374347162838     -0.21033032721486
  B           0.00055269433671     -0.58577119071951     -0.00282376080148
  B           1.60678179135517     -0.89300415801004      0.20161529361610
  B          -1.41962695594858      0.57590900852470      0.13852023162393
  B          -0.00107638436003      1.21698217530781      0.00585409244560
  B           1.41859530338449      0.57962763652541     -0.13283552966928
