6
Coordinates from ORCA-job B6_rectangular_planar_d2.50_q0_m3_R2SCAN-3C E -148.155783192504
  B      -2.500000     -1.250000      0.000000
  B       0.000000     -1.250000      0.000000
  B       2.500000     -1.250000      0.000000
  B      -2.500000      1.250000      0.000000
  B       0.000000      1.250000      0.000000
  B       2.500000      1.250000      0.000000
6
Coordinates from ORCA-job B6_rectangular_planar_d2.50_q0_m3_R2SCAN-3C E -148.183908446402
  B      -2.441782     -1.219241      0.000000
  B       0.000000     -1.218077     -0.000000
  B       2.441782     -1.219241      0.000000
  B      -2.441782      1.219241      0.000000
  B      -0.000000      1.218077     -0.000000
  B       2.441782      1.219241      0.000000
6
Coordinates from ORCA-job B6_rectangular_planar_d2.50_q0_m3_R2SCAN-3C E -148.213347022096
  B      -2.382691     -1.189010      0.000000
  B      -0.000000     -1.186757     -0.000000
  B       2.382691     -1.189010      0.000000
  B      -2.382691      1.189010      0.000000
  B      -0.000000      1.186757     -0.000000
  B       2.382691      1.189010     -0.000000
6
Coordinates from ORCA-job B6_rectangular_planar_d2.50_q0_m3_R2SCAN-3C E -148.259680129843
  B      -2.292623     -1.144530     -0.000000
  B      -0.000000     -1.140850     -0.000000
  B       2.292623     -1.144530      0.000000
  B      -2.292623      1.144530      0.000000
  B       0.000000      1.140850     -0.000000
  B       2.292623      1.144530     -0.000000
6
Coordinates from ORCA-job B6_rectangular_planar_d2.50_q0_m3_R2SCAN-3C E -148.331623104280
  B      -2.154068     -1.079799      0.000000
  B      -0.000000     -1.075128     -0.000000
  B       2.154068     -1.079799      0.000000
  B      -2.154067      1.079799      0.000000
  B       0.000000      1.075128     -0.000000
  B       2.154067      1.079799      0.000000
6
Coordinates from ORCA-job B6_rectangular_planar_d2.50_q0_m3_R2SCAN-3C E -148.405580749225
  B      -2.004086     -1.016897     -0.000000
  B      -0.000000     -1.012715      0.000000
  B       2.004086     -1.016897     -0.000000
  B      -2.004086      1.016897     -0.000000
  B       0.000000      1.012715      0.000000
  B       2.004086      1.016897     -0.000000
6
Coordinates from ORCA-job B6_rectangular_planar_d2.50_q0_m3_R2SCAN-3C E -148.466409344861
  B      -1.845315     -0.960232      0.000000
  B      -0.000000     -0.969012     -0.000000
  B       1.845315     -0.960232      0.000000
  B      -1.845315      0.960232      0.000000
  B       0.000000      0.969012     -0.000000
  B       1.845315      0.960232      0.000000
6
Coordinates from ORCA-job B6_rectangular_planar_d2.50_q0_m3_R2SCAN-3C E -148.631429472189
  B      -1.685711     -0.900491      0.000001
  B      -0.000000     -0.955003     -0.000002
  B       1.685711     -0.900491      0.000001
  B      -1.685711      0.900491     -0.000001
  B       0.000000      0.955003      0.000002
  B       1.685711      0.900491     -0.000001
6
Coordinates from ORCA-job B6_rectangular_planar_d2.50_q0_m3_R2SCAN-3C E -148.687824014710
  B      -1.589735     -0.820857     -0.028849
  B       0.000000     -0.931539     -0.000002
  B       1.589739     -0.820860      0.028851
  B      -1.589740      0.820860      0.028849
  B      -0.000000      0.931539      0.000002
  B       1.589735      0.820858     -0.028851
6
Coordinates from ORCA-job B6_rectangular_planar_d2.50_q0_m3_R2SCAN-3C E -148.700594640145
  B      -1.587138     -0.741846     -0.030192
  B       0.000002     -0.911550     -0.000002
  B       1.587146     -0.741852      0.030193
  B      -1.587147      0.741852      0.030192
  B      -0.000003      0.911550      0.000002
  B       1.587140      0.741846     -0.030193
6
Coordinates from ORCA-job B6_rectangular_planar_d2.50_q0_m3_R2SCAN-3C E -148.702287074225
  B      -1.555466     -0.760938     -0.034096
  B       0.000006     -0.950250     -0.000002
  B       1.555484     -0.760958      0.034099
  B      -1.555502      0.760942      0.034097
  B      -0.000010      0.950266      0.000002
  B       1.555489      0.760938     -0.034099
6
Coordinates from ORCA-job B6_rectangular_planar_d2.50_q0_m3_R2SCAN-3C E -148.703162013979
  B      -1.581723     -0.762623     -0.066019
  B       0.000036     -0.944662     -0.000003
  B       1.581730     -0.762560      0.066019
  B      -1.581703      0.762672      0.066017
  B       0.000018      0.944608      0.000004
  B       1.581642      0.762564     -0.066017
6
Coordinates from ORCA-job B6_rectangular_planar_d2.50_q0_m3_R2SCAN-3C E -148.704562844116
  B      -1.579325     -0.753672     -0.101802
  B      -0.000055     -0.944984      0.000007
  B       1.579473     -0.754229      0.101845
  B      -1.579565      0.753644      0.101810
  B      -0.000124      0.945140     -0.000003
  B       1.579596      0.754102     -0.101856
6
Coordinates from ORCA-job B6_rectangular_planar_d2.50_q0_m3_R2SCAN-3C E -148.706220399682
  B      -1.575696     -0.752538     -0.138554
  B       0.000265     -0.946151     -0.000070
  B       1.575607     -0.749234      0.138141
  B      -1.575135      0.752973      0.138505
  B       0.000226      0.945456      0.000063
  B       1.574733      0.749495     -0.138085
6
Coordinates from ORCA-job B6_rectangular_planar_d2.50_q0_m3_R2SCAN-3C E -148.707374099449
  B      -1.568630     -0.741353     -0.160145
  B       0.000304     -0.945432      0.000329
  B       1.568621     -0.752569      0.161996
  B      -1.570072      0.740886      0.160281
  B       0.000064      0.946678     -0.000337
  B       1.569713      0.751790     -0.162124
6
Coordinates from ORCA-job B6_rectangular_planar_d2.50_q0_m3_R2SCAN-3C E -148.708798203304
  B      -1.549813     -0.739298     -0.181432
  B      -0.000721     -0.943622     -0.000119
  B       1.551134     -0.742037      0.181668
  B      -1.551483      0.738884      0.181552
  B      -0.001164      0.945068      0.000112
  B       1.552047      0.741005     -0.181781
6
Coordinates from ORCA-job B6_rectangular_planar_d2.50_q0_m3_R2SCAN-3C E -148.710665182198
  B      -1.546540     -0.730338     -0.217696
  B       0.001636     -0.945867     -0.000233
  B       1.545918     -0.733196      0.217934
  B      -1.546001      0.731273      0.217486
  B       0.001099      0.945028      0.000222
  B       1.543887      0.733100     -0.217712
6
Coordinates from ORCA-job B6_rectangular_planar_d2.50_q0_m3_R2SCAN-3C E -148.712929996203
  B      -1.531569     -0.716674     -0.270817
  B      -0.005841     -0.945181     -0.000453
  B       1.539450     -0.719906      0.271109
  B      -1.538304      0.714800      0.271600
  B      -0.007266      0.951054      0.000431
  B       1.543530      0.715906     -0.271870
6
Coordinates from ORCA-job B6_rectangular_planar_d2.50_q0_m3_R2SCAN-3C E -148.714934866587
  B      -1.508052     -0.684229     -0.348795
  B       0.009337     -0.951453     -0.000136
  B       1.502711     -0.685713      0.347405
  B      -1.513225      0.683967      0.348733
  B       0.005292      0.956251      0.000451
  B       1.503937      0.681178     -0.347659
6
Coordinates from ORCA-job B6_rectangular_planar_d2.50_q0_m3_R2SCAN-3C E -148.712313419575
  B      -1.506960     -0.640532     -0.398496
  B      -0.015062     -0.984850     -0.003035
  B       1.528424     -0.648450      0.404283
  B      -1.461304      0.668491      0.385391
  B      -0.007484      0.932975      0.001958
  B       1.462386      0.672365     -0.390102
6
Coordinates from ORCA-job B6_rectangular_planar_d2.50_q0_m3_R2SCAN-3C E -148.715035439506
  B      -1.493086     -0.663623     -0.387910
  B      -0.004681     -0.955036     -0.003385
  B       1.503891     -0.664230      0.389391
  B      -1.504540      0.661490      0.391434
  B      -0.002035      0.963843      0.000198
  B       1.500451      0.657555     -0.389728
6
Coordinates from ORCA-job B6_rectangular_planar_d2.50_q0_m3_R2SCAN-3C E -148.713680197920
  B      -1.515378     -0.674963     -0.358837
  B       0.023661     -0.953377      0.004149
  B       1.495868     -0.683571      0.353722
  B      -1.497057      0.678488      0.357245
  B      -0.019241      0.957982      0.000496
  B       1.512148      0.675442     -0.356775
6
Coordinates from ORCA-job B6_rectangular_planar_d2.50_q0_m3_R2SCAN-3C E -148.715044376315
  B      -1.504173     -0.677690     -0.355593
  B       0.001846     -0.953768      0.004960
  B       1.510121     -0.683956      0.349705
  B      -1.509999      0.679463      0.352884
  B       0.005841      0.956567      0.000633
  B       1.496363      0.679385     -0.352589
6
Coordinates from ORCA-job B6_rectangular_planar_d2.50_q0_m3_R2SCAN-3C E -148.714994655749
  B      -1.501544     -0.665402     -0.383055
  B      -0.001550     -0.955605     -0.015634
  B       1.504708     -0.662668      0.396581
  B      -1.498504      0.663239      0.394840
  B      -0.006779      0.962659     -0.006706
  B       1.503669      0.657778     -0.386026
6
Coordinates from ORCA-job B6_rectangular_planar_d2.50_q0_m3_R2SCAN-3C E -148.715247292121
  B      -1.496316     -0.668365     -0.379206
  B       0.001100     -0.953190      0.011772
  B       1.509947     -0.676168      0.366519
  B      -1.506865      0.671266      0.367515
  B      -0.002603      0.961359      0.012515
  B       1.494737      0.665097     -0.379115
6
Coordinates from ORCA-job B6_rectangular_planar_d2.50_q0_m3_R2SCAN-3C E -148.715031198330
  B      -1.511696     -0.678430     -0.347011
  B       0.006453     -0.951725     -0.027821
  B       1.497875     -0.678848      0.373761
  B      -1.495073      0.671474      0.376391
  B      -0.001666      0.960601     -0.031533
  B       1.504107      0.676927     -0.343787
6
Coordinates from ORCA-job B6_rectangular_planar_d2.50_q0_m3_R2SCAN-3C E -148.715284763411
  B      -1.502544     -0.672246     -0.370756
  B       0.003005     -0.952042     -0.000984
  B       1.508626     -0.676858      0.370359
  B      -1.503866      0.671654      0.371110
  B      -0.002586      0.962494     -0.000118
  B       1.497365      0.666997     -0.369610
6
Coordinates from ORCA-job B6_rectangular_planar_d2.50_q0_m3_R2SCAN-3C E -148.715293280719
  B      -1.500701     -0.671630     -0.372175
  B       0.002860     -0.949779     -0.000504
  B       1.508622     -0.677828      0.371771
  B      -1.502655      0.669488      0.371776
  B      -0.003312      0.964960      0.000538
  B       1.495186      0.664789     -0.371406
6
Coordinates from ORCA-job B6_rectangular_planar_d2.50_q0_m3_R2SCAN-3C E -148.715421558092
  B      -1.493813     -0.671853     -0.381364
  B       0.004271     -0.929568      0.004086
  B       1.515563     -0.689092      0.378042
  B      -1.495023      0.656288      0.374132
  B      -0.008575      0.986496      0.003415
  B       1.477577      0.647729     -0.378310
6
Coordinates from ORCA-job B6_rectangular_planar_d2.50_q0_m3_R2SCAN-3C E -148.715995822938
  B      -1.485701     -0.676963     -0.392313
  B       0.007865     -0.890702      0.009959
  B       1.529965     -0.711964      0.385230
  B      -1.480977      0.635502      0.374104
  B      -0.017490      1.025100      0.006664
  B       1.446339      0.619028     -0.383644
6
Coordinates from ORCA-job B6_rectangular_planar_d2.50_q0_m3_R2SCAN-3C E -148.717429162258
  B      -1.478992     -0.689798     -0.401120
  B       0.012327     -0.833839      0.021239
  B       1.550586     -0.748459      0.383559
  B      -1.461502      0.610678      0.369720
  B      -0.029781      1.074970      0.003096
  B       1.407363      0.586449     -0.376494
6
Coordinates from ORCA-job B6_rectangular_planar_d2.50_q0_m3_R2SCAN-3C E -148.719572160368
  B      -1.493010     -0.713323     -0.387572
  B       0.015202     -0.795423      0.026701
  B       1.568926     -0.777617      0.360669
  B      -1.461591      0.608687      0.352974
  B      -0.033880      1.094817     -0.007874
  B       1.404354      0.582859     -0.344897
6
Coordinates from ORCA-job B6_rectangular_planar_d2.50_q0_m3_R2SCAN-3C E -148.721343999150
  B      -1.495652     -0.730980     -0.384220
  B       0.020587     -0.751774      0.027371
  B       1.581772     -0.802180      0.354770
  B      -1.450187      0.596625      0.343610
  B      -0.038363      1.125774     -0.009545
  B       1.381844      0.562535     -0.331986
6
Coordinates from ORCA-job B6_rectangular_planar_d2.50_q0_m3_R2SCAN-3C E -148.723005795611
  B      -1.519952     -0.749685     -0.383735
  B       0.024343     -0.732028      0.023466
  B       1.596347     -0.807747      0.350460
  B      -1.451675      0.595967      0.342128
  B      -0.032875      1.138485     -0.013867
  B       1.383813      0.555009     -0.318452
6
Coordinates from ORCA-job B6_rectangular_planar_d2.50_q0_m3_R2SCAN-3C E -148.724117630096
  B      -1.531763     -0.767076     -0.376417
  B       0.024697     -0.703788      0.019806
  B       1.603356     -0.821433      0.343751
  B      -1.442691      0.588360      0.333507
  B      -0.032054      1.155791     -0.017411
  B       1.378455      0.548146     -0.303237
6
Coordinates from ORCA-job B6_rectangular_planar_d2.50_q0_m3_R2SCAN-3C E -148.725447708114
  B      -1.550369     -0.793855     -0.359812
  B       0.020992     -0.667635      0.014082
  B       1.609013     -0.838148      0.329828
  B      -1.431607      0.578975      0.314762
  B      -0.027422      1.174994     -0.019559
  B       1.379393      0.545670     -0.279301
6
Coordinates from ORCA-job B6_rectangular_planar_d2.50_q0_m3_R2SCAN-3C E -148.726883691712
  B      -1.569173     -0.829192     -0.327143
  B       0.014410     -0.626070      0.006521
  B       1.610819     -0.859414      0.303949
  B      -1.421681      0.571573      0.277030
  B      -0.019787      1.194313     -0.015208
  B       1.385413      0.548790     -0.245148
6
Coordinates from ORCA-job B6_rectangular_planar_d2.50_q0_m3_R2SCAN-3C E -148.728132242720
  B      -1.592541     -0.869596     -0.271146
  B       0.005990     -0.593754     -0.006103
  B       1.611902     -0.879356      0.262169
  B      -1.418374      0.571587      0.212104
  B      -0.008261      1.210294     -0.001028
  B       1.401284      0.560825     -0.195996
6
Coordinates from ORCA-job B6_rectangular_planar_d2.50_q0_m3_R2SCAN-3C E -148.728539259472
  B      -1.594260     -0.884538     -0.231192
  B       0.003125     -0.585050     -0.002906
  B       1.608628     -0.893552      0.219519
  B      -1.419593      0.574995      0.166626
  B      -0.006187      1.216092     -0.003028
  B       1.408287      0.572053     -0.149019
6
Coordinates from ORCA-job B6_rectangular_planar_d2.50_q0_m3_R2SCAN-3C E -148.728583368880
  B      -1.606041     -0.892213     -0.209644
  B       0.001647     -0.589377     -0.007860
  B       1.612216     -0.891518      0.206317
  B      -1.424131      0.580021      0.138135
  B      -0.001963      1.215387      0.010354
  B       1.418272      0.577700     -0.137301
6
Coordinates from ORCA-job B6_rectangular_planar_d2.50_q0_m3_R2SCAN-3C E -148.728606497450
  B      -1.605097     -0.893769     -0.209924
  B       0.000134     -0.585221     -0.003297
  B       1.609143     -0.893739      0.200587
  B      -1.420371      0.576608      0.139181
  B      -0.001757      1.217539      0.003702
  B       1.417948      0.578583     -0.130248
6
Coordinates from ORCA-job B6_rectangular_planar_d2.50_q0_m3_R2SCAN-3C E -148.728607689889
  B      -1.602639     -0.892818     -0.209904
  B       0.001401     -0.585083     -0.002459
  B       1.608288     -0.894529      0.200736
  B      -1.421257      0.577300      0.138192
  B      -0.002422      1.216886      0.005273
  B       1.416628      0.578245     -0.131838
6
Coordinates from ORCA-job B6_rectangular_planar_d2.50_q0_m3_R2SCAN-3C E -148.728608823867
  B      -1.604081     -0.893215     -0.209908
  B       0.000947     -0.585678     -0.002868
  B       1.608241     -0.893871      0.200886
  B      -1.420723      0.576876      0.138457
  B      -0.001915      1.217113      0.005003
  B       1.417532      0.578775     -0.131570
6
Coordinates from ORCA-job B6_rectangular_planar_d2.50_q0_m3_R2SCAN-3C E -148.728609109922
  B      -1.604552     -0.893466     -0.210030
  B       0.000790     -0.585591     -0.002800
  B       1.607822     -0.893601      0.201056
  B      -1.420361      0.576543      0.138420
  B      -0.001628      1.217084      0.005281
  B       1.417928      0.579031     -0.131927
6
Coordinates from ORCA-job B6_rectangular_planar_d2.50_q0_m3_R2SCAN-3C E -148.728609311208
  B      -1.605721     -0.893930     -0.210344
  B       0.000447     -0.585891     -0.002870
  B       1.606457     -0.892745      0.201712
  B      -1.419290      0.575632      0.138483
  B      -0.000823      1.217039      0.005988
  B       1.418930      0.579896     -0.132968
6
Coordinates from ORCA-job B6_rectangular_planar_d2.50_q0_m3_R2SCAN-3C E -148.728609378006
  B      -1.605226     -0.893743     -0.210330
  B       0.000553     -0.585771     -0.002824
  B       1.606782     -0.893004      0.201615
  B      -1.419627      0.575909      0.138520
  B      -0.001076      1.216982      0.005854
  B       1.418595      0.579628     -0.132836
