6
Coordinates from ORCA-job B6_rhombic_planar_d1.60_q0_m5_R2SCAN-3C E -148.696365803765
  B          -2.10246709014983     -0.64240273301066      0.00000001002914
  B          -0.35061361499343     -0.76537251692597     -0.00000000155869
  B           1.25688933466317     -0.63972454987105     -0.00000001131659
  B          -1.25688933797445      0.63972455234416      0.00000000831792
  B           0.35061361403814      0.76537251547441     -0.00000003241954
  B           2.10246709441640      0.64240273198911      0.00000002694775
