6
Coordinates from ORCA-job B6_rhombic_planar_d1.60_q0_m5_R2SCAN-3C E -148.681320303745
  B      -2.000000     -0.692820      0.000000
  B      -0.400000     -0.692820      0.000000
  B       1.200000     -0.692820      0.000000
  B      -1.200000      0.692820      0.000000
  B       0.400000      0.692820      0.000000
  B       2.000000      0.692820      0.000000
6
Coordinates from ORCA-job B6_rhombic_planar_d1.60_q0_m5_R2SCAN-3C E -148.686406965973
  B      -2.017576     -0.685534      0.000000
  B      -0.398724     -0.703315     -0.000000
  B       1.226822     -0.690249      0.000000
  B      -1.226822      0.690249      0.000000
  B       0.398724      0.703315     -0.000000
  B       2.017576      0.685534      0.000000
6
Coordinates from ORCA-job B6_rhombic_planar_d1.60_q0_m5_R2SCAN-3C E -148.692409638249
  B      -2.055716     -0.663278      0.000000
  B      -0.391397     -0.729083      0.000000
  B       1.286290     -0.678371     -0.000000
  B      -1.286290      0.678371      0.000000
  B       0.391397      0.729083     -0.000000
  B       2.055716      0.663278      0.000000
6
Coordinates from ORCA-job B6_rhombic_planar_d1.60_q0_m5_R2SCAN-3C E -148.693317280253
  B      -2.065930     -0.659056      0.000000
  B      -0.384823     -0.736341     -0.000000
  B       1.288926     -0.673680      0.000000
  B      -1.288926      0.673680     -0.000000
  B       0.384823      0.736341      0.000000
  B       2.065930      0.659056     -0.000000
6
Coordinates from ORCA-job B6_rhombic_planar_d1.60_q0_m5_R2SCAN-3C E -148.696002354442
  B      -2.099070     -0.645838      0.000000
  B      -0.352563     -0.763262      0.000000
  B       1.273260     -0.653828     -0.000000
  B      -1.273260      0.653828     -0.000000
  B       0.352563      0.763262      0.000000
  B       2.099070      0.645838      0.000000
6
Coordinates from ORCA-job B6_rhombic_planar_d1.60_q0_m5_R2SCAN-3C E -148.696245874559
  B      -2.101445     -0.643901      0.000000
  B      -0.346936     -0.766358     -0.000000
  B       1.262681     -0.648229     -0.000000
  B      -1.262681      0.648229     -0.000000
  B       0.346936      0.766358     -0.000000
  B       2.101445      0.643901      0.000000
6
Coordinates from ORCA-job B6_rhombic_planar_d1.60_q0_m5_R2SCAN-3C E -148.696324108729
  B      -2.100091     -0.643356      0.000000
  B      -0.347763     -0.765530     -0.000000
  B       1.258155     -0.644959     -0.000000
  B      -1.258155      0.644959     -0.000000
  B       0.347763      0.765530      0.000000
  B       2.100091      0.643356     -0.000000
6
Coordinates from ORCA-job B6_rhombic_planar_d1.60_q0_m5_R2SCAN-3C E -148.696359098568
  B      -2.099686     -0.642583      0.000000
  B      -0.349698     -0.764804     -0.000000
  B       1.256201     -0.641496     -0.000000
  B      -1.256201      0.641496      0.000000
  B       0.349698      0.764804     -0.000000
  B       2.099686      0.642583      0.000000
6
Coordinates from ORCA-job B6_rhombic_planar_d1.60_q0_m5_R2SCAN-3C E -148.696364048437
  B      -2.100749     -0.642312     -0.000000
  B      -0.350297     -0.765044      0.000000
  B       1.256496     -0.640352      0.000000
  B      -1.256496      0.640352     -0.000000
  B       0.350297      0.765044      0.000000
  B       2.100749      0.642312     -0.000000
6
Coordinates from ORCA-job B6_rhombic_planar_d1.60_q0_m5_R2SCAN-3C E -148.696365600128
  B      -2.101927     -0.642306      0.000000
  B      -0.350595     -0.765330     -0.000000
  B       1.256845     -0.639816     -0.000000
  B      -1.256845      0.639816      0.000000
  B       0.350595      0.765330     -0.000000
  B       2.101927      0.642306      0.000000
6
Coordinates from ORCA-job B6_rhombic_planar_d1.60_q0_m5_R2SCAN-3C E -148.696365779462
  B      -2.102355     -0.642375     -0.000000
  B      -0.350628     -0.765395      0.000000
  B       1.256894     -0.639735      0.000000
  B      -1.256894      0.639735     -0.000000
  B       0.350628      0.765395      0.000000
  B       2.102355      0.642375     -0.000000
6
Coordinates from ORCA-job B6_rhombic_planar_d1.60_q0_m5_R2SCAN-3C E -148.696365803765
  B      -2.102467     -0.642403      0.000000
  B      -0.350614     -0.765373     -0.000000
  B       1.256889     -0.639725     -0.000000
  B      -1.256889      0.639725      0.000000
  B       0.350614      0.765373     -0.000000
  B       2.102467      0.642403      0.000000
