6
Coordinates from ORCA-job B6_random_3d_seed1002_d2.20_q0_m3_R2SCAN-3C E -148.700588970396
  B           0.41841829890698     -0.33612206365825     -1.25359289407502
  B           0.92300794017330      0.69434646759985     -0.09665652297614
  B          -1.02074433349337      0.15271628547715     -0.85834826215283
  B           0.40667662510617     -1.06573861105703      0.20335296850667
  B           0.34080614492260      0.12432181807544      1.31418102935717
  B          -1.06816467561568      0.43047610356284      0.69106367134015
