6
Coordinates from ORCA-job B6_random_3d_seed1002_d2.20_q0_m3_R2SCAN-3C E -148.387572412245
  B       0.563750     -0.632493     -1.380352
  B       1.088002      1.350083     -0.402794
  B      -1.125284      0.688171     -1.020887
  B       0.194142     -1.569912      0.556752
  B       0.663820      0.192308      1.527453
  B      -1.384431     -0.028157      0.719828
6
Coordinates from ORCA-job B6_random_3d_seed1002_d2.20_q0_m3_R2SCAN-3C E -148.419928923667
  B       0.550021     -0.621065     -1.348658
  B       1.068519      1.319385     -0.390930
  B      -1.103252      0.666427     -0.990336
  B       0.193753     -1.526649      0.540933
  B       0.644158      0.184725      1.489623
  B      -1.353200     -0.022823      0.699368
6
Coordinates from ORCA-job B6_random_3d_seed1002_d2.20_q0_m3_R2SCAN-3C E -148.451540403977
  B       0.535734     -0.609485     -1.317964
  B       1.050078      1.289664     -0.380042
  B      -1.081503      0.644090     -0.960447
  B       0.194810     -1.481746      0.526435
  B       0.623163      0.174159      1.452590
  B      -1.322282     -0.016681      0.679429
6
Coordinates from ORCA-job B6_random_3d_seed1002_d2.20_q0_m3_R2SCAN-3C E -148.497228996823
  B       0.512457     -0.590988     -1.274192
  B       1.021293      1.244891     -0.364280
  B      -1.046496      0.611867     -0.922125
  B       0.197104     -1.413230      0.506438
  B       0.589496      0.156273      1.398920
  B      -1.273853     -0.008814      0.655239
6
Coordinates from ORCA-job B6_random_3d_seed1002_d2.20_q0_m3_R2SCAN-3C E -148.559861742452
  B       0.467322     -0.559206     -1.211535
  B       0.975279      1.174061     -0.331898
  B      -0.989988      0.562420     -0.885668
  B       0.203050     -1.310576      0.477262
  B       0.543036      0.131413      1.322609
  B      -1.198699      0.001888      0.629229
6
Coordinates from ORCA-job B6_random_3d_seed1002_d2.20_q0_m3_R2SCAN-3C E -148.611377640484
  B       0.414161     -0.505335     -1.145280
  B       0.929639      1.074478     -0.283383
  B      -0.940261      0.502183     -0.875510
  B       0.212148     -1.206307      0.440462
  B       0.522139      0.121485      1.256086
  B      -1.137826      0.013495      0.607625
6
Coordinates from ORCA-job B6_random_3d_seed1002_d2.20_q0_m3_R2SCAN-3C E -148.645288533141
  B       0.381442     -0.456574     -1.104244
  B       0.866137      0.941990     -0.229221
  B      -0.901575      0.457315     -0.876217
  B       0.251592     -1.136873      0.384602
  B       0.496508      0.140157      1.215860
  B      -1.094104      0.053984      0.609220
6
Coordinates from ORCA-job B6_random_3d_seed1002_d2.20_q0_m3_R2SCAN-3C E -148.666672593640
  B       0.359179     -0.460249     -1.116706
  B       0.802299      0.828663     -0.150170
  B      -0.880746      0.418695     -0.879518
  B       0.311530     -1.101522      0.297165
  B       0.436517      0.186659      1.211209
  B      -1.028780      0.127754      0.638019
6
Coordinates from ORCA-job B6_random_3d_seed1002_d2.20_q0_m3_R2SCAN-3C E -148.683193679739
  B       0.359617     -0.451920     -1.183082
  B       0.797615      0.771182     -0.149865
  B      -0.897960      0.396400     -0.896418
  B       0.359235     -1.081815      0.281182
  B       0.399307      0.187474      1.284197
  B      -1.017815      0.178678      0.663985
6
Coordinates from ORCA-job B6_random_3d_seed1002_d2.20_q0_m3_R2SCAN-3C E -148.692485126528
  B       0.372304     -0.465117     -1.240564
  B       0.829541      0.699158     -0.091867
  B      -0.974636      0.358022     -0.912127
  B       0.423302     -1.027817      0.240474
  B       0.402736      0.182302      1.340408
  B      -1.053247      0.253451      0.663677
6
Coordinates from ORCA-job B6_random_3d_seed1002_d2.20_q0_m3_R2SCAN-3C E -148.696047900042
  B       0.363688     -0.431736     -1.249472
  B       0.844311      0.694625     -0.097914
  B      -0.980057      0.314684     -0.914429
  B       0.431173     -1.039287      0.237555
  B       0.376037      0.172216      1.354807
  B      -1.035152      0.289498      0.669452
6
Coordinates from ORCA-job B6_random_3d_seed1002_d2.20_q0_m3_R2SCAN-3C E -148.698567725633
  B       0.378639     -0.395949     -1.239434
  B       0.864122      0.705339     -0.100520
  B      -1.010487      0.266859     -0.908639
  B       0.433977     -1.066254      0.236732
  B       0.356815      0.148820      1.341816
  B      -1.023067      0.341184      0.670046
6
Coordinates from ORCA-job B6_random_3d_seed1002_d2.20_q0_m3_R2SCAN-3C E -148.699939444070
  B       0.382638     -0.359535     -1.224254
  B       0.892823      0.708251     -0.096137
  B      -1.041057      0.212572     -0.903873
  B       0.440826     -1.078983      0.228982
  B       0.354066      0.122267      1.338465
  B      -1.029297      0.395429      0.656818
6
Coordinates from ORCA-job B6_random_3d_seed1002_d2.20_q0_m3_R2SCAN-3C E -148.700268480032
  B       0.390920     -0.343465     -1.226486
  B       0.908944      0.697385     -0.082025
  B      -1.065069      0.182730     -0.901160
  B       0.445976     -1.073848      0.223464
  B       0.345548      0.113743      1.328285
  B      -1.026320      0.423455      0.657922
6
Coordinates from ORCA-job B6_random_3d_seed1002_d2.20_q0_m3_R2SCAN-3C E -148.700342372365
  B       0.389833     -0.343139     -1.228144
  B       0.912725      0.701395     -0.080398
  B      -1.063422      0.178005     -0.900841
  B       0.439803     -1.072792      0.221975
  B       0.349336      0.113439      1.330698
  B      -1.028275      0.423092      0.656710
6
Coordinates from ORCA-job B6_random_3d_seed1002_d2.20_q0_m3_R2SCAN-3C E -148.700399408322
  B       0.392587     -0.339729     -1.229029
  B       0.917518      0.700208     -0.083119
  B      -1.062049      0.172586     -0.898803
  B       0.431744     -1.068513      0.219928
  B       0.350730      0.114534      1.333017
  B      -1.030530      0.420914      0.658007
6
Coordinates from ORCA-job B6_random_3d_seed1002_d2.20_q0_m3_R2SCAN-3C E -148.700467866979
  B       0.397513     -0.332480     -1.234560
  B       0.924094      0.698715     -0.083330
  B      -1.059263      0.161679     -0.894035
  B       0.416308     -1.063507      0.218972
  B       0.353314      0.117810      1.332894
  B      -1.031966      0.417783      0.660059
6
Coordinates from ORCA-job B6_random_3d_seed1002_d2.20_q0_m3_R2SCAN-3C E -148.700498731383
  B       0.402175     -0.328049     -1.237640
  B       0.926859      0.696099     -0.083547
  B      -1.057023      0.154882     -0.889801
  B       0.407437     -1.061140      0.216277
  B       0.352901      0.121520      1.331532
  B      -1.032348      0.416689      0.663180
6
Coordinates from ORCA-job B6_random_3d_seed1002_d2.20_q0_m3_R2SCAN-3C E -148.700511351707
  B       0.404220     -0.326983     -1.239583
  B       0.926574      0.694545     -0.083888
  B      -1.054909      0.154343     -0.887543
  B       0.405688     -1.061733      0.216065
  B       0.352480      0.123618      1.329625
  B      -1.034053      0.416209      0.665324
6
Coordinates from ORCA-job B6_random_3d_seed1002_d2.20_q0_m3_R2SCAN-3C E -148.700524800488
  B       0.406285     -0.327115     -1.241227
  B       0.926401      0.693589     -0.084642
  B      -1.051355      0.154176     -0.884272
  B       0.405018     -1.063147      0.214477
  B       0.351329      0.125719      1.327036
  B      -1.037679      0.416779      0.668629
6
Coordinates from ORCA-job B6_random_3d_seed1002_d2.20_q0_m3_R2SCAN-3C E -148.700545307798
  B       0.409748     -0.328551     -1.244105
  B       0.926432      0.692731     -0.087229
  B      -1.044075      0.154805     -0.878081
  B       0.404893     -1.065389      0.211830
  B       0.349220      0.128109      1.322619
  B      -1.046218      0.418295      0.674965
6
Coordinates from ORCA-job B6_random_3d_seed1002_d2.20_q0_m3_R2SCAN-3C E -148.700566300832
  B       0.413642     -0.331257     -1.247743
  B       0.926966      0.692521     -0.091023
  B      -1.034039      0.154882     -0.869620
  B       0.405023     -1.066918      0.207844
  B       0.346041      0.129469      1.317575
  B      -1.057633      0.421304      0.682967
6
Coordinates from ORCA-job B6_random_3d_seed1002_d2.20_q0_m3_R2SCAN-3C E -148.700580527796
  B       0.416699     -0.333954     -1.250975
  B       0.927195      0.692993     -0.094780
  B      -1.025487      0.154343     -0.862201
  B       0.405682     -1.067096      0.204679
  B       0.342900      0.128560      1.314016
  B      -1.066989      0.425155      0.689261
6
Coordinates from ORCA-job B6_random_3d_seed1002_d2.20_q0_m3_R2SCAN-3C E -148.700586286632
  B       0.417890     -0.335723     -1.252793
  B       0.926355      0.693579     -0.096634
  B      -1.021236      0.153725     -0.858535
  B       0.406642     -1.066361      0.203245
  B       0.340973      0.126614      1.312907
  B      -1.070623      0.428166      0.691810
6
Coordinates from ORCA-job B6_random_3d_seed1002_d2.20_q0_m3_R2SCAN-3C E -148.700588219087
  B       0.418196     -0.336210     -1.253350
  B       0.924953      0.694085     -0.097014
  B      -1.020528      0.153236     -0.857967
  B       0.406979     -1.065875      0.203188
  B       0.340526      0.125091      1.313343
  B      -1.070127      0.429672      0.691800
6
Coordinates from ORCA-job B6_random_3d_seed1002_d2.20_q0_m3_R2SCAN-3C E -148.700588892213
  B       0.418247     -0.336264     -1.253500
  B       0.923526      0.694353     -0.096793
  B      -1.020723      0.152891     -0.858309
  B       0.406909     -1.065618      0.203347
  B       0.340657      0.124302      1.314058
  B      -1.068615      0.430336      0.691198
6
Coordinates from ORCA-job B6_random_3d_seed1002_d2.20_q0_m3_R2SCAN-3C E -148.700588952200
  B       0.418562     -0.336254     -1.253763
  B       0.923133      0.694385     -0.096868
  B      -1.020319      0.152687     -0.857975
  B       0.406666     -1.065712      0.203213
  B       0.340638      0.124290      1.313987
  B      -1.068680      0.430605      0.691406
6
Coordinates from ORCA-job B6_random_3d_seed1002_d2.20_q0_m3_R2SCAN-3C E -148.700588970396
  B       0.418418     -0.336122     -1.253593
  B       0.923008      0.694346     -0.096657
  B      -1.020744      0.152716     -0.858348
  B       0.406677     -1.065739      0.203353
  B       0.340806      0.124322      1.314181
  B      -1.068165      0.430476      0.691064
