6
Coordinates from ORCA-job B6_random_3d_seed1004_d2.00_q0_m1_R2SCAN-3C E -148.737094192174
  B          -0.75141780463649     -0.98971974960029      0.59952650389277
  B           1.21672232527984      0.64357423674026      0.09119755140268
  B           0.82382877810030     -0.73532812617834      0.82725496606468
  B          -1.33141965064182      0.23156625364920     -0.27802956857657
  B          -0.11482043460599      1.24080995215242     -0.59225138949121
  B           0.15710677650416     -0.39090256676325     -0.64769806329234
