6
Coordinates from ORCA-job B6_random_3d_seed1004_d2.00_q0_m1_R2SCAN-3C E -148.494404742849
  B      -0.604804     -0.546986      1.219639
  B       0.936456      0.852195      0.927503
  B       1.032215     -1.074099      0.424382
  B      -1.388134      0.108956     -0.461785
  B       0.012143      1.360731     -0.833349
  B       0.012122     -0.700797     -1.276390
6
Coordinates from ORCA-job B6_random_3d_seed1004_d2.00_q0_m1_R2SCAN-3C E -148.527331395429
  B      -0.588327     -0.533291      1.188701
  B       0.916230      0.834438      0.900931
  B       0.997884     -1.046471      0.412729
  B      -1.355297      0.100663     -0.449800
  B       0.014279      1.301124     -0.813537
  B       0.015230     -0.656464     -1.239024
6
Coordinates from ORCA-job B6_random_3d_seed1004_d2.00_q0_m1_R2SCAN-3C E -148.558435104894
  B      -0.577580     -0.531531      1.157936
  B       0.903443      0.816106      0.870009
  B       0.966332     -1.014550      0.409511
  B      -1.328136      0.092718     -0.437103
  B       0.019190      1.232041     -0.802745
  B       0.016751     -0.594785     -1.197609
6
Coordinates from ORCA-job B6_random_3d_seed1004_d2.00_q0_m1_R2SCAN-3C E -148.596503974076
  B      -0.574529     -0.539865      1.110461
  B       0.894032      0.786427      0.814445
  B       0.924987     -0.962453      0.412394
  B      -1.296949      0.082529     -0.412354
  B       0.027859      1.124055     -0.792927
  B       0.024600     -0.490694     -1.132019
6
Coordinates from ORCA-job B6_random_3d_seed1004_d2.00_q0_m1_R2SCAN-3C E -148.629438039265
  B      -0.592406     -0.561508      1.006473
  B       0.899000      0.745211      0.687683
  B       0.870034     -0.892270      0.435922
  B      -1.260465      0.078688     -0.363652
  B       0.022382      1.068300     -0.732285
  B       0.061454     -0.438421     -1.034140
6
Coordinates from ORCA-job B6_random_3d_seed1004_d2.00_q0_m1_R2SCAN-3C E -148.658295008355
  B      -0.624250     -0.590579      0.905233
  B       0.910931      0.725716      0.549838
  B       0.826548     -0.860130      0.445228
  B      -1.232364      0.092280     -0.323101
  B      -0.006141      1.103304     -0.660615
  B       0.125276     -0.470591     -0.916584
6
Coordinates from ORCA-job B6_random_3d_seed1004_d2.00_q0_m1_R2SCAN-3C E -148.677891803095
  B      -0.637490     -0.623311      0.886442
  B       0.936422      0.712139      0.482497
  B       0.836541     -0.898698      0.466558
  B      -1.241514      0.141076     -0.343901
  B      -0.076432      1.165427     -0.653549
  B       0.182473     -0.496633     -0.838046
6
Coordinates from ORCA-job B6_random_3d_seed1004_d2.00_q0_m1_R2SCAN-3C E -148.693214182034
  B      -0.653013     -0.662745      0.875810
  B       0.970319      0.708621      0.417763
  B       0.878838     -0.930365      0.533685
  B      -1.256538      0.171175     -0.387009
  B      -0.113708      1.210653     -0.629099
  B       0.174102     -0.497339     -0.811149
6
Coordinates from ORCA-job B6_random_3d_seed1004_d2.00_q0_m1_R2SCAN-3C E -148.707567862251
  B      -0.692060     -0.714557      0.833493
  B       1.022996      0.682265      0.305821
  B       0.894331     -0.920202      0.581139
  B      -1.271065      0.170248     -0.416473
  B      -0.133292      1.246240     -0.589168
  B       0.179090     -0.463994     -0.714812
6
Coordinates from ORCA-job B6_random_3d_seed1004_d2.00_q0_m1_R2SCAN-3C E -148.718248090194
  B      -0.717709     -0.765009      0.792363
  B       1.099516      0.659483      0.244294
  B       0.899833     -0.878139      0.639645
  B      -1.290377      0.156458     -0.431635
  B      -0.140781      1.272610     -0.560592
  B       0.149520     -0.445403     -0.684076
6
Coordinates from ORCA-job B6_random_3d_seed1004_d2.00_q0_m1_R2SCAN-3C E -148.727216322325
  B      -0.749455     -0.822859      0.759437
  B       1.155729      0.647375      0.155225
  B       0.872964     -0.834210      0.701737
  B      -1.300936      0.153977     -0.423541
  B      -0.140283      1.261644     -0.520196
  B       0.161980     -0.405926     -0.672662
6
Coordinates from ORCA-job B6_random_3d_seed1004_d2.00_q0_m1_R2SCAN-3C E -148.732516525178
  B      -0.763645     -0.894236      0.695333
  B       1.222066      0.664050      0.109455
  B       0.839884     -0.776820      0.754522
  B      -1.315041      0.167017     -0.382367
  B      -0.126615      1.256691     -0.511805
  B       0.143352     -0.416701     -0.665137
6
Coordinates from ORCA-job B6_random_3d_seed1004_d2.00_q0_m1_R2SCAN-3C E -148.734556811347
  B      -0.772435     -0.931199      0.666959
  B       1.245318      0.635304      0.072124
  B       0.819672     -0.744602      0.789471
  B      -1.321553      0.180624     -0.357312
  B      -0.142853      1.254762     -0.510913
  B       0.171852     -0.394889     -0.660330
6
Coordinates from ORCA-job B6_random_3d_seed1004_d2.00_q0_m1_R2SCAN-3C E -148.735874640914
  B      -0.767044     -0.962785      0.638633
  B       1.237845      0.639836      0.066715
  B       0.818138     -0.727432      0.807468
  B      -1.324902      0.202133     -0.332856
  B      -0.126736      1.251857     -0.526083
  B       0.162699     -0.403609     -0.653876
6
Coordinates from ORCA-job B6_random_3d_seed1004_d2.00_q0_m1_R2SCAN-3C E -148.736776379336
  B      -0.756725     -0.982917      0.610580
  B       1.222145      0.638383      0.069803
  B       0.818826     -0.726152      0.827707
  B      -1.326313      0.220039     -0.300630
  B      -0.117884      1.251622     -0.557105
  B       0.159949     -0.400976     -0.650356
6
Coordinates from ORCA-job B6_random_3d_seed1004_d2.00_q0_m1_R2SCAN-3C E -148.737009606593
  B      -0.749611     -0.988876      0.597107
  B       1.215378      0.635488      0.078446
  B       0.821079     -0.728731      0.836825
  B      -1.327255      0.228966     -0.282896
  B      -0.117481      1.248908     -0.578533
  B       0.157890     -0.395756     -0.650948
6
Coordinates from ORCA-job B6_random_3d_seed1004_d2.00_q0_m1_R2SCAN-3C E -148.737045399037
  B      -0.748794     -0.989002      0.596843
  B       1.215354      0.636645      0.082177
  B       0.821894     -0.731216      0.836624
  B      -1.329126      0.229597     -0.280259
  B      -0.116672      1.246635     -0.583800
  B       0.157344     -0.392659     -0.651585
6
Coordinates from ORCA-job B6_random_3d_seed1004_d2.00_q0_m1_R2SCAN-3C E -148.737076221174
  B      -0.748644     -0.988655      0.596747
  B       1.216643      0.639397      0.087753
  B       0.823724     -0.733763      0.833411
  B      -1.331403      0.231062     -0.278707
  B      -0.116323      1.242811     -0.589232
  B       0.156003     -0.390852     -0.649972
6
Coordinates from ORCA-job B6_random_3d_seed1004_d2.00_q0_m1_R2SCAN-3C E -148.737089435459
  B      -0.749953     -0.988571      0.598659
  B       1.217387      0.641853      0.089987
  B       0.824246     -0.735429      0.829800
  B      -1.332770      0.231006     -0.279065
  B      -0.115424      1.241014     -0.590982
  B       0.156515     -0.389872     -0.648400
6
Coordinates from ORCA-job B6_random_3d_seed1004_d2.00_q0_m1_R2SCAN-3C E -148.737093352587
  B      -0.750878     -0.989019      0.599152
  B       1.217417      0.643127      0.090863
  B       0.824223     -0.735492      0.827863
  B      -1.332432      0.231389     -0.278808
  B      -0.115134      1.240542     -0.591617
  B       0.156804     -0.390546     -0.647454
6
Coordinates from ORCA-job B6_random_3d_seed1004_d2.00_q0_m1_R2SCAN-3C E -148.737094063038
  B      -0.751259     -0.989439      0.599400
  B       1.217047      0.643425      0.090956
  B       0.823958     -0.735362      0.827454
  B      -1.331876      0.231471     -0.278410
  B      -0.114928      1.240696     -0.591867
  B       0.157058     -0.390791     -0.647532
6
Coordinates from ORCA-job B6_random_3d_seed1004_d2.00_q0_m1_R2SCAN-3C E -148.737094192174
  B      -0.751418     -0.989720      0.599527
  B       1.216722      0.643574      0.091198
  B       0.823829     -0.735328      0.827255
  B      -1.331420      0.231566     -0.278030
  B      -0.114820      1.240810     -0.592251
  B       0.157107     -0.390903     -0.647698
