6
Coordinates from ORCA-job B6_random_3d_seed1004_d3.50_q0_m5_R2SCAN-3C E -148.669768393058
  B          -0.63773529747306     -0.84421988728129      0.63650664735106
  B           0.77497263613424      0.55565239142726      0.35925177640232
  B           0.94963153400008     -0.96327541805157      0.82854758590583
  B          -1.15143260483022      0.40433617206746     -0.18596762610165
  B          -0.02580691418696      1.40679216027093     -0.73253171738845
  B           0.09037065635592     -0.55928541843279     -0.90580667616912
