6
Coordinates from ORCA-job B6_random_3d_seed1004_d3.50_q0_m5_R2SCAN-3C E -147.905145736217
  B      -1.079845     -0.933219      2.178859
  B       1.589944      1.448135      1.663257
  B       1.793444     -1.893962      0.681715
  B      -2.473885      0.147412     -0.799988
  B       0.037298      2.362934     -1.404946
  B       0.133045     -1.131301     -2.318899
6
Coordinates from ORCA-job B6_random_3d_seed1004_d3.50_q0_m5_R2SCAN-3C E -147.914343278217
  B      -1.065055     -0.936952      2.128805
  B       1.574560      1.439650      1.634876
  B       1.770909     -1.868601      0.679599
  B      -2.427348      0.148230     -0.797424
  B       0.035505      2.346878     -1.379098
  B       0.111429     -1.129205     -2.266759
6
Coordinates from ORCA-job B6_random_3d_seed1004_d3.50_q0_m5_R2SCAN-3C E -147.924260347610
  B      -1.049375     -0.943059      2.077068
  B       1.561964      1.432567      1.604693
  B       1.747832     -1.843608      0.681488
  B      -2.382629      0.147893     -0.796844
  B       0.034195      2.331909     -1.352195
  B       0.088014     -1.125702     -2.214210
6
Coordinates from ORCA-job B6_random_3d_seed1004_d3.50_q0_m5_R2SCAN-3C E -147.940550970329
  B      -1.024743     -0.954077      1.999517
  B       1.546397      1.423586      1.558631
  B       1.710239     -1.805029      0.688143
  B      -2.316932      0.143569     -0.797388
  B       0.034160      2.309592     -1.311056
  B       0.050879     -1.117641     -2.137846
6
Coordinates from ORCA-job B6_random_3d_seed1004_d3.50_q0_m5_R2SCAN-3C E -147.966752635734
  B      -0.986400     -0.970009      1.887641
  B       1.525913      1.411865      1.490805
  B       1.649639     -1.746979      0.700711
  B      -2.228170      0.135383     -0.794797
  B       0.036521      2.273737     -1.249720
  B       0.002497     -1.103996     -2.034641
6
Coordinates from ORCA-job B6_random_3d_seed1004_d3.50_q0_m5_R2SCAN-3C E -147.996481344866
  B      -0.945629     -0.984519      1.777385
  B       1.504393      1.402341      1.423084
  B       1.586273     -1.691160      0.712769
  B      -2.140288      0.123390     -0.792843
  B       0.041359      2.238142     -1.187586
  B      -0.046109     -1.088194     -1.932808
6
Coordinates from ORCA-job B6_random_3d_seed1004_d3.50_q0_m5_R2SCAN-3C E -148.020928501729
  B      -0.908875     -0.998140      1.701267
  B       1.490001      1.400774      1.379683
  B       1.535576     -1.656067      0.724022
  B      -2.072683      0.106359     -0.798851
  B       0.047589      2.219756     -1.147307
  B      -0.091608     -1.072683     -1.858813
6
Coordinates from ORCA-job B6_random_3d_seed1004_d3.50_q0_m5_R2SCAN-3C E -148.038571522463
  B      -0.882597     -1.007288      1.651446
  B       1.479861      1.401099      1.351926
  B       1.500614     -1.634360      0.731598
  B      -2.027406      0.093129     -0.803600
  B       0.052846      2.208592     -1.121500
  B      -0.123318     -1.061172     -1.809870
6
Coordinates from ORCA-job B6_random_3d_seed1004_d3.50_q0_m5_R2SCAN-3C E -148.067113920076
  B      -0.842040     -1.019871      1.580299
  B       1.462808      1.402400      1.312062
  B       1.445528     -1.601971      0.740882
  B      -1.957580      0.070738     -0.809666
  B       0.062443      2.190882     -1.084046
  B      -0.171160     -1.042177     -1.739531
6
Coordinates from ORCA-job B6_random_3d_seed1004_d3.50_q0_m5_R2SCAN-3C E -148.107467050235
  B      -0.792748     -1.028893      1.485285
  B       1.433046      1.401944      1.254720
  B       1.373043     -1.557211      0.745839
  B      -1.870228      0.045838     -0.805905
  B       0.077378      2.157789     -1.029694
  B      -0.220491     -1.019467     -1.650245
6
Coordinates from ORCA-job B6_random_3d_seed1004_d3.50_q0_m5_R2SCAN-3C E -148.151909669698
  B      -0.742169     -1.035015      1.389253
  B       1.399156      1.403126      1.197426
  B       1.298752     -1.514281      0.747408
  B      -1.782411      0.019084     -0.798821
  B       0.095222      2.123044     -0.974907
  B      -0.268549     -0.995958     -1.560360
6
Coordinates from ORCA-job B6_random_3d_seed1004_d3.50_q0_m5_R2SCAN-3C E -148.188976940913
  B      -0.699441     -1.041345      1.315735
  B       1.374408      1.406744      1.158661
  B       1.240856     -1.485490      0.750044
  B      -1.715062     -0.004527     -0.796197
  B       0.109536      2.101256     -0.937766
  B      -0.310296     -0.976638     -1.490478
6
Coordinates from ORCA-job B6_random_3d_seed1004_d3.50_q0_m5_R2SCAN-3C E -148.215623549241
  B      -0.670999     -1.044228      1.263004
  B       1.357144      1.409433      1.132149
  B       1.200879     -1.467013      0.750548
  B      -1.672855     -0.018723     -0.790512
  B       0.119179      2.086522     -0.912768
  B      -0.333348     -0.965991     -1.442422
6
Coordinates from ORCA-job B6_random_3d_seed1004_d3.50_q0_m5_R2SCAN-3C E -148.258723634292
  B      -0.628768     -1.047612      1.187371
  B       1.329765      1.413755      1.090702
  B       1.132812     -1.437976      0.745272
  B      -1.610083     -0.039687     -0.774768
  B       0.134199      2.064405     -0.875013
  B      -0.357925     -0.952885     -1.373565
6
Coordinates from ORCA-job B6_random_3d_seed1004_d3.50_q0_m5_R2SCAN-3C E -148.310503357537
  B      -0.579466     -1.047024      1.077422
  B       1.288827      1.417113      1.025024
  B       1.040805     -1.396918      0.732645
  B      -1.517843     -0.068233     -0.747873
  B       0.153600      2.030650     -0.816288
  B      -0.385923     -0.935588     -1.270929
6
Coordinates from ORCA-job B6_random_3d_seed1004_d3.50_q0_m5_R2SCAN-3C E -148.360820698853
  B      -0.557786     -1.028280      0.931143
  B       1.240438      1.401678      0.941037
  B       0.996674     -1.364551      0.734227
  B      -1.464530     -0.046528     -0.706967
  B       0.160699      1.992219     -0.744191
  B      -0.375495     -0.954538     -1.155248
6
Coordinates from ORCA-job B6_random_3d_seed1004_d3.50_q0_m5_R2SCAN-3C E -148.401857268983
  B      -0.547854     -1.003377      0.835546
  B       1.206467      1.394478      0.889535
  B       0.958390     -1.338972      0.720948
  B      -1.435330     -0.035710     -0.662689
  B       0.169726      1.956584     -0.695308
  B      -0.351399     -0.973002     -1.088031
6
Coordinates from ORCA-job B6_random_3d_seed1004_d3.50_q0_m5_R2SCAN-3C E -148.429585120644
  B      -0.550637     -0.986067      0.774391
  B       1.178150      1.392716      0.848798
  B       0.945266     -1.327357      0.709789
  B      -1.416194     -0.035428     -0.639543
  B       0.183783      1.933941     -0.657466
  B      -0.340368     -0.977806     -1.035968
6
Coordinates from ORCA-job B6_random_3d_seed1004_d3.50_q0_m5_R2SCAN-3C E -148.466248635036
  B      -0.581351     -0.944425      0.697204
  B       1.134506      1.387725      0.788971
  B       0.948190     -1.318580      0.683851
  B      -1.413435     -0.023396     -0.597710
  B       0.204979      1.892136     -0.601507
  B      -0.292890     -0.993460     -0.970809
6
Coordinates from ORCA-job B6_random_3d_seed1004_d3.50_q0_m5_R2SCAN-3C E -148.491951535042
  B      -0.582079     -0.883367      0.609380
  B       1.075793      1.337805      0.702444
  B       0.915631     -1.281649      0.657608
  B      -1.337050     -0.003798     -0.559302
  B       0.187616      1.811259     -0.526269
  B      -0.259911     -0.980250     -0.883860
6
Coordinates from ORCA-job B6_random_3d_seed1004_d3.50_q0_m5_R2SCAN-3C E -148.520785043950
  B      -0.591390     -0.805650      0.614466
  B       1.043220      1.234798      0.684354
  B       0.920305     -1.230457      0.646305
  B      -1.309030      0.048577     -0.528535
  B       0.134289      1.720856     -0.517592
  B      -0.197394     -0.968123     -0.898998
6
Coordinates from ORCA-job B6_random_3d_seed1004_d3.50_q0_m5_R2SCAN-3C E -148.549532914597
  B      -0.607104     -0.728505      0.618206
  B       1.007735      1.136642      0.665106
  B       0.928336     -1.172685      0.637440
  B      -1.259751      0.090342     -0.495045
  B       0.085147      1.627858     -0.504191
  B      -0.154364     -0.953652     -0.921517
6
Coordinates from ORCA-job B6_random_3d_seed1004_d3.50_q0_m5_R2SCAN-3C E -148.574166215334
  B      -0.607831     -0.695778      0.648249
  B       0.983642      1.063091      0.658268
  B       0.940816     -1.141267      0.634118
  B      -1.226343      0.154292     -0.494029
  B       0.033223      1.563306     -0.508549
  B      -0.123507     -0.943645     -0.938057
6
Coordinates from ORCA-job B6_random_3d_seed1004_d3.50_q0_m5_R2SCAN-3C E -148.590051600645
  B      -0.604749     -0.681382      0.664048
  B       0.965354      1.012634      0.648731
  B       0.947161     -1.125125      0.631108
  B      -1.200255      0.200136     -0.497003
  B      -0.004181      1.524377     -0.512859
  B      -0.103331     -0.930640     -0.934026
6
Coordinates from ORCA-job B6_random_3d_seed1004_d3.50_q0_m5_R2SCAN-3C E -148.611427877626
  B      -0.603272     -0.661930      0.683489
  B       0.930063      0.926265      0.623428
  B       0.958613     -1.097232      0.626858
  B      -1.165106      0.262743     -0.498478
  B      -0.051385      1.472395     -0.517471
  B      -0.068913     -0.902242     -0.917825
6
Coordinates from ORCA-job B6_random_3d_seed1004_d3.50_q0_m5_R2SCAN-3C E -148.633030748328
  B      -0.604809     -0.646125      0.717023
  B       0.873955      0.789094      0.577842
  B       0.980894     -1.060636      0.622307
  B      -1.143075      0.330170     -0.504060
  B      -0.093849      1.432899     -0.532717
  B      -0.013116     -0.845401     -0.880394
6
Coordinates from ORCA-job B6_random_3d_seed1004_d3.50_q0_m5_R2SCAN-3C E -148.647511469595
  B      -0.614678     -0.628365      0.748429
  B       0.824033      0.670880      0.535646
  B       0.996147     -0.999277      0.612802
  B      -1.155057      0.341392     -0.504927
  B      -0.078227      1.411573     -0.529783
  B       0.027781     -0.796203     -0.862167
6
Coordinates from ORCA-job B6_random_3d_seed1004_d3.50_q0_m5_R2SCAN-3C E -148.653828454411
  B      -0.619679     -0.654264      0.753365
  B       0.795830      0.581060      0.490067
  B       1.009140     -0.991491      0.622842
  B      -1.164742      0.343912     -0.500172
  B      -0.078610      1.471910     -0.562466
  B       0.058060     -0.751127     -0.803636
6
Coordinates from ORCA-job B6_random_3d_seed1004_d3.50_q0_m5_R2SCAN-3C E -148.658819907352
  B      -0.631464     -0.669862      0.750781
  B       0.747844      0.582561      0.431134
  B       1.015018     -0.991427      0.644732
  B      -1.147363      0.331523     -0.470547
  B      -0.046053      1.486287     -0.549405
  B       0.062019     -0.739083     -0.806695
6
Coordinates from ORCA-job B6_random_3d_seed1004_d3.50_q0_m5_R2SCAN-3C E -148.662297222139
  B      -0.640105     -0.694666      0.724543
  B       0.730478      0.578796      0.399763
  B       1.010821     -0.994982      0.663859
  B      -1.110402      0.336525     -0.431805
  B      -0.053518      1.529902     -0.562402
  B       0.062726     -0.755574     -0.793958
6
Coordinates from ORCA-job B6_random_3d_seed1004_d3.50_q0_m5_R2SCAN-3C E -148.664766567215
  B      -0.650223     -0.782121      0.729811
  B       0.697655      0.579747      0.342860
  B       1.011994     -1.007060      0.696385
  B      -1.074988      0.375846     -0.404327
  B      -0.052297      1.596565     -0.591370
  B       0.067860     -0.762978     -0.773358
6
Coordinates from ORCA-job B6_random_3d_seed1004_d3.50_q0_m5_R2SCAN-3C E -148.665516478093
  B      -0.665638     -0.812139      0.693848
  B       0.698985      0.567456      0.314770
  B       0.987174     -0.911249      0.727907
  B      -1.018914      0.377461     -0.342994
  B      -0.040109      1.610492     -0.565950
  B       0.038502     -0.832021     -0.827581
6
Coordinates from ORCA-job B6_random_3d_seed1004_d3.50_q0_m5_R2SCAN-3C E -148.667461385617
  B      -0.657022     -0.789967      0.694691
  B       0.715366      0.586884      0.333211
  B       0.990827     -0.964641      0.724679
  B      -1.050030      0.379147     -0.350741
  B      -0.056585      1.608630     -0.583762
  B       0.057444     -0.820052     -0.818078
6
Coordinates from ORCA-job B6_random_3d_seed1004_d3.50_q0_m5_R2SCAN-3C E -148.667780898270
  B      -0.664820     -0.792533      0.708703
  B       0.713961      0.565893      0.309527
  B       0.992439     -0.972684      0.732825
  B      -1.054638      0.385112     -0.353589
  B      -0.064089      1.609559     -0.583744
  B       0.077146     -0.795346     -0.813722
6
Coordinates from ORCA-job B6_random_3d_seed1004_d3.50_q0_m5_R2SCAN-3C E -148.668130738152
  B      -0.672459     -0.785533      0.700217
  B       0.722672      0.563807      0.306537
  B       0.986361     -0.970044      0.730862
  B      -1.065084      0.384370     -0.336564
  B      -0.065011      1.598004     -0.586636
  B       0.093520     -0.790605     -0.814417
6
Coordinates from ORCA-job B6_random_3d_seed1004_d3.50_q0_m5_R2SCAN-3C E -148.668621849769
  B      -0.673954     -0.793231      0.686284
  B       0.738687      0.565088      0.286333
  B       0.968241     -0.967088      0.750126
  B      -1.077686      0.392133     -0.306482
  B      -0.068933      1.595400     -0.589564
  B       0.113644     -0.792301     -0.826697
6
Coordinates from ORCA-job B6_random_3d_seed1004_d3.50_q0_m5_R2SCAN-3C E -148.668859833575
  B      -0.678854     -0.799308      0.679342
  B       0.753061      0.557367      0.266168
  B       0.955809     -0.969475      0.760799
  B      -1.092535      0.399085     -0.287132
  B      -0.074357      1.587123     -0.595254
  B       0.136875     -0.774791     -0.823923
6
Coordinates from ORCA-job B6_random_3d_seed1004_d3.50_q0_m5_R2SCAN-3C E -148.668931264327
  B      -0.674974     -0.801146      0.675653
  B       0.761829      0.555755      0.262753
  B       0.950042     -0.971044      0.768477
  B      -1.099533      0.401719     -0.282248
  B      -0.077273      1.579449     -0.598270
  B       0.139910     -0.764733     -0.826365
6
Coordinates from ORCA-job B6_random_3d_seed1004_d3.50_q0_m5_R2SCAN-3C E -148.668993911524
  B      -0.673845     -0.805661      0.671371
  B       0.764953      0.555305      0.263265
  B       0.948479     -0.971911      0.773727
  B      -1.103108      0.401614     -0.275237
  B      -0.075399      1.571139     -0.606177
  B       0.138921     -0.750487     -0.826950
6
Coordinates from ORCA-job B6_random_3d_seed1004_d3.50_q0_m5_R2SCAN-3C E -148.669120583061
  B      -0.669041     -0.814373      0.663059
  B       0.773113      0.558704      0.279481
  B       0.949069     -0.970743      0.781701
  B      -1.111614      0.399683     -0.264239
  B      -0.067728      1.544469     -0.626409
  B       0.126202     -0.717740     -0.833594
6
Coordinates from ORCA-job B6_random_3d_seed1004_d3.50_q0_m5_R2SCAN-3C E -148.669298598000
  B      -0.660627     -0.821513      0.651616
  B       0.775385      0.560075      0.302545
  B       0.949830     -0.969974      0.791009
  B      -1.124969      0.400171     -0.243045
  B      -0.055804      1.506553     -0.656188
  B       0.116184     -0.675313     -0.845937
6
Coordinates from ORCA-job B6_random_3d_seed1004_d3.50_q0_m5_R2SCAN-3C E -148.669482631818
  B      -0.654733     -0.830612      0.641717
  B       0.781525      0.563256      0.324747
  B       0.948605     -0.968746      0.800490
  B      -1.138596      0.401557     -0.220736
  B      -0.045246      1.465872     -0.685944
  B       0.108446     -0.631326     -0.860273
6
Coordinates from ORCA-job B6_random_3d_seed1004_d3.50_q0_m5_R2SCAN-3C E -148.669699649330
  B      -0.647069     -0.839669      0.637310
  B       0.781489      0.563938      0.350973
  B       0.948831     -0.965415      0.810272
  B      -1.150310      0.405140     -0.198755
  B      -0.032994      1.425233     -0.716302
  B       0.100053     -0.589226     -0.883498
6
Coordinates from ORCA-job B6_random_3d_seed1004_d3.50_q0_m5_R2SCAN-3C E -148.669740898678
  B      -0.638767     -0.842602      0.634371
  B       0.772774      0.560075      0.364819
  B       0.949207     -0.965344      0.819522
  B      -1.153149      0.407119     -0.182472
  B      -0.025280      1.400411     -0.736813
  B       0.095215     -0.559658     -0.899427
6
Coordinates from ORCA-job B6_random_3d_seed1004_d3.50_q0_m5_R2SCAN-3C E -148.669725570146
  B      -0.640826     -0.840561      0.643722
  B       0.768196      0.554929      0.357076
  B       0.950911     -0.963650      0.819650
  B      -1.146510      0.406043     -0.191796
  B      -0.028228      1.420326     -0.725392
  B       0.096457     -0.577086     -0.903259
6
Coordinates from ORCA-job B6_random_3d_seed1004_d3.50_q0_m5_R2SCAN-3C E -148.669762821167
  B      -0.640953     -0.841806      0.638747
  B       0.773381      0.558435      0.358647
  B       0.949722     -0.964813      0.819668
  B      -1.149640      0.405134     -0.189370
  B      -0.027665      1.412303     -0.728922
  B       0.095155     -0.569254     -0.898771
6
Coordinates from ORCA-job B6_random_3d_seed1004_d3.50_q0_m5_R2SCAN-3C E -148.669765358263
  B      -0.639615     -0.842485      0.638141
  B       0.773998      0.557786      0.359866
  B       0.949096     -0.964490      0.822052
  B      -1.150682      0.404777     -0.187412
  B      -0.026829      1.408725     -0.731279
  B       0.094031     -0.564314     -0.901368
6
Coordinates from ORCA-job B6_random_3d_seed1004_d3.50_q0_m5_R2SCAN-3C E -148.669766933796
  B      -0.638804     -0.843146      0.638144
  B       0.774324      0.556960      0.359950
  B       0.949081     -0.964173      0.824258
  B      -1.150987      0.404106     -0.186990
  B      -0.026149      1.407370     -0.732214
  B       0.092535     -0.561116     -0.903149
6
Coordinates from ORCA-job B6_random_3d_seed1004_d3.50_q0_m5_R2SCAN-3C E -148.669767617224
  B      -0.638272     -0.843418      0.637972
  B       0.775061      0.556103      0.358925
  B       0.948745     -0.963866      0.826449
  B      -1.151168      0.403552     -0.186796
  B      -0.026198      1.407615     -0.731976
  B       0.091831     -0.559986     -0.904574
6
Coordinates from ORCA-job B6_random_3d_seed1004_d3.50_q0_m5_R2SCAN-3C E -148.669767943220
  B      -0.638145     -0.843736      0.637838
  B       0.775133      0.555849      0.358947
  B       0.949190     -0.963632      0.827291
  B      -1.151194      0.403538     -0.186992
  B      -0.025965      1.407433     -0.731966
  B       0.090981     -0.559452     -0.905118
6
Coordinates from ORCA-job B6_random_3d_seed1004_d3.50_q0_m5_R2SCAN-3C E -148.669768233662
  B      -0.637895     -0.843955      0.637324
  B       0.775020      0.555736      0.359188
  B       0.949501     -0.963478      0.827907
  B      -1.151313      0.403809     -0.186693
  B      -0.025786      1.407126     -0.732234
  B       0.090474     -0.559237     -0.905491
6
Coordinates from ORCA-job B6_random_3d_seed1004_d3.50_q0_m5_R2SCAN-3C E -148.669768347011
  B      -0.637637     -0.844348      0.636311
  B       0.774952      0.555568      0.359364
  B       0.949723     -0.963197      0.828929
  B      -1.151461      0.404394     -0.185732
  B      -0.025715      1.406500     -0.732751
  B       0.090138     -0.558918     -0.906121
6
Coordinates from ORCA-job B6_random_3d_seed1004_d3.50_q0_m5_R2SCAN-3C E -148.669768393058
  B      -0.637735     -0.844220      0.636507
  B       0.774973      0.555652      0.359252
  B       0.949632     -0.963275      0.828548
  B      -1.151433      0.404336     -0.185968
  B      -0.025807      1.406792     -0.732532
  B       0.090371     -0.559285     -0.905807
