6
Coordinates from ORCA-job B6_trigonal_prism_d3.00_q0_m3_R2SCAN-3C E -147.990480350178
  B       1.500000      0.866025     -1.500000
  B      -1.500000      0.866025     -1.500000
  B      -0.000000     -1.732051     -1.500000
  B       1.500000      0.866025      1.500000
  B      -1.500000      0.866025      1.500000
  B      -0.000000     -1.732051      1.500000
6
Coordinates from ORCA-job B6_trigonal_prism_d3.00_q0_m3_R2SCAN-3C E -148.018981774897
  B       1.476697      0.852569     -1.468161
  B      -1.476697      0.852569     -1.468161
  B       0.000000     -1.705137     -1.468153
  B       1.476697      0.852569      1.468161
  B      -1.476697      0.852569      1.468161
  B      -0.000000     -1.705137      1.468153
6
Coordinates from ORCA-job B6_trigonal_prism_d3.00_q0_m3_R2SCAN-3C E -148.035810136670
  B       1.446828      0.844734     -1.440443
  B      -1.444178      0.835299     -1.444162
  B      -0.005952     -1.682135     -1.438119
  B       1.447479      0.836011      1.444931
  B      -1.449911      0.845068      1.442087
  B       0.005733     -1.678977      1.435706
6
Coordinates from ORCA-job B6_trigonal_prism_d3.00_q0_m3_R2SCAN-3C E -148.047636568770
  B       1.427266      0.838780     -1.421472
  B      -1.423146      0.824064     -1.427380
  B      -0.009290     -1.666549     -1.417982
  B       1.428628      0.825416      1.428740
  B      -1.432430      0.839585      1.424364
  B       0.008972     -1.661296      1.413730
6
Coordinates from ORCA-job B6_trigonal_prism_d3.00_q0_m3_R2SCAN-3C E -148.066325557737
  B       1.397704      0.829716     -1.393230
  B      -1.391415      0.807296     -1.402304
  B      -0.014132     -1.643100     -1.387719
  B       1.400452      0.809514      1.404527
  B      -1.406338      0.831249      1.397993
  B       0.013728     -1.634676      1.380733
6
Coordinates from ORCA-job B6_trigonal_prism_d3.00_q0_m3_R2SCAN-3C E -148.096684781261
  B       1.353053      0.815947     -1.351427
  B      -1.343448      0.782320     -1.364812
  B      -0.021073     -1.607593     -1.342117
  B       1.358479      0.785379      1.368196
  B      -1.367715      0.818416      1.358747
  B       0.020704     -1.594468      1.331412
6
Coordinates from ORCA-job B6_trigonal_prism_d3.00_q0_m3_R2SCAN-3C E -148.147983650568
  B       1.286178      0.795324     -1.289948
  B      -1.271081      0.744847     -1.308831
  B      -0.031141     -1.552506     -1.273102
  B       1.296220      0.747814      1.313013
  B      -1.311246      0.798295      1.299955
  B       0.031070     -1.533774      1.258913
6
Coordinates from ORCA-job B6_trigonal_prism_d3.00_q0_m3_R2SCAN-3C E -148.208509765715
  B       1.218992      0.773579     -1.226112
  B      -1.197834      0.706306     -1.248687
  B      -0.040259     -1.492748     -1.198939
  B       1.232306      0.708989      1.252652
  B      -1.253907      0.777119      1.237133
  B       0.040703     -1.473245      1.183953
6
Coordinates from ORCA-job B6_trigonal_prism_d3.00_q0_m3_R2SCAN-3C E -148.276389174055
  B       1.152594      0.751884     -1.161568
  B      -1.125540      0.668267     -1.186830
  B      -0.048494     -1.433069     -1.122135
  B       1.169257      0.670968      1.190730
  B      -1.197599      0.756835      1.173014
  B       0.049782     -1.414884      1.106789
6
Coordinates from ORCA-job B6_trigonal_prism_d3.00_q0_m3_R2SCAN-3C E -148.349812866732
  B       1.086196      0.730276     -1.096493
  B      -1.053948      0.630629     -1.124532
  B      -0.056064     -1.373656     -1.043328
  B       1.107124      0.633526      1.128329
  B      -1.141783      0.737299      1.108223
  B       0.058475     -1.358072      1.027801
6
Coordinates from ORCA-job B6_trigonal_prism_d3.00_q0_m3_R2SCAN-3C E -148.427072582038
  B       1.018594      0.708587     -1.031383
  B      -0.983095      0.592596     -1.063900
  B      -0.063815     -1.313826     -0.964675
  B       1.045871      0.596217      1.068102
  B      -1.084935      0.718192      1.043008
  B       0.067380     -1.301766      0.948848
6
Coordinates from ORCA-job B6_trigonal_prism_d3.00_q0_m3_R2SCAN-3C E -148.506062786867
  B       0.945949      0.688432     -0.962443
  B      -0.914248      0.554688     -1.010275
  B      -0.074438     -1.255362     -0.888851
  B       0.983540      0.557399      1.013423
  B      -1.020860      0.700285      0.974957
  B       0.080058     -1.245442      0.873189
6
Coordinates from ORCA-job B6_trigonal_prism_d3.00_q0_m3_R2SCAN-3C E -148.577764332505
  B       0.874636      0.667070     -0.889951
  B      -0.848787      0.517891     -0.954449
  B      -0.084473     -1.196333     -0.812122
  B       0.923560      0.519699      0.956584
  B      -0.957097      0.681162      0.902913
  B       0.092161     -1.189490      0.797024
6
Coordinates from ORCA-job B6_trigonal_prism_d3.00_q0_m3_R2SCAN-3C E -148.629864686960
  B       0.826381      0.635954     -0.810658
  B      -0.808626      0.473205     -0.893248
  B      -0.101325     -1.114124     -0.773364
  B       0.871592      0.475234      0.895529
  B      -0.897757      0.647742      0.817784
  B       0.109736     -1.118011      0.763957
6
Coordinates from ORCA-job B6_trigonal_prism_d3.00_q0_m3_R2SCAN-3C E -148.656355459479
  B       0.820737      0.608842     -0.718438
  B      -0.833887      0.412490     -0.866874
  B      -0.138746     -1.010543     -0.746812
  B       0.870911      0.413165      0.861084
  B      -0.864563      0.607931      0.718574
  B       0.145548     -1.031885      0.752467
6
Coordinates from ORCA-job B6_trigonal_prism_d3.00_q0_m3_R2SCAN-3C E -148.659081137457
  B       0.793750      0.596171     -0.628135
  B      -0.918008      0.428408     -0.906397
  B      -0.157993     -0.983411     -0.693925
  B       0.943909      0.397811      0.886096
  B      -0.836677      0.580193      0.610700
  B       0.175018     -1.019172      0.731660
6
Coordinates from ORCA-job B6_trigonal_prism_d3.00_q0_m3_R2SCAN-3C E -148.663508487339
  B       0.726096      0.559778     -0.633599
  B      -0.956275      0.419090     -0.995146
  B      -0.171026     -0.899476     -0.736416
  B       0.981514      0.359595      0.956627
  B      -0.771783      0.519309      0.601592
  B       0.191475     -0.958296      0.806942
6
Coordinates from ORCA-job B6_trigonal_prism_d3.00_q0_m3_R2SCAN-3C E -148.670282504921
  B       0.743169      0.617092     -0.654548
  B      -0.899928      0.419952     -0.977321
  B      -0.200642     -0.947755     -0.752714
  B       0.975071      0.414178      0.925818
  B      -0.780522      0.529577      0.632227
  B       0.162851     -1.033044      0.826537
6
Coordinates from ORCA-job B6_trigonal_prism_d3.00_q0_m3_R2SCAN-3C E -148.676441261725
  B       0.733210      0.638584     -0.652491
  B      -0.899565      0.462590     -0.978969
  B      -0.188374     -0.991219     -0.717637
  B       0.949036      0.387724      0.909207
  B      -0.780806      0.544895      0.615809
  B       0.186498     -1.042574      0.824082
6
Coordinates from ORCA-job B6_trigonal_prism_d3.00_q0_m3_R2SCAN-3C E -148.681797936609
  B       0.715754      0.667083     -0.634313
  B      -0.887209      0.454889     -0.982667
  B      -0.217869     -0.983962     -0.677895
  B       0.949438      0.357708      0.913248
  B      -0.775943      0.547278      0.568405
  B       0.215829     -1.042997      0.813222
6
Coordinates from ORCA-job B6_trigonal_prism_d3.00_q0_m3_R2SCAN-3C E -148.687560835338
  B       0.701764      0.710149     -0.601528
  B      -0.857543      0.437948     -1.032328
  B      -0.267787     -0.982962     -0.644551
  B       0.926324      0.329252      0.891339
  B      -0.762911      0.560378      0.573173
  B       0.260153     -1.054764      0.813894
6
Coordinates from ORCA-job B6_trigonal_prism_d3.00_q0_m3_R2SCAN-3C E -148.692795907339
  B       0.661744      0.788114     -0.633978
  B      -0.808755      0.435840     -1.055324
  B      -0.332959     -0.985669     -0.608143
  B       0.908040      0.306141      0.924269
  B      -0.738455      0.571238      0.533850
  B       0.310385     -1.115665      0.839325
6
Coordinates from ORCA-job B6_trigonal_prism_d3.00_q0_m3_R2SCAN-3C E -148.695920498017
  B       0.679732      0.824439     -0.601275
  B      -0.830311      0.414220     -1.093582
  B      -0.379589     -0.970976     -0.566355
  B       0.895508      0.326453      0.935643
  B      -0.704695      0.576745      0.499300
  B       0.339355     -1.170880      0.826269
6
Coordinates from ORCA-job B6_trigonal_prism_d3.00_q0_m3_R2SCAN-3C E -148.698520106736
  B       0.702227      0.845566     -0.600053
  B      -0.807476      0.415326     -1.083483
  B      -0.399686     -0.977626     -0.540744
  B       0.844935      0.308345      0.899408
  B      -0.731887      0.621562      0.494169
  B       0.391888     -1.213173      0.830703
6
Coordinates from ORCA-job B6_trigonal_prism_d3.00_q0_m3_R2SCAN-3C E -148.699228496033
  B       0.690074      0.868806     -0.612465
  B      -0.794083      0.421869     -1.088871
  B      -0.395521     -0.983424     -0.510678
  B       0.806007      0.292800      0.889814
  B      -0.718257      0.651248      0.490332
  B       0.411779     -1.251299      0.831868
6
Coordinates from ORCA-job B6_trigonal_prism_d3.00_q0_m3_R2SCAN-3C E -148.699587689425
  B       0.680941      0.865848     -0.613733
  B      -0.792095      0.432626     -1.095748
  B      -0.389351     -0.967562     -0.482135
  B       0.799987      0.268387      0.888871
  B      -0.742956      0.681731      0.468517
  B       0.443474     -1.281029      0.834228
6
Coordinates from ORCA-job B6_trigonal_prism_d3.00_q0_m3_R2SCAN-3C E -148.699920092995
  B       0.691205      0.873270     -0.627793
  B      -0.796360      0.427606     -1.093770
  B      -0.382862     -0.948150     -0.466184
  B       0.776046      0.256050      0.887190
  B      -0.744716      0.691162      0.465289
  B       0.456688     -1.299938      0.835268
6
Coordinates from ORCA-job B6_trigonal_prism_d3.00_q0_m3_R2SCAN-3C E -148.699975535775
  B       0.674991      0.869194     -0.630358
  B      -0.800297      0.432952     -1.093985
  B      -0.360385     -0.920884     -0.451488
  B       0.750959      0.246467      0.873053
  B      -0.735462      0.708751      0.453203
  B       0.470193     -1.336480      0.849576
6
Coordinates from ORCA-job B6_trigonal_prism_d3.00_q0_m3_R2SCAN-3C E -148.700281360808
  B       0.679111      0.870398     -0.635601
  B      -0.801620      0.437727     -1.094494
  B      -0.354738     -0.927520     -0.452542
  B       0.758184      0.241059      0.872462
  B      -0.743527      0.703891      0.459662
  B       0.462590     -1.325555      0.850514
6
Coordinates from ORCA-job B6_trigonal_prism_d3.00_q0_m3_R2SCAN-3C E -148.700355927357
  B       0.675604      0.879831     -0.637465
  B      -0.802445      0.439591     -1.095893
  B      -0.348911     -0.923050     -0.444296
  B       0.757704      0.231022      0.866209
  B      -0.743927      0.705106      0.454196
  B       0.461976     -1.332500      0.857249
6
Coordinates from ORCA-job B6_trigonal_prism_d3.00_q0_m3_R2SCAN-3C E -148.700495865839
  B       0.667464      0.901575     -0.640223
  B      -0.803693      0.445647     -1.099202
  B      -0.339592     -0.915742     -0.434756
  B       0.767089      0.217203      0.851277
  B      -0.740675      0.690246      0.446065
  B       0.449408     -1.338929      0.876840
6
Coordinates from ORCA-job B6_trigonal_prism_d3.00_q0_m3_R2SCAN-3C E -148.700700043135
  B       0.653897      0.941590     -0.637783
  B      -0.805315      0.450678     -1.104949
  B      -0.332920     -0.911744     -0.431623
  B       0.796109      0.203341      0.827684
  B      -0.726594      0.649575      0.437273
  B       0.414823     -1.333439      0.909397
6
Coordinates from ORCA-job B6_trigonal_prism_d3.00_q0_m3_R2SCAN-3C E -148.701020490280
  B       0.640963      0.978165     -0.626881
  B      -0.806540      0.451458     -1.110005
  B      -0.337738     -0.918959     -0.444476
  B       0.836992      0.201589      0.809823
  B      -0.704352      0.596332      0.434189
  B       0.370676     -1.308586      0.937351
6
Coordinates from ORCA-job B6_trigonal_prism_d3.00_q0_m3_R2SCAN-3C E -148.701698644978
  B       0.623497      1.013956     -0.606196
  B      -0.807030      0.449042     -1.118711
  B      -0.359020     -0.932094     -0.467198
  B       0.887197      0.208773      0.800475
  B      -0.667261      0.529165      0.429454
  B       0.322616     -1.268842      0.962175
6
Coordinates from ORCA-job B6_trigonal_prism_d3.00_q0_m3_R2SCAN-3C E -148.702666522863
  B       0.603445      1.020321     -0.578842
  B      -0.807921      0.439526     -1.133890
  B      -0.406028     -0.951245     -0.509078
  B       0.936907      0.238919      0.825484
  B      -0.614743      0.466525      0.433053
  B       0.288340     -1.214045      0.963274
6
Coordinates from ORCA-job B6_trigonal_prism_d3.00_q0_m3_R2SCAN-3C E -148.703601142369
  B       0.586234      1.042846     -0.561188
  B      -0.808676      0.442195     -1.147446
  B      -0.436735     -0.958616     -0.530412
  B       0.979365      0.249383      0.831649
  B      -0.570623      0.386813      0.427675
  B       0.250435     -1.162622      0.979722
6
Coordinates from ORCA-job B6_trigonal_prism_d3.00_q0_m3_R2SCAN-3C E -148.704012598322
  B       0.587865      1.044111     -0.570312
  B      -0.807448      0.457569     -1.157059
  B      -0.472424     -0.973552     -0.557799
  B       1.004952      0.268817      0.860160
  B      -0.541633      0.300631      0.449283
  B       0.228689     -1.097576      0.975727
6
Coordinates from ORCA-job B6_trigonal_prism_d3.00_q0_m3_R2SCAN-3C E -148.704880177478
  B       0.589857      1.041594     -0.587271
  B      -0.807622      0.471172     -1.157623
  B      -0.435531     -0.966763     -0.537509
  B       0.986698      0.244068      0.841961
  B      -0.580931      0.342622      0.452697
  B       0.247529     -1.132692      0.987745
6
Coordinates from ORCA-job B6_trigonal_prism_d3.00_q0_m3_R2SCAN-3C E -148.705353423014
  B       0.557726      1.035119     -0.537104
  B      -0.806067      0.467526     -1.152471
  B      -0.411641     -0.993114     -0.560233
  B       1.039455      0.230680      0.806060
  B      -0.588025      0.355863      0.445196
  B       0.208552     -1.096074      0.998552
6
Coordinates from ORCA-job B6_trigonal_prism_d3.00_q0_m3_R2SCAN-3C E -148.708771467411
  B       0.537776      1.061327     -0.543766
  B      -0.797633      0.491762     -1.160790
  B      -0.387965     -0.990453     -0.553579
  B       1.060962      0.199403      0.774882
  B      -0.591715      0.306449      0.448449
  B       0.178575     -1.068488      1.034803
6
Coordinates from ORCA-job B6_trigonal_prism_d3.00_q0_m3_R2SCAN-3C E -148.709287473860
  B       0.527184      1.065116     -0.546110
  B      -0.786459      0.515759     -1.162132
  B      -0.367687     -0.991057     -0.546457
  B       1.081070      0.183806      0.747516
  B      -0.609184      0.263063      0.457914
  B       0.155076     -1.036686      1.049270
6
Coordinates from ORCA-job B6_trigonal_prism_d3.00_q0_m3_R2SCAN-3C E -148.709257655690
  B       0.531475      1.095192     -0.547529
  B      -0.792920      0.504351     -1.157216
  B      -0.330512     -0.990896     -0.537621
  B       1.066790      0.154571      0.714448
  B      -0.616801      0.291093      0.461406
  B       0.141969     -1.054311      1.066511
6
Coordinates from ORCA-job B6_trigonal_prism_d3.00_q0_m3_R2SCAN-3C E -148.709661925657
  B       0.534505      1.072599     -0.543123
  B      -0.789664      0.502625     -1.160414
  B      -0.355040     -0.985977     -0.539364
  B       1.071019      0.176397      0.735417
  B      -0.619365      0.289745      0.458301
  B       0.158545     -1.055388      1.049183
6
Coordinates from ORCA-job B6_trigonal_prism_d3.00_q0_m3_R2SCAN-3C E -148.709627219707
  B       0.527050      1.073820     -0.537054
  B      -0.787114      0.504676     -1.162147
  B      -0.360413     -0.991382     -0.545560
  B       1.082268      0.177765      0.734821
  B      -0.610948      0.276407      0.458681
  B       0.149157     -1.041286      1.051259
6
Coordinates from ORCA-job B6_trigonal_prism_d3.00_q0_m3_R2SCAN-3C E -148.709704956951
  B       0.532407      1.072808     -0.543862
  B      -0.787601      0.503752     -1.161460
  B      -0.357964     -0.987937     -0.541611
  B       1.073781      0.177962      0.737081
  B      -0.616098      0.283438      0.461950
  B       0.155475     -1.050023      1.047903
6
Coordinates from ORCA-job B6_trigonal_prism_d3.00_q0_m3_R2SCAN-3C E -148.709707206679
  B       0.531347      1.073854     -0.541529
  B      -0.787805      0.502670     -1.162530
  B      -0.357998     -0.987546     -0.541199
  B       1.075053      0.177157      0.735703
  B      -0.615393      0.284140      0.460689
  B       0.154796     -1.050274      1.048866
6
Coordinates from ORCA-job B6_trigonal_prism_d3.00_q0_m3_R2SCAN-3C E -148.709708261795
  B       0.531088      1.073534     -0.541932
  B      -0.787511      0.502830     -1.162369
  B      -0.357848     -0.987665     -0.541330
  B       1.075058      0.177124      0.735941
  B      -0.615407      0.283953      0.461279
  B       0.154619     -1.049777      1.048412
6
Coordinates from ORCA-job B6_trigonal_prism_d3.00_q0_m3_R2SCAN-3C E -148.709708402889
  B       0.531015      1.073632     -0.541913
  B      -0.787437      0.502661     -1.162605
  B      -0.357933     -0.987579     -0.541205
  B       1.075102      0.177102      0.735996
  B      -0.615308      0.283942      0.461538
  B       0.154561     -1.049758      1.048190
6
Coordinates from ORCA-job B6_trigonal_prism_d3.00_q0_m3_R2SCAN-3C E -148.709708441665
  B       0.530847      1.073678     -0.541812
  B      -0.787378      0.502555     -1.162729
  B      -0.357855     -0.987512     -0.541044
  B       1.075155      0.176969      0.735930
  B      -0.615289      0.284113      0.461572
  B       0.154520     -1.049803      1.048083
