6
Coordinates from ORCA-job B6_trigonal_prism_d3.00_q0_m3_R2SCAN-3C E -148.709708441665
  B           0.53084656910444      1.07367814524835     -0.54181220419253
  B          -0.78737797838273      0.50255453098391     -1.16272942598340
  B          -0.35785501933789     -0.98751175810805     -0.54104446720892
  B           1.07515491533724      0.17696928458516      0.73593020340543
  B          -0.61528891692130      0.28411295611920      0.46157245397024
  B           0.15452043020024     -1.04980317882857      1.04808344000918
