6
Coordinates from ORCA-job B6_rectangular_planar_d3.00_q0_m5_R2SCAN-3C E -147.970107119292
  B      -3.000000     -1.500000      0.000000
  B       0.000000     -1.500000      0.000000
  B       3.000000     -1.500000      0.000000
  B      -3.000000      1.500000      0.000000
  B       0.000000      1.500000      0.000000
  B       3.000000      1.500000      0.000000
6
Coordinates from ORCA-job B6_rectangular_planar_d3.00_q0_m5_R2SCAN-3C E -147.986758213592
  B      -2.934244     -1.471667      0.000000
  B       0.000000     -1.480823     -0.000000
  B       2.934244     -1.471667     -0.000000
  B      -2.934244      1.471667      0.000000
  B      -0.000000      1.480823     -0.000000
  B       2.934244      1.471667      0.000000
6
Coordinates from ORCA-job B6_rectangular_planar_d3.00_q0_m5_R2SCAN-3C E -148.004381973742
  B      -2.868078     -1.443751     -0.000000
  B       0.000000     -1.461741      0.000000
  B       2.868078     -1.443751     -0.000000
  B      -2.868078      1.443751     -0.000000
  B      -0.000000      1.461742      0.000000
  B       2.868078      1.443751      0.000000
6
Coordinates from ORCA-job B6_rectangular_planar_d3.00_q0_m5_R2SCAN-3C E -148.032755687894
  B      -2.768191     -1.402592      0.000000
  B       0.000000     -1.433097     -0.000000
  B       2.768191     -1.402592      0.000000
  B      -2.768191      1.402592      0.000000
  B      -0.000000      1.433097     -0.000000
  B       2.768191      1.402592      0.000000
6
Coordinates from ORCA-job B6_rectangular_planar_d3.00_q0_m5_R2SCAN-3C E -148.079901249886
  B      -2.617057     -1.342315     -0.000000
  B       0.000000     -1.390201      0.000000
  B       2.617057     -1.342315     -0.000000
  B      -2.617057      1.342315      0.000000
  B      -0.000000      1.390201     -0.000000
  B       2.617057      1.342315      0.000000
6
Coordinates from ORCA-job B6_rectangular_planar_d3.00_q0_m5_R2SCAN-3C E -148.134721120342
  B      -2.458818     -1.281223     -0.000000
  B       0.000000     -1.346663      0.000000
  B       2.458818     -1.281223     -0.000000
  B      -2.458818      1.281223     -0.000000
  B      -0.000000      1.346663     -0.000000
  B       2.458818      1.281223      0.000000
6
Coordinates from ORCA-job B6_rectangular_planar_d3.00_q0_m5_R2SCAN-3C E -148.194923605431
  B      -2.299420     -1.220905      0.000000
  B       0.000000     -1.304965      0.000000
  B       2.299420     -1.220905     -0.000000
  B      -2.299420      1.220905     -0.000000
  B      -0.000000      1.304965      0.000000
  B       2.299420      1.220905      0.000000
6
Coordinates from ORCA-job B6_rectangular_planar_d3.00_q0_m5_R2SCAN-3C E -148.257707933270
  B      -2.139651     -1.160215     -0.000000
  B       0.000000     -1.265645      0.000000
  B       2.139651     -1.160215     -0.000000
  B      -2.139651      1.160215     -0.000000
  B      -0.000000      1.265645     -0.000000
  B       2.139651      1.160215      0.000000
6
Coordinates from ORCA-job B6_rectangular_planar_d3.00_q0_m5_R2SCAN-3C E -148.318591800074
  B      -1.980536     -1.097214     -0.000000
  B       0.000000     -1.228088      0.000000
  B       1.980536     -1.097214     -0.000000
  B      -1.980536      1.097213      0.000000
  B      -0.000000      1.228088     -0.000000
  B       1.980536      1.097213      0.000000
6
Coordinates from ORCA-job B6_rectangular_planar_d3.00_q0_m5_R2SCAN-3C E -148.470649878603
  B      -1.829296     -1.022664     -0.000001
  B       0.000000     -1.196621      0.000002
  B       1.829296     -1.022664     -0.000001
  B      -1.829206      1.022472      0.000001
  B      -0.000000      1.197004     -0.000002
  B       1.829206      1.022472      0.000001
6
Coordinates from ORCA-job B6_rectangular_planar_d3.00_q0_m5_R2SCAN-3C E -148.544019945467
  B      -1.677357     -0.946106     -0.000006
  B       0.000001     -1.171476      0.000012
  B       1.677356     -0.946106     -0.000006
  B      -1.677248      0.945941     -0.000004
  B       0.000001      1.171805      0.000008
  B       1.677247      0.945942     -0.000004
6
Coordinates from ORCA-job B6_rectangular_planar_d3.00_q0_m5_R2SCAN-3C E -148.596018253241
  B      -1.615431     -0.871293     -0.000006
  B      -0.000000     -1.150717      0.000010
  B       1.615431     -0.871295     -0.000006
  B      -1.615372      0.871217      0.000002
  B      -0.000001      1.150871     -0.000003
  B       1.615372      0.871218      0.000002
6
Coordinates from ORCA-job B6_rectangular_planar_d3.00_q0_m5_R2SCAN-3C E -148.617619589989
  B      -1.621769     -0.790710     -0.000010
  B      -0.000001     -1.125232      0.000020
  B       1.621760     -0.790706     -0.000011
  B      -1.621699      0.790637      0.000000
  B       0.000016      1.125363      0.000001
  B       1.621692      0.790647      0.000000
6
Coordinates from ORCA-job B6_rectangular_planar_d3.00_q0_m5_R2SCAN-3C E -148.618108556482
  B      -1.592550     -0.779943      0.000018
  B      -0.000067     -1.076392     -0.000038
  B       1.592598     -0.779909      0.000017
  B      -1.592303      0.779885      0.000031
  B      -0.000108      1.076497     -0.000060
  B       1.592431      0.779862      0.000031
6
Coordinates from ORCA-job B6_rectangular_planar_d3.00_q0_m5_R2SCAN-3C E -148.619010796994
  B      -1.624695     -0.781890     -0.000008
  B       0.000535     -1.041874      0.000015
  B       1.624166     -0.781992     -0.000008
  B      -1.624911      0.781604     -0.000000
  B       0.000721      1.042417      0.000002
  B       1.624183      0.781734     -0.000000
6
Coordinates from ORCA-job B6_rectangular_planar_d3.00_q0_m5_R2SCAN-3C E -148.618856128416
  B      -1.622070     -0.786086      0.000018
  B      -0.008034     -1.036686     -0.000036
  B       1.629916     -0.784446      0.000017
  B      -1.619063      0.786818      0.000025
  B      -0.009226      1.035231     -0.000049
  B       1.628477      0.785169      0.000025
6
Coordinates from ORCA-job B6_rectangular_planar_d3.00_q0_m5_R2SCAN-3C E -148.618766164539
  B      -1.628174     -0.791227      0.000052
  B       0.005912     -1.027275     -0.000103
  B       1.622060     -0.790648      0.000050
  B      -1.625057      0.791780      0.000058
  B       0.004996      1.026147     -0.000114
  B       1.620264      0.791223      0.000057
6
Coordinates from ORCA-job B6_rectangular_planar_d3.00_q0_m5_R2SCAN-3C E -148.618903178345
  B      -1.620479     -0.779860     -0.000020
  B      -0.000902     -1.027419      0.000042
  B       1.622017     -0.786723     -0.000022
  B      -1.633039      0.774721     -0.000017
  B       0.004786      1.037567      0.000034
  B       1.627616      0.781713     -0.000018
6
Coordinates from ORCA-job B6_rectangular_planar_d3.00_q0_m5_R2SCAN-3C E -148.617913662600
  B      -1.643531     -0.786933     -0.000041
  B       0.007591     -1.046533      0.000085
  B       1.633467     -0.757313     -0.000042
  B      -1.609876      0.797740     -0.000038
  B      -0.007785      1.024987      0.000077
  B       1.620135      0.768052     -0.000041
6
Coordinates from ORCA-job B6_rectangular_planar_d3.00_q0_m5_R2SCAN-3C E -148.618863535347
  B      -1.632171     -0.779309      0.000004
  B      -0.000074     -1.038189     -0.000004
  B       1.631421     -0.788854      0.000003
  B      -1.614968      0.785021      0.000007
  B      -0.005665      1.026565     -0.000015
  B       1.621458      0.794766      0.000005
6
Coordinates from ORCA-job B6_rectangular_planar_d3.00_q0_m5_R2SCAN-3C E -148.618834430839
  B      -1.614490     -0.793970      0.000005
  B      -0.002643     -1.021131     -0.000006
  B       1.620394     -0.789030      0.000003
  B      -1.635838      0.784030      0.000008
  B       0.005030      1.042680     -0.000017
  B       1.627547      0.777420      0.000006
6
Coordinates from ORCA-job B6_rectangular_planar_d3.00_q0_m5_R2SCAN-3C E -148.619011299234
  B      -1.628134     -0.782304     -0.000008
  B       0.004259     -1.028269      0.000020
  B       1.625519     -0.785473     -0.000009
  B      -1.625782      0.779170     -0.000006
  B       0.000890      1.036322      0.000010
  B       1.623247      0.780552     -0.000008
6
Coordinates from ORCA-job B6_rectangular_planar_d3.00_q0_m5_R2SCAN-3C E -148.618914124775
  B      -1.632381     -0.783773     -0.000001
  B      -0.005033     -1.034373      0.000007
  B       1.639700     -0.783048     -0.000002
  B      -1.616932      0.787452      0.000002
  B       0.001544      1.027917     -0.000004
  B       1.613103      0.785825     -0.000001
6
Coordinates from ORCA-job B6_rectangular_planar_d3.00_q0_m5_R2SCAN-3C E -148.618918592900
  B      -1.627237     -0.792679      0.000008
  B       0.000369     -1.021598     -0.000011
  B       1.627037     -0.791349      0.000006
  B      -1.618962      0.784799      0.000010
  B      -0.008883      1.038558     -0.000021
  B       1.627676      0.782269      0.000008
6
Coordinates from ORCA-job B6_rectangular_planar_d3.00_q0_m5_R2SCAN-3C E -148.619041279765
  B      -1.628480     -0.787505     -0.000002
  B       0.004286     -1.018070      0.000010
  B       1.627239     -0.789636     -0.000004
  B      -1.625577      0.775566     -0.000002
  B       0.001812      1.044729      0.000002
  B       1.620719      0.774917     -0.000004
6
Coordinates from ORCA-job B6_rectangular_planar_d3.00_q0_m5_R2SCAN-3C E -148.619193931939
  B      -1.634726     -0.790297     -0.000003
  B       0.000990     -1.015320      0.000012
  B       1.637154     -0.791463     -0.000005
  B      -1.617080      0.777065     -0.000003
  B       0.000099      1.044757      0.000004
  B       1.613562      0.775257     -0.000005
6
Coordinates from ORCA-job B6_rectangular_planar_d3.00_q0_m5_R2SCAN-3C E -148.619718723607
  B      -1.648413     -0.800866     -0.000002
  B      -0.002724     -0.998253      0.000011
  B       1.656481     -0.801247     -0.000004
  B      -1.598344      0.773367     -0.000002
  B      -0.003898      1.058252      0.000003
  B       1.596898      0.768748     -0.000005
6
Coordinates from ORCA-job B6_rectangular_planar_d3.00_q0_m5_R2SCAN-3C E -148.620841649420
  B      -1.661826     -0.811337     -0.000001
  B      -0.004935     -0.974447      0.000008
  B       1.674344     -0.811267     -0.000003
  B      -1.583015      0.765142     -0.000001
  B      -0.005361      1.073882      0.000001
  B       1.580793      0.758028     -0.000003
6
Coordinates from ORCA-job B6_rectangular_planar_d3.00_q0_m5_R2SCAN-3C E -148.622705514998
  B      -1.673766     -0.822550     -0.000000
  B      -0.006422     -0.945851      0.000006
  B       1.689646     -0.821681     -0.000002
  B      -1.569492      0.754540     -0.000000
  B      -0.006083      1.090534     -0.000001
  B       1.566118      0.745009     -0.000003
6
Coordinates from ORCA-job B6_rectangular_planar_d3.00_q0_m5_R2SCAN-3C E -148.625300646202
  B      -1.684082     -0.833920      0.000000
  B      -0.007612     -0.914428      0.000005
  B       1.702830     -0.831953     -0.000002
  B      -1.556718      0.742678      0.000000
  B      -0.006427      1.106957     -0.000002
  B       1.552009      0.730667     -0.000002
6
Coordinates from ORCA-job B6_rectangular_planar_d3.00_q0_m5_R2SCAN-3C E -148.628619893586
  B      -1.692581     -0.845305      0.000001
  B      -0.008810     -0.881098      0.000004
  B       1.714366     -0.841843     -0.000001
  B      -1.544391      0.730315      0.000001
  B      -0.006620      1.122668     -0.000002
  B       1.538036      0.715263     -0.000001
6
Coordinates from ORCA-job B6_rectangular_planar_d3.00_q0_m5_R2SCAN-3C E -148.632739059004
  B      -1.698686     -0.856861      0.000001
  B      -0.010303     -0.846365      0.000003
  B       1.724516     -0.851341     -0.000001
  B      -1.532474      0.718132      0.000001
  B      -0.006813      1.137738     -0.000003
  B       1.523760      0.698697     -0.000001
6
Coordinates from ORCA-job B6_rectangular_planar_d3.00_q0_m5_R2SCAN-3C E -148.637893479052
  B      -1.700739     -0.869362      0.000002
  B      -0.012389     -0.810624      0.000002
  B       1.732990     -0.860967     -0.000001
  B      -1.520820      0.707296      0.000001
  B      -0.007166      1.152950     -0.000003
  B       1.508125      0.680707     -0.000001
6
Coordinates from ORCA-job B6_rectangular_planar_d3.00_q0_m5_R2SCAN-3C E -148.644292613820
  B      -1.696995     -0.883684      0.000002
  B      -0.014740     -0.774284      0.000002
  B       1.738154     -0.872243     -0.000001
  B      -1.508455      0.698471      0.000001
  B      -0.007628      1.169480     -0.000003
  B       1.489664      0.662261     -0.000001
6
Coordinates from ORCA-job B6_rectangular_planar_d3.00_q0_m5_R2SCAN-3C E -148.655858582791
  B      -1.684982     -0.907391      0.000002
  B      -0.018443     -0.721119      0.000002
  B       1.740504     -0.892044     -0.000001
  B      -1.486013      0.688528      0.000001
  B      -0.008572      1.194177     -0.000003
  B       1.457505      0.637849     -0.000001
6
Coordinates from ORCA-job B6_rectangular_planar_d3.00_q0_m5_R2SCAN-3C E -148.673223719437
  B      -1.660537     -0.944418      0.000001
  B      -0.023160     -0.640354      0.000004
  B       1.732682     -0.926193     -0.000001
  B      -1.445692      0.672384     -0.000000
  B      -0.010132      1.230482     -0.000001
  B       1.406839      0.608098     -0.000002
6
Coordinates from ORCA-job B6_rectangular_planar_d3.00_q0_m5_R2SCAN-3C E -148.691857570533
  B      -1.575324     -1.007177      0.000002
  B      -0.021290     -0.494334     -0.000001
  B       1.654821     -0.993734      0.000000
  B      -1.393174      0.623287      0.000002
  B      -0.006075      1.308826     -0.000003
  B       1.341042      0.563133     -0.000000
6
Coordinates from ORCA-job B6_rectangular_planar_d3.00_q0_m5_R2SCAN-3C E -148.692845002903
  B      -1.562793     -1.033081      0.000011
  B      -0.028780     -0.375373     -0.000035
  B       1.618205     -1.010937      0.000010
  B      -1.395767      0.593868      0.000016
  B      -0.002849      1.265044     -0.000015
  B       1.371984      0.560480      0.000013
6
Coordinates from ORCA-job B6_rectangular_planar_d3.00_q0_m5_R2SCAN-3C E -148.694074441556
  B      -1.533791     -1.051350     -0.000001
  B      -0.026141     -0.405996      0.000044
  B       1.569507     -1.020853     -0.000005
  B      -1.374009      0.580086     -0.000036
  B       0.006122      1.335837      0.000033
  B       1.358311      0.562276     -0.000035
6
Coordinates from ORCA-job B6_rectangular_planar_d3.00_q0_m5_R2SCAN-3C E -148.694484804655
  B      -1.561978     -1.021378      0.000011
  B      -0.008320     -0.439823     -0.000088
  B       1.605855     -1.003992      0.000015
  B      -1.399650      0.601238      0.000073
  B      -0.005641      1.295007     -0.000075
  B       1.369734      0.568948      0.000064
6
Coordinates from ORCA-job B6_rectangular_planar_d3.00_q0_m5_R2SCAN-3C E -148.694880996684
  B      -1.583956     -1.022744     -0.000027
  B      -0.012720     -0.428619      0.000194
  B       1.610275     -1.005512     -0.000032
  B      -1.372837      0.582919     -0.000137
  B      -0.003821      1.298141      0.000138
  B       1.363058      0.575814     -0.000136
6
Coordinates from ORCA-job B6_rectangular_planar_d3.00_q0_m5_R2SCAN-3C E -148.695019331399
  B      -1.552024     -1.036178      0.000054
  B      -0.009813     -0.399860     -0.000426
  B       1.567272     -1.015381      0.000061
  B      -1.381886      0.573473      0.000332
  B       0.000846      1.302594     -0.000336
  B       1.375605      0.575352      0.000316
6
Coordinates from ORCA-job B6_rectangular_planar_d3.00_q0_m5_R2SCAN-3C E -148.695192149594
  B      -1.564955     -1.027423     -0.000110
  B      -0.003371     -0.415715      0.000983
  B       1.582679     -1.012725     -0.000133
  B      -1.380996      0.577521     -0.000769
  B      -0.004717      1.302360      0.000776
  B       1.371359      0.575982     -0.000747
6
Coordinates from ORCA-job B6_rectangular_planar_d3.00_q0_m5_R2SCAN-3C E -148.695207674047
  B      -1.572265     -1.024539      0.000686
  B      -0.002520     -0.419503     -0.005177
  B       1.584056     -1.010784      0.000725
  B      -1.379170      0.574104      0.003922
  B      -0.003278      1.300047     -0.004020
  B       1.373177      0.580674      0.003865
6
Coordinates from ORCA-job B6_rectangular_planar_d3.00_q0_m5_R2SCAN-3C E -148.695185236042
  B      -1.577292     -1.022426     -0.001436
  B       0.000693     -0.420165      0.010417
  B       1.581999     -1.010665     -0.001448
  B      -1.376936      0.569624     -0.007785
  B      -0.003416      1.299343      0.008017
  B       1.374952      0.584290     -0.007764
6
Coordinates from ORCA-job B6_rectangular_planar_d3.00_q0_m5_R2SCAN-3C E -148.695224537473
  B      -1.572419     -1.024130      0.000013
  B       0.002949     -0.416440     -0.000102
  B       1.579415     -1.013222     -0.000024
  B      -1.377638      0.570851      0.000055
  B      -0.006056      1.302138     -0.000047
  B       1.373749      0.580803      0.000107
6
Coordinates from ORCA-job B6_rectangular_planar_d3.00_q0_m5_R2SCAN-3C E -148.695227651069
  B      -1.572576     -1.024354      0.000077
  B       0.001012     -0.417464     -0.000652
  B       1.580518     -1.012263      0.000074
  B      -1.378850      0.571608      0.000464
  B      -0.004387      1.301077     -0.000442
  B       1.374283      0.581395      0.000478
6
Coordinates from ORCA-job B6_rectangular_planar_d3.00_q0_m5_R2SCAN-3C E -148.695228137862
  B      -1.572811     -1.024117     -0.000027
  B       0.001543     -0.417297      0.000034
  B       1.580288     -1.012492     -0.000021
  B      -1.378404      0.571207     -0.000025
  B      -0.004823      1.301247      0.000060
  B       1.374206      0.581451     -0.000021
6
Coordinates from ORCA-job B6_rectangular_planar_d3.00_q0_m5_R2SCAN-3C E -148.695228141557
  B      -1.572761     -1.024133     -0.000048
  B       0.001582     -0.417282      0.000083
  B       1.580260     -1.012508     -0.000041
  B      -1.378435      0.571228     -0.000017
  B      -0.004817      1.301273      0.000038
  B       1.374171      0.581422     -0.000015
