6
Coordinates from ORCA-job B6_rectangular_planar_d3.00_q0_m5_R2SCAN-3C E -148.695228141557
  B          -1.57276106081657     -1.02413275353728     -0.00004789878695
  B           0.00158239072213     -0.41728235403330      0.00008290142625
  B           1.58026001415871     -1.01250793698712     -0.00004128823964
  B          -1.37843487452391      0.57122810740396     -0.00001683662136
  B          -0.00481720443342      1.30127329638322      0.00003784981630
  B           1.37417073489306      0.58142164077052     -0.00001472759460
