6
Coordinates from ORCA-job B6_planar_ring_d2.50_q0_m1_R2SCAN-3C E -148.711188098782
  B           2.01684313524600     -0.00145228882714     -0.20182744087560
  B           0.79116721543396      0.92831753893966      0.10139537233111
  B          -0.78939277711825      0.92933712125404      0.10098907406016
  B          -2.01687843487190      0.00161009771328     -0.20147268370176
  B          -0.79115024878442     -0.92839944828915      0.10079696388508
  B           0.78941111009461     -0.92941302079070      0.10011871430101
