6
Coordinates from ORCA-job B6_planar_ring_d2.50_q0_m1_R2SCAN-3C E -148.085550481047
  B       2.500000     -0.000000      0.000000
  B       1.250000      2.165064      0.000000
  B      -1.250000      2.165064      0.000000
  B      -2.500000      0.000000      0.000000
  B      -1.250000     -2.165064      0.000000
  B       1.250000     -2.165064      0.000000
6
Coordinates from ORCA-job B6_planar_ring_d2.50_q0_m1_R2SCAN-3C E -148.118870093743
  B       2.435248     -0.000000      0.000000
  B       1.217594      2.108902     -0.000000
  B      -1.217594      2.108902     -0.000000
  B      -2.435248      0.000000      0.000000
  B      -1.217594     -2.108902     -0.000000
  B       1.217594     -2.108902     -0.000000
6
Coordinates from ORCA-job B6_planar_ring_d2.50_q0_m1_R2SCAN-3C E -148.154335974560
  B       2.370465      0.000000      0.000000
  B       1.185192      2.052756     -0.000000
  B      -1.185192      2.052756      0.000000
  B      -2.370465     -0.000000     -0.000000
  B      -1.185192     -2.052756     -0.000000
  B       1.185192     -2.052756      0.000000
6
Coordinates from ORCA-job B6_planar_ring_d2.50_q0_m1_R2SCAN-3C E -148.211343899120
  B       2.273338      0.000000      0.000000
  B       1.136595      1.968507     -0.000000
  B      -1.136595      1.968507      0.000000
  B      -2.273338     -0.000000      0.000000
  B      -1.136595     -1.968507     -0.000000
  B       1.136595     -1.968507      0.000000
6
Coordinates from ORCA-job B6_planar_ring_d2.50_q0_m1_R2SCAN-3C E -148.302531520749
  B       2.127581      0.000000     -0.000000
  B       1.063687      1.842179     -0.000000
  B      -1.063687      1.842179      0.000000
  B      -2.127581      0.000000     -0.000000
  B      -1.063687     -1.842179     -0.000000
  B       1.063687     -1.842179      0.000000
6
Coordinates from ORCA-job B6_planar_ring_d2.50_q0_m1_R2SCAN-3C E -148.399330124594
  B       1.976507      0.000000     -0.000000
  B       0.988100      1.711112     -0.000000
  B      -0.988100      1.711112      0.000000
  B      -1.976507      0.000000     -0.000000
  B      -0.988100     -1.711112     -0.000000
  B       0.988100     -1.711112      0.000000
6
Coordinates from ORCA-job B6_planar_ring_d2.50_q0_m1_R2SCAN-3C E -148.481339058642
  B       1.825347      0.000000      0.000000
  B       0.912492      1.580107     -0.000000
  B      -0.912492      1.580107      0.000000
  B      -1.825347     -0.000000     -0.000000
  B      -0.912492     -1.580107      0.000000
  B       0.912492     -1.580107     -0.000000
6
Coordinates from ORCA-job B6_planar_ring_d2.50_q0_m1_R2SCAN-3C E -148.519539940434
  B       1.674508      0.000000     -0.000000
  B       0.836841      1.448942      0.000000
  B      -0.836841      1.448942     -0.000000
  B      -1.674508      0.000000     -0.000000
  B      -0.836841     -1.448942      0.000000
  B       0.836841     -1.448942     -0.000000
6
Coordinates from ORCA-job B6_planar_ring_d2.50_q0_m1_R2SCAN-3C E -148.520012438229
  B       1.680057     -0.000000     -0.000000
  B       0.830668      1.444989      0.000000
  B      -0.830668      1.444989      0.000000
  B      -1.680057     -0.000000     -0.000000
  B      -0.830668     -1.444989      0.000000
  B       0.830668     -1.444989     -0.000000
6
Coordinates from ORCA-job B6_planar_ring_d2.50_q0_m1_R2SCAN-3C E -148.610901552556
  B       1.767093      0.000002     -0.000010
  B       0.851351      1.370102      0.000005
  B      -0.851337      1.370122      0.000005
  B      -1.767123      0.000007     -0.000010
  B      -0.851345     -1.370132      0.000005
  B       0.851360     -1.370102      0.000005
6
Coordinates from ORCA-job B6_planar_ring_d2.50_q0_m1_R2SCAN-3C E -148.652126114949
  B       1.728476     -0.000000     -0.000012
  B       0.841472      1.244687      0.000006
  B      -0.841468      1.244691      0.000006
  B      -1.728484      0.000004     -0.000012
  B      -0.841472     -1.244695      0.000006
  B       0.841476     -1.244685      0.000006
6
Coordinates from ORCA-job B6_planar_ring_d2.50_q0_m1_R2SCAN-3C E -148.660910866502
  B       1.735342      0.000002     -0.000014
  B       0.796144      1.181686      0.000007
  B      -0.796140      1.181682      0.000007
  B      -1.735338     -0.000005     -0.000014
  B      -0.796145     -1.181681      0.000007
  B       0.796136     -1.181683      0.000007
6
Coordinates from ORCA-job B6_planar_ring_d2.50_q0_m1_R2SCAN-3C E -148.670228327521
  B       1.852407      0.000002     -0.000021
  B       0.812384      1.025162      0.000010
  B      -0.812386      1.025164      0.000010
  B      -1.852412      0.000008     -0.000021
  B      -0.812383     -1.025171      0.000010
  B       0.812390     -1.025166      0.000010
6
Coordinates from ORCA-job B6_planar_ring_d2.50_q0_m1_R2SCAN-3C E -148.677069993478
  B       1.948429     -0.000014     -0.000061
  B       0.803523      0.961225      0.000030
  B      -0.803520      0.961192      0.000031
  B      -1.948373     -0.000045     -0.000061
  B      -0.803567     -0.961165      0.000030
  B       0.803508     -0.961193      0.000031
6
Coordinates from ORCA-job B6_planar_ring_d2.50_q0_m1_R2SCAN-3C E -148.691221342667
  B       1.920252      0.000176     -0.000520
  B       0.804882      1.031840      0.000260
  B      -0.804942      1.032191      0.000260
  B      -1.920879      0.000557     -0.000520
  B      -0.804257     -1.032574      0.000260
  B       0.804945     -1.032191      0.000260
6
Coordinates from ORCA-job B6_planar_ring_d2.50_q0_m1_R2SCAN-3C E -148.698987013567
  B       1.956225     -0.000270     -0.001465
  B       0.801104      1.004032      0.000732
  B      -0.800288      1.003625      0.000734
  B      -1.955748     -0.001346     -0.001464
  B      -0.802218     -1.002904      0.000731
  B       0.800926     -1.003138      0.000733
6
Coordinates from ORCA-job B6_planar_ring_d2.50_q0_m1_R2SCAN-3C E -148.702252735232
  B       2.071677      0.007954     -0.002138
  B       0.788671      0.852610      0.001059
  B      -0.809773      0.861271      0.001043
  B      -2.084357      0.034111     -0.002162
  B      -0.761014     -0.880204      0.001119
  B       0.794795     -0.875742      0.001078
6
Coordinates from ORCA-job B6_planar_ring_d2.50_q0_m1_R2SCAN-3C E -148.708447245749
  B       2.074785     -0.001352     -0.002547
  B       0.782945      0.937029      0.001290
  B      -0.763600      0.937557      0.001326
  B      -2.075888     -0.015791     -0.002540
  B      -0.810139     -0.926550      0.001215
  B       0.791897     -0.930892      0.001255
6
Coordinates from ORCA-job B6_planar_ring_d2.50_q0_m1_R2SCAN-3C E -148.708357761440
  B       2.054483     -0.004587     -0.002642
  B       0.799905      0.956789      0.001335
  B      -0.806874      0.956496      0.001341
  B      -2.053946      0.004197     -0.002630
  B      -0.774249     -0.953578      0.001293
  B       0.780680     -0.959316      0.001304
6
Coordinates from ORCA-job B6_planar_ring_d2.50_q0_m1_R2SCAN-3C E -148.710094925551
  B       2.055981     -0.004024     -0.002645
  B       0.792102      0.912788      0.001332
  B      -0.798354      0.914458      0.001344
  B      -2.058345      0.006262     -0.002643
  B      -0.786052     -0.913536      0.001303
  B       0.794668     -0.915947      0.001308
6
Coordinates from ORCA-job B6_planar_ring_d2.50_q0_m1_R2SCAN-3C E -148.710233380002
  B       2.066195      0.012283     -0.003113
  B       0.798759      0.920212      0.001531
  B      -0.776660      0.921075      0.001597
  B      -2.066247     -0.003324     -0.003106
  B      -0.800932     -0.923985      0.001515
  B       0.778886     -0.926262      0.001575
6
Coordinates from ORCA-job B6_planar_ring_d2.50_q0_m1_R2SCAN-3C E -148.710065143625
  B       2.065859     -0.009909     -0.003267
  B       0.776794      0.935698      0.001653
  B      -0.788502      0.937108      0.001667
  B      -2.064788      0.004151     -0.003257
  B      -0.786261     -0.932275      0.001599
  B       0.796900     -0.934773      0.001606
6
Coordinates from ORCA-job B6_planar_ring_d2.50_q0_m1_R2SCAN-3C E -148.710315103822
  B       2.056314     -0.015275     -0.003658
  B       0.796240      0.929443      0.001865
  B      -0.799555      0.929584      0.001887
  B      -2.055331     -0.007724     -0.003646
  B      -0.782687     -0.917443      0.001765
  B       0.785019     -0.918585      0.001787
6
Coordinates from ORCA-job B6_planar_ring_d2.50_q0_m1_R2SCAN-3C E -148.710296340846
  B       2.058693      0.014215     -0.004027
  B       0.789412      0.913820      0.001960
  B      -0.785954      0.915541      0.001998
  B      -2.059886      0.016412     -0.004023
  B      -0.795016     -0.929876      0.002027
  B       0.792752     -0.930113      0.002063
6
Coordinates from ORCA-job B6_planar_ring_d2.50_q0_m1_R2SCAN-3C E -148.710352674578
  B       2.072303     -0.000878     -0.004892
  B       0.789797      0.924347      0.002448
  B      -0.780289      0.926525      0.002516
  B      -2.072491     -0.005206     -0.004885
  B      -0.794278     -0.921627      0.002377
  B       0.784959     -0.923161      0.002436
6
Coordinates from ORCA-job B6_planar_ring_d2.50_q0_m1_R2SCAN-3C E -148.710595654253
  B       2.059575     -0.006536     -0.005544
  B       0.789822      0.928582      0.002792
  B      -0.792256      0.928873      0.002820
  B      -2.058271     -0.000204     -0.005530
  B      -0.787872     -0.924456      0.002719
  B       0.789002     -0.926260      0.002743
6
Coordinates from ORCA-job B6_planar_ring_d2.50_q0_m1_R2SCAN-3C E -148.710596618447
  B       2.058337     -0.000947     -0.006907
  B       0.792108      0.922216      0.003441
  B      -0.787027      0.926547      0.003513
  B      -2.064555      0.001961     -0.006935
  B      -0.788759     -0.925960      0.003424
  B       0.789897     -0.923819      0.003464
6
Coordinates from ORCA-job B6_planar_ring_d2.50_q0_m1_R2SCAN-3C E -148.710370339896
  B       2.072862      0.008834     -0.010225
  B       0.786887      0.918229      0.005020
  B      -0.785350      0.913443      0.005101
  B      -2.061077      0.006603     -0.010109
  B      -0.797886     -0.919812      0.005030
  B       0.784565     -0.927296      0.005183
6
Coordinates from ORCA-job B6_planar_ring_d2.50_q0_m1_R2SCAN-3C E -148.710630746460
  B       2.061747     -0.002143     -0.009448
  B       0.789911      0.925318      0.004740
  B      -0.788943      0.926136      0.004776
  B      -2.061031      0.001263     -0.009423
  B      -0.790144     -0.924564      0.004645
  B       0.788460     -0.926010      0.004711
6
Coordinates from ORCA-job B6_planar_ring_d2.50_q0_m1_R2SCAN-3C E -148.710634205592
  B       2.061386     -0.001521     -0.013274
  B       0.790184      0.924115      0.006640
  B      -0.788522      0.925390      0.006700
  B      -2.061631      0.001689     -0.013266
  B      -0.790039     -0.924339      0.006566
  B       0.788622     -0.925335      0.006635
6
Coordinates from ORCA-job B6_planar_ring_d2.50_q0_m1_R2SCAN-3C E -148.710645562663
  B       2.060602     -0.000675     -0.026644
  B       0.790481      0.922703      0.013286
  B      -0.787958      0.924485      0.013431
  B      -2.061896      0.002200     -0.026677
  B      -0.790049     -0.924071      0.013268
  B       0.788819     -0.924642      0.013336
6
Coordinates from ORCA-job B6_planar_ring_d2.50_q0_m1_R2SCAN-3C E -148.710674039200
  B       2.059185     -0.000065     -0.045302
  B       0.790725      0.921365      0.022564
  B      -0.787576      0.923582      0.022850
  B      -2.061357      0.002606     -0.045411
  B      -0.789979     -0.923633      0.022645
  B       0.789001     -0.923855      0.022655
6
Coordinates from ORCA-job B6_planar_ring_d2.50_q0_m1_R2SCAN-3C E -148.710731359108
  B       2.056279      0.000668     -0.070187
  B       0.791021      0.919801      0.034923
  B      -0.787139      0.922497      0.035462
  B      -2.059398      0.003066     -0.070454
  B      -0.789990     -0.923097      0.035215
  B       0.789226     -0.922933      0.035040
6
Coordinates from ORCA-job B6_planar_ring_d2.50_q0_m1_R2SCAN-3C E -148.710813877159
  B       2.051891      0.001102     -0.095122
  B       0.791214      0.919101      0.047309
  B      -0.786957      0.922026      0.048166
  B      -2.055455      0.003328     -0.095626
  B      -0.790094     -0.922935      0.047918
  B       0.789402     -0.922622      0.047355
6
Coordinates from ORCA-job B6_planar_ring_d2.50_q0_m1_R2SCAN-3C E -148.710907386622
  B       2.046216      0.001389     -0.120154
  B       0.791384      0.918742      0.059771
  B      -0.786911      0.921793      0.060925
  B      -2.050013      0.003493     -0.120924
  B      -0.790246     -0.922895      0.060737
  B       0.789569     -0.922522      0.059645
6
Coordinates from ORCA-job B6_planar_ring_d2.50_q0_m1_R2SCAN-3C E -148.711061422634
  B       2.036538     -0.001529     -0.144657
  B       0.790300      0.928335      0.072261
  B      -0.789340      0.929200      0.073390
  B      -2.035722      0.001649     -0.145202
  B      -0.790982     -0.927900      0.072993
  B       0.789206     -0.929755      0.071215
6
Coordinates from ORCA-job B6_planar_ring_d2.50_q0_m1_R2SCAN-3C E -148.711145138090
  B       2.029777     -0.001476     -0.170421
  B       0.790740      0.926288      0.085324
  B      -0.789369      0.927515      0.085999
  B      -2.029696      0.001681     -0.170799
  B      -0.790796     -0.926297      0.085731
  B       0.789345     -0.927711      0.084166
6
Coordinates from ORCA-job B6_planar_ring_d2.50_q0_m1_R2SCAN-3C E -148.711183056305
  B       2.013303     -0.001156     -0.209299
  B       0.790673      0.928563      0.104804
  B      -0.789433      0.929310      0.105311
  B      -2.012284      0.001653     -0.209571
  B      -0.791751     -0.928218      0.105260
  B       0.789492     -0.930153      0.103494
6
Coordinates from ORCA-job B6_planar_ring_d2.50_q0_m1_R2SCAN-3C E -148.711187923778
  B       2.017426     -0.001464     -0.200566
  B       0.791129      0.928171      0.100841
  B      -0.789445      0.929539      0.100182
  B      -2.017671      0.001646     -0.200020
  B      -0.790975     -0.928443      0.099964
  B       0.789535     -0.929449      0.099599
6
Coordinates from ORCA-job B6_planar_ring_d2.50_q0_m1_R2SCAN-3C E -148.711188096280
  B       2.016914     -0.001463     -0.201665
  B       0.791130      0.928279      0.101290
  B      -0.789445      0.929379      0.100934
  B      -2.016935      0.001611     -0.201311
  B      -0.791106     -0.928355      0.100694
  B       0.789443     -0.929452      0.100059
6
Coordinates from ORCA-job B6_planar_ring_d2.50_q0_m1_R2SCAN-3C E -148.711188098782
  B       2.016843     -0.001452     -0.201827
  B       0.791167      0.928318      0.101395
  B      -0.789393      0.929337      0.100989
  B      -2.016878      0.001610     -0.201473
  B      -0.791150     -0.928399      0.100797
  B       0.789411     -0.929413      0.100119
