6
Coordinates from ORCA-job B6_rectangular_planar_d2.00_q0_m1_R2SCAN-3C E -148.446927338995
  B      -2.000000     -1.000000      0.000000
  B       0.000000     -1.000000      0.000000
  B       2.000000     -1.000000      0.000000
  B      -2.000000      1.000000      0.000000
  B       0.000000      1.000000      0.000000
  B       2.000000      1.000000      0.000000
6
Coordinates from ORCA-job B6_rectangular_planar_d2.00_q0_m1_R2SCAN-3C E -148.483550367430
  B      -1.931297     -0.976713     -0.000000
  B      -0.000000     -0.977731      0.000000
  B       1.931297     -0.976713     -0.000000
  B      -1.931297      0.976713     -0.000000
  B       0.000000      0.977731      0.000000
  B       1.931297      0.976713     -0.000000
6
Coordinates from ORCA-job B6_rectangular_planar_d2.00_q0_m1_R2SCAN-3C E -148.517030651699
  B      -1.860859     -0.954763     -0.000000
  B      -0.000000     -0.958372      0.000000
  B       1.860859     -0.954763     -0.000000
  B      -1.860859      0.954763     -0.000000
  B      -0.000000      0.958372      0.000000
  B       1.860859      0.954763     -0.000000
6
Coordinates from ORCA-job B6_rectangular_planar_d2.00_q0_m1_R2SCAN-3C E -148.557657739228
  B      -1.754389     -0.921438      0.000000
  B      -0.000000     -0.933597     -0.000000
  B       1.754389     -0.921439      0.000000
  B      -1.754389      0.921438      0.000000
  B      -0.000000      0.933597     -0.000000
  B       1.754389      0.921439      0.000000
6
Coordinates from ORCA-job B6_rectangular_planar_d2.00_q0_m1_R2SCAN-3C E -148.578176424358
  B      -1.611456     -0.870049     -0.000000
  B       0.000010     -0.903082      0.000000
  B       1.611446     -0.870023     -0.000000
  B      -1.611456      0.870049     -0.000000
  B       0.000010      0.903082      0.000000
  B       1.611446      0.870023     -0.000000
6
Coordinates from ORCA-job B6_rectangular_planar_d2.00_q0_m1_R2SCAN-3C E -148.578990984833
  B      -1.646341     -0.860805     -0.000000
  B      -0.000000     -0.900112     -0.000000
  B       1.646341     -0.860780      0.000000
  B      -1.646341      0.860805      0.000000
  B      -0.000000      0.900112     -0.000000
  B       1.646341      0.860780     -0.000000
6
Coordinates from ORCA-job B6_rectangular_planar_d2.00_q0_m1_R2SCAN-3C E -148.579167880417
  B      -1.637875     -0.866435     -0.000000
  B       0.000010     -0.904395      0.000000
  B       1.637865     -0.866412      0.000000
  B      -1.637875      0.866435      0.000000
  B       0.000010      0.904395      0.000000
  B       1.637865      0.866412     -0.000000
6
Coordinates from ORCA-job B6_rectangular_planar_d2.00_q0_m1_R2SCAN-3C E -148.579174423453
  B      -1.636036     -0.864726     -0.000003
  B      -0.000000     -0.904790     -0.000000
  B       1.636036     -0.864702      0.000003
  B      -1.636036      0.864726      0.000003
  B      -0.000000      0.904790     -0.000000
  B       1.636036      0.864702     -0.000003
6
Coordinates from ORCA-job B6_rectangular_planar_d2.00_q0_m1_R2SCAN-3C E -148.579176152702
  B      -1.636401     -0.864852     -0.000054
  B       0.000007     -0.905668     -0.000000
  B       1.636394     -0.864839      0.000054
  B      -1.636401      0.864852      0.000054
  B       0.000007      0.905668     -0.000000
  B       1.636394      0.864839     -0.000054
6
Coordinates from ORCA-job B6_rectangular_planar_d2.00_q0_m1_R2SCAN-3C E -148.631368735090
  B      -1.636791     -0.864817     -0.002752
  B      -0.000001     -0.908104     -0.000000
  B       1.636790     -0.864807      0.002753
  B      -1.636790      0.864816      0.002753
  B      -0.000000      0.908104     -0.000000
  B       1.636792      0.864808     -0.002752
6
Coordinates from ORCA-job B6_rectangular_planar_d2.00_q0_m1_R2SCAN-3C E -148.630564428481
  B      -1.642362     -0.859285     -0.064102
  B      -0.000203     -0.965465      0.004571
  B       1.642920     -0.859590      0.059533
  B      -1.642770      0.859471      0.059528
  B      -0.000097      0.965464      0.004577
  B       1.642513      0.859404     -0.064107
6
Coordinates from ORCA-job B6_rectangular_planar_d2.00_q0_m1_R2SCAN-3C E -148.631508854227
  B      -1.636642     -0.861477     -0.032115
  B       0.001949     -0.938041     -0.013268
  B       1.637153     -0.862991      0.045385
  B      -1.637158      0.862891      0.045393
  B      -0.001940      0.938042     -0.013283
  B       1.636637      0.861576     -0.032111
6
Coordinates from ORCA-job B6_rectangular_planar_d2.00_q0_m1_R2SCAN-3C E -148.632449390975
  B      -1.617646     -0.856563     -0.037201
  B       0.011106     -0.896488      0.016921
  B       1.639385     -0.874424      0.020278
  B      -1.639512      0.874443      0.020275
  B      -0.010850      0.896484      0.016937
  B       1.617518      0.856547     -0.037211
6
Coordinates from ORCA-job B6_rectangular_planar_d2.00_q0_m1_R2SCAN-3C E -148.635283697513
  B      -1.589320     -0.838611     -0.049860
  B       0.030883     -0.890138      0.007534
  B       1.652814     -0.889436      0.042322
  B      -1.652868      0.889557      0.042325
  B      -0.030772      0.890126      0.007543
  B       1.589262      0.838502     -0.049864
6
Coordinates from ORCA-job B6_rectangular_planar_d2.00_q0_m1_R2SCAN-3C E -148.642109649740
  B      -1.546881     -0.809250     -0.075569
  B       0.061253     -0.883202      0.004712
  B       1.675282     -0.911262      0.070853
  B      -1.675391      0.911443      0.070870
  B      -0.061039      0.883168      0.004691
  B       1.546775      0.809103     -0.075558
6
Coordinates from ORCA-job B6_rectangular_planar_d2.00_q0_m1_R2SCAN-3C E -148.648987438498
  B      -1.515724     -0.784292     -0.088049
  B       0.085347     -0.881932      0.004396
  B       1.697155     -0.927897      0.083650
  B      -1.697266      0.928111      0.083677
  B      -0.085139      0.881865      0.004356
  B       1.515628      0.784144     -0.088030
6
Coordinates from ORCA-job B6_rectangular_planar_d2.00_q0_m1_R2SCAN-3C E -148.654735854266
  B      -1.492723     -0.764544     -0.095222
  B       0.103360     -0.881507      0.004796
  B       1.715125     -0.940094      0.090424
  B      -1.715236      0.940325      0.090455
  B      -0.103164      0.881414      0.004744
  B       1.492638      0.764407     -0.095198
6
Coordinates from ORCA-job B6_rectangular_planar_d2.00_q0_m1_R2SCAN-3C E -148.660701124822
  B      -1.468926     -0.744238     -0.101912
  B       0.121340     -0.880901      0.005523
  B       1.732879     -0.952034      0.096389
  B      -1.732988      0.952282      0.096424
  B      -0.121153      0.880780      0.005462
  B       1.468849      0.744111     -0.101885
6
Coordinates from ORCA-job B6_rectangular_planar_d2.00_q0_m1_R2SCAN-3C E -148.669276428184
  B      -1.431273     -0.714027     -0.113023
  B       0.147595     -0.878854      0.007188
  B       1.756189     -0.968882      0.105835
  B      -1.756310      0.969158      0.105877
  B      -0.147406      0.878699      0.007114
  B       1.431205      0.713905     -0.112991
6
Coordinates from ORCA-job B6_rectangular_planar_d2.00_q0_m1_R2SCAN-3C E -148.681419758869
  B      -1.380684     -0.661481     -0.120897
  B       0.188584     -0.880151      0.010291
  B       1.803228     -0.993006      0.110611
  B      -1.803331      0.993280      0.110654
  B      -0.188464      0.879950      0.010208
  B       1.380667      0.661408     -0.120867
6
Coordinates from ORCA-job B6_rectangular_planar_d2.00_q0_m1_R2SCAN-3C E -148.691527108418
  B      -1.304969     -0.580013     -0.141539
  B       0.244280     -0.887122      0.027070
  B       1.869113     -1.021212      0.114487
  B      -1.869229      1.021411      0.114523
  B      -0.244150      0.886911      0.026983
  B       1.304955      0.580025     -0.141523
6
Coordinates from ORCA-job B6_rectangular_planar_d2.00_q0_m1_R2SCAN-3C E -148.695957902928
  B      -1.263063     -0.545111     -0.239396
  B       0.254038     -0.933523      0.094445
  B       1.876734     -1.012799      0.145005
  B      -1.877078      1.012699      0.145031
  B      -0.253519      0.933386      0.094315
  B       1.262888      0.545348     -0.239401
6
Coordinates from ORCA-job B6_rectangular_planar_d2.00_q0_m1_R2SCAN-3C E -148.697118123948
  B      -1.240377     -0.506854     -0.309680
  B       0.258812     -0.923212      0.102013
  B       1.875653     -0.996675      0.207668
  B      -1.875601      0.996794      0.207716
  B      -0.259285      0.923140      0.102041
  B       1.240797      0.506807     -0.309758
6
Coordinates from ORCA-job B6_rectangular_planar_d2.00_q0_m1_R2SCAN-3C E -148.697995086164
  B      -1.256634     -0.510010     -0.302391
  B       0.258055     -0.942460      0.065508
  B       1.869129     -0.987735      0.236854
  B      -1.868991      0.987936      0.236765
  B      -0.258294      0.942465      0.065791
  B       1.256734      0.509804     -0.302528
6
Coordinates from ORCA-job B6_rectangular_planar_d2.00_q0_m1_R2SCAN-3C E -148.699591523394
  B      -1.280695     -0.519809     -0.298854
  B       0.244316     -0.958572     -0.009254
  B       1.834882     -0.960700      0.308074
  B      -1.834808      0.960574      0.308307
  B      -0.243727      0.958556     -0.009783
  B       1.280032      0.519951     -0.298489
6
Coordinates from ORCA-job B6_rectangular_planar_d2.00_q0_m1_R2SCAN-3C E -148.701166755052
  B      -1.287839     -0.522189     -0.290353
  B       0.242254     -0.971934     -0.067430
  B       1.800223     -0.938998      0.357731
  B      -1.800016      0.939121      0.357465
  B      -0.242826      0.972520     -0.066772
  B       1.288205      0.521480     -0.290641
6
Coordinates from ORCA-job B6_rectangular_planar_d2.00_q0_m1_R2SCAN-3C E -148.704538130108
  B      -1.284903     -0.523261     -0.281992
  B       0.238182     -0.992952     -0.107987
  B       1.752266     -0.911299      0.390016
  B      -1.752231      0.910661      0.390487
  B      -0.236718      0.992801     -0.109163
  B       1.283404      0.524051     -0.281361
6
Coordinates from ORCA-job B6_rectangular_planar_d2.00_q0_m1_R2SCAN-3C E -148.710644583393
  B      -1.264046     -0.511583     -0.263320
  B       0.228870     -1.015661     -0.113770
  B       1.717919     -0.880911      0.376836
  B      -1.717365      0.882167      0.375774
  B      -0.232919      1.017564     -0.111019
  B       1.267542      0.508424     -0.264501
6
Coordinates from ORCA-job B6_rectangular_planar_d2.00_q0_m1_R2SCAN-3C E -148.714316775751
  B      -1.261640     -0.482176     -0.264239
  B       0.226429     -1.008496     -0.066142
  B       1.731146     -0.869798      0.331497
  B      -1.733492      0.866698      0.331338
  B      -0.218003      1.007458     -0.067702
  B       1.255560      0.486315     -0.264751
6
Coordinates from ORCA-job B6_rectangular_planar_d2.00_q0_m1_R2SCAN-3C E -148.716054903912
  B      -1.258171     -0.473470     -0.275276
  B       0.212984     -0.983885     -0.016138
  B       1.759275     -0.868767      0.289398
  B      -1.756453      0.873716      0.291094
  B      -0.220970      0.982999     -0.015612
  B       1.263334      0.469407     -0.273466
6
Coordinates from ORCA-job B6_rectangular_planar_d2.00_q0_m1_R2SCAN-3C E -148.717521487456
  B      -1.263902     -0.465510     -0.285273
  B       0.216849     -0.936838      0.051593
  B       1.784539     -0.886962      0.235306
  B      -1.785795      0.883474      0.231919
  B      -0.213912      0.938724      0.055437
  B       1.262220      0.467112     -0.288981
6
Coordinates from ORCA-job B6_rectangular_planar_d2.00_q0_m1_R2SCAN-3C E -148.717706012975
  B      -1.264082     -0.473691     -0.272901
  B       0.219750     -0.925659      0.074040
  B       1.794190     -0.898350      0.197179
  B      -1.793999      0.899569      0.203134
  B      -0.220665      0.923513      0.064687
  B       1.264806      0.474618     -0.266139
6
Coordinates from ORCA-job B6_rectangular_planar_d2.00_q0_m1_R2SCAN-3C E -148.717716620280
  B      -1.263455     -0.475194     -0.268984
  B       0.221423     -0.926099      0.066049
  B       1.792040     -0.897742      0.203649
  B      -1.793028      0.898950      0.199029
  B      -0.219992      0.927383      0.074231
  B       1.263012      0.472704     -0.273975
6
Coordinates from ORCA-job B6_rectangular_planar_d2.00_q0_m1_R2SCAN-3C E -148.717724750723
  B      -1.262734     -0.472282     -0.273781
  B       0.219740     -0.927930      0.070096
  B       1.792174     -0.897866      0.204025
  B      -1.791396      0.896346      0.204144
  B      -0.220832      0.927815      0.069173
  B       1.263047      0.473917     -0.273657
6
Coordinates from ORCA-job B6_rectangular_planar_d2.00_q0_m1_R2SCAN-3C E -148.717727559005
  B      -1.263174     -0.473275     -0.273331
  B       0.220292     -0.927439      0.070124
  B       1.792380     -0.897171      0.202797
  B      -1.792667      0.897694      0.203658
  B      -0.219966      0.927161      0.068965
  B       1.263136      0.473030     -0.272212
6
Coordinates from ORCA-job B6_rectangular_planar_d2.00_q0_m1_R2SCAN-3C E -148.717728308148
  B      -1.263022     -0.473300     -0.272389
  B       0.220306     -0.927359      0.069611
  B       1.792568     -0.897687      0.202771
  B      -1.792585      0.897663      0.202565
  B      -0.220299      0.927389      0.069951
  B       1.263031      0.473294     -0.272509
6
Coordinates from ORCA-job B6_rectangular_planar_d2.00_q0_m1_R2SCAN-3C E -148.717728337008
  B      -1.262911     -0.473200     -0.272832
  B       0.220289     -0.927438      0.069941
  B       1.792475     -0.897586      0.202835
  B      -1.792476      0.897579      0.202807
  B      -0.220301      0.927422      0.069997
  B       1.262924      0.473224     -0.272748
