6
Coordinates from ORCA-job B6_rectangular_planar_d2.00_q0_m1_R2SCAN-3C E -148.717728337008
  B          -1.26291089948965     -0.47320020688897     -0.27283203811714
  B           0.22028906220855     -0.92743809590818      0.06994128812132
  B           1.79247466128990     -0.89758631070374      0.20283487303943
  B          -1.79247620072886      0.89757896654148      0.20280694445521
  B          -0.22030058574508      0.92742212202797      0.06999650942746
  B           1.26292396246513      0.47322352493143     -0.27274757692627
