6
Coordinates from ORCA-job B6_random_3d_seed1002_d3.00_q0_m1_R2SCAN-3C E -148.717723950946
  B           0.62479579763887      0.34855231278577     -1.17517019895241
  B           1.75708660387276      0.93759229942178     -0.30553317732488
  B          -0.79077257397029      0.01282627536056     -0.53721194188598
  B          -0.46011163669196     -0.83478309681416      0.99210500386383
  B           0.74878271795302      0.11150085075127      0.58404785542293
  B          -1.87978089880240     -0.57568864150521      0.44176245887651
