6
Coordinates from ORCA-job B6_random_3d_seed1002_d3.00_q0_m1_R2SCAN-3C E -147.987728745628
  B       0.805712     -0.858980     -1.891957
  B       1.461707      1.817734     -0.536040
  B      -1.487647      0.972941     -1.421272
  B       0.266812     -2.147028      0.743512
  B       0.866992      0.304322      2.092414
  B      -1.913576     -0.088990      1.013343
6
Coordinates from ORCA-job B6_random_3d_seed1002_d3.00_q0_m1_R2SCAN-3C E -148.007107172414
  B       0.789076     -0.840176     -1.856700
  B       1.454017      1.788062     -0.521474
  B      -1.478980      0.940153     -1.388195
  B       0.263453     -2.098339      0.731720
  B       0.863946      0.293493      2.057656
  B      -1.891512     -0.083193      0.976992
6
Coordinates from ORCA-job B6_random_3d_seed1002_d3.00_q0_m1_R2SCAN-3C E -148.027709983823
  B       0.771921     -0.821611     -1.821512
  B       1.446783      1.759009     -0.506761
  B      -1.470263      0.906966     -1.354675
  B       0.259592     -2.049553      0.719855
  B       0.861394      0.283033      2.023259
  B      -1.869427     -0.077844      0.939835
6
Coordinates from ORCA-job B6_random_3d_seed1002_d3.00_q0_m1_R2SCAN-3C E -148.061040023157
  B       0.745378     -0.794371     -1.768499
  B       1.436053      1.716346     -0.484486
  B      -1.456734      0.857113     -1.303803
  B       0.253143     -1.976676      0.701808
  B       0.857959      0.268057      1.971879
  B      -1.835800     -0.070470      0.883101
6
Coordinates from ORCA-job B6_random_3d_seed1002_d3.00_q0_m1_R2SCAN-3C E -148.114260643548
  B       0.704246     -0.754488     -1.689642
  B       1.420298      1.654254     -0.451270
  B      -1.433616      0.787275     -1.238010
  B       0.242312     -1.868241      0.674916
  B       0.853782      0.246700      1.896329
  B      -1.787021     -0.065500      0.807678
6
Coordinates from ORCA-job B6_random_3d_seed1002_d3.00_q0_m1_R2SCAN-3C E -148.175404176816
  B       0.659593     -0.713448     -1.608262
  B       1.405317      1.591742     -0.416899
  B      -1.407788      0.715111     -1.172042
  B       0.229338     -1.754843      0.647104
  B       0.850184      0.225090      1.818886
  B      -1.736643     -0.063652      0.731213
6
Coordinates from ORCA-job B6_random_3d_seed1002_d3.00_q0_m1_R2SCAN-3C E -148.242878076241
  B       0.612431     -0.671400     -1.526340
  B       1.391114      1.529631     -0.382522
  B      -1.379316      0.641736     -1.106266
  B       0.214657     -1.638618      0.619575
  B       0.846065      0.203045      1.740559
  B      -1.684952     -0.064393      0.654994
6
Coordinates from ORCA-job B6_random_3d_seed1002_d3.00_q0_m1_R2SCAN-3C E -148.291180051900
  B       0.579003     -0.641688     -1.471582
  B       1.382507      1.487962     -0.359726
  B      -1.358320      0.589989     -1.059718
  B       0.203472     -1.558125      0.601664
  B       0.842243      0.187561      1.687217
  B      -1.648905     -0.065699      0.602146
6
Coordinates from ORCA-job B6_random_3d_seed1002_d3.00_q0_m1_R2SCAN-3C E -148.360241332001
  B       0.528519     -0.595475     -1.389983
  B       1.371357      1.425196     -0.326510
  B      -1.326132      0.513167     -0.993448
  B       0.186091     -1.435897      0.575951
  B       0.836629      0.163716      1.607625
  B      -1.596464     -0.070707      0.526364
6
Coordinates from ORCA-job B6_random_3d_seed1002_d3.00_q0_m1_R2SCAN-3C E -148.426981202800
  B       0.476591     -0.537584     -1.314843
  B       1.366691      1.357077     -0.294594
  B      -1.284778      0.441090     -0.962094
  B       0.162587     -1.299171      0.557794
  B       0.832678      0.135147      1.527357
  B      -1.553770     -0.096559      0.486380
6
Coordinates from ORCA-job B6_random_3d_seed1002_d3.00_q0_m1_R2SCAN-3C E -148.492409351448
  B       0.423545     -0.474504     -1.243905
  B       1.360241      1.286946     -0.262901
  B      -1.230670      0.376761     -0.954330
  B       0.133292     -1.168388      0.540845
  B       0.823238      0.112404      1.443847
  B      -1.509645     -0.133219      0.476444
6
Coordinates from ORCA-job B6_random_3d_seed1002_d3.00_q0_m1_R2SCAN-3C E -148.546915463819
  B       0.376330     -0.410361     -1.186167
  B       1.351988      1.218794     -0.228654
  B      -1.164161      0.317818     -0.958540
  B       0.087375     -1.064141      0.517259
  B       0.809915      0.112117      1.360835
  B      -1.461446     -0.174227      0.495266
6
Coordinates from ORCA-job B6_random_3d_seed1002_d3.00_q0_m1_R2SCAN-3C E -148.573447840842
  B       0.358774     -0.362304     -1.149949
  B       1.340225      1.163701     -0.198270
  B      -1.115944      0.275921     -0.955691
  B       0.050035     -1.012424      0.493259
  B       0.800993      0.130255      1.292010
  B      -1.434083     -0.195149      0.518640
6
Coordinates from ORCA-job B6_random_3d_seed1002_d3.00_q0_m1_R2SCAN-3C E -148.586528212875
  B       0.380304     -0.329877     -1.128439
  B       1.326176      1.119599     -0.179998
  B      -1.100301      0.255559     -0.951064
  B       0.036880     -0.985756      0.480768
  B       0.789438      0.140449      1.233978
  B      -1.432496     -0.199974      0.544756
6
Coordinates from ORCA-job B6_random_3d_seed1002_d3.00_q0_m1_R2SCAN-3C E -148.602799875216
  B       0.420984     -0.271181     -1.099039
  B       1.303667      1.057550     -0.167732
  B      -1.073035      0.217232     -0.933242
  B       0.003935     -0.967742      0.453640
  B       0.781058      0.163628      1.166740
  B      -1.436610     -0.199487      0.579634
6
Coordinates from ORCA-job B6_random_3d_seed1002_d3.00_q0_m1_R2SCAN-3C E -148.618541332760
  B       0.495935     -0.172752     -1.072458
  B       1.293390      0.996645     -0.187195
  B      -1.038123      0.150538     -0.908645
  B      -0.026895     -0.930168      0.439802
  B       0.748173      0.146573      1.089438
  B      -1.472480     -0.190835      0.639059
6
Coordinates from ORCA-job B6_random_3d_seed1002_d3.00_q0_m1_R2SCAN-3C E -148.630110192580
  B       0.544999     -0.093342     -1.032652
  B       1.304906      0.976383     -0.194489
  B      -0.991494      0.048021     -0.857635
  B      -0.109863     -0.919896      0.369781
  B       0.770578      0.159538      1.036234
  B      -1.519125     -0.170704      0.678761
6
Coordinates from ORCA-job B6_random_3d_seed1002_d3.00_q0_m1_R2SCAN-3C E -148.640807287627
  B       0.551368     -0.068540     -1.034323
  B       1.370852      1.010155     -0.177924
  B      -0.996191     -0.019981     -0.833164
  B      -0.137838     -0.897623      0.359330
  B       0.798522      0.143476      0.999480
  B      -1.586714     -0.167486      0.686601
6
Coordinates from ORCA-job B6_random_3d_seed1002_d3.00_q0_m1_R2SCAN-3C E -148.652210782333
  B       0.569695     -0.026473     -1.021435
  B       1.453185      1.041043     -0.197855
  B      -1.016689     -0.056930     -0.810758
  B      -0.168903     -0.882920      0.393503
  B       0.831693      0.121660      0.964946
  B      -1.668981     -0.196379      0.671598
6
Coordinates from ORCA-job B6_random_3d_seed1002_d3.00_q0_m1_R2SCAN-3C E -148.667207372756
  B       0.575290      0.033610     -0.983431
  B       1.569224      1.062530     -0.209696
  B      -1.028457     -0.100255     -0.772387
  B      -0.214957     -0.855999      0.445858
  B       0.885897      0.112878      0.878616
  B      -1.786997     -0.252764      0.641041
6
Coordinates from ORCA-job B6_random_3d_seed1002_d3.00_q0_m1_R2SCAN-3C E -148.681138216553
  B       0.566536      0.087074     -0.953669
  B       1.669738      1.069236     -0.239524
  B      -1.049347     -0.087483     -0.751205
  B      -0.255613     -0.851922      0.546568
  B       0.916022      0.111812      0.814543
  B      -1.847335     -0.328717      0.583286
6
Coordinates from ORCA-job B6_random_3d_seed1002_d3.00_q0_m1_R2SCAN-3C E -148.690203914770
  B       0.545494      0.135864     -0.925769
  B       1.703982      1.043396     -0.262042
  B      -1.021692     -0.085767     -0.743477
  B      -0.309125     -0.818752      0.592681
  B       0.933518      0.111972      0.780366
  B      -1.852177     -0.386713      0.558241
6
Coordinates from ORCA-job B6_random_3d_seed1002_d3.00_q0_m1_R2SCAN-3C E -148.696201155066
  B       0.516050      0.155189     -0.939170
  B       1.687034      0.980942     -0.260734
  B      -1.022117     -0.018851     -0.772329
  B      -0.299878     -0.819611      0.683385
  B       0.962690      0.145111      0.771905
  B      -1.843778     -0.442780      0.516943
6
Coordinates from ORCA-job B6_random_3d_seed1002_d3.00_q0_m1_R2SCAN-3C E -148.703133320624
  B       0.514036      0.192544     -0.953567
  B       1.748443      0.971132     -0.321181
  B      -1.001932      0.015241     -0.729628
  B      -0.345817     -0.794411      0.738717
  B       0.939589      0.137301      0.787050
  B      -1.854320     -0.521806      0.478609
6
Coordinates from ORCA-job B6_random_3d_seed1002_d3.00_q0_m1_R2SCAN-3C E -148.705897911272
  B       0.563668      0.217676     -0.943892
  B       1.789755      0.946512     -0.332052
  B      -1.014419      0.026413     -0.673207
  B      -0.361407     -0.764591      0.748104
  B       0.917517      0.156914      0.734829
  B      -1.895113     -0.582923      0.466218
6
Coordinates from ORCA-job B6_random_3d_seed1002_d3.00_q0_m1_R2SCAN-3C E -148.710098639215
  B       0.540567      0.230477     -0.975972
  B       1.803331      0.916028     -0.337921
  B      -1.000772      0.056290     -0.653207
  B      -0.364386     -0.753904      0.783616
  B       0.921590      0.175506      0.747225
  B      -1.900331     -0.624397      0.436258
6
Coordinates from ORCA-job B6_random_3d_seed1002_d3.00_q0_m1_R2SCAN-3C E -148.712505483380
  B       0.535719      0.242599     -1.007405
  B       1.799970      0.880004     -0.337719
  B      -0.984625      0.091752     -0.629607
  B      -0.374536     -0.748902      0.819787
  B       0.894263      0.191585      0.739793
  B      -1.870792     -0.657037      0.415151
6
Coordinates from ORCA-job B6_random_3d_seed1002_d3.00_q0_m1_R2SCAN-3C E -148.713874311551
  B       0.537136      0.263350     -1.026491
  B       1.806908      0.845931     -0.355072
  B      -0.939046      0.128175     -0.576552
  B      -0.376736     -0.752791      0.874841
  B       0.849160      0.212080      0.707189
  B      -1.877422     -0.696745      0.376086
6
Coordinates from ORCA-job B6_random_3d_seed1002_d3.00_q0_m1_R2SCAN-3C E -148.715012489146
  B       0.556259      0.281963     -1.071716
  B       1.833822      0.829580     -0.349924
  B      -0.928776      0.145955     -0.530776
  B      -0.410362     -0.755606      0.905958
  B       0.815864      0.227784      0.676564
  B      -1.866806     -0.729676      0.369893
6
Coordinates from ORCA-job B6_random_3d_seed1002_d3.00_q0_m1_R2SCAN-3C E -148.715444236080
  B       0.570686      0.273610     -1.087564
  B       1.817570      0.841347     -0.352060
  B      -0.896827      0.161116     -0.516097
  B      -0.415691     -0.782943      0.929879
  B       0.777848      0.221543      0.656177
  B      -1.853587     -0.714673      0.369665
6
Coordinates from ORCA-job B6_random_3d_seed1002_d3.00_q0_m1_R2SCAN-3C E -148.715605760478
  B       0.573897      0.289959     -1.114485
  B       1.801703      0.827118     -0.346769
  B      -0.871242      0.144797     -0.499083
  B      -0.399314     -0.792790      0.937960
  B       0.747599      0.226798      0.657149
  B      -1.852644     -0.695882      0.365228
6
Coordinates from ORCA-job B6_random_3d_seed1002_d3.00_q0_m1_R2SCAN-3C E -148.716221188423
  B       0.582587      0.284282     -1.114858
  B       1.807313      0.842885     -0.345475
  B      -0.861635      0.143486     -0.496178
  B      -0.411212     -0.804656      0.935843
  B       0.743716      0.225817      0.643034
  B      -1.860769     -0.691813      0.377634
6
Coordinates from ORCA-job B6_random_3d_seed1002_d3.00_q0_m1_R2SCAN-3C E -148.716518369676
  B       0.590025      0.283733     -1.120047
  B       1.807760      0.855722     -0.338510
  B      -0.853466      0.127634     -0.497103
  B      -0.416033     -0.816237      0.926234
  B       0.741040      0.225716      0.635363
  B      -1.869327     -0.676567      0.394063
6
Coordinates from ORCA-job B6_random_3d_seed1002_d3.00_q0_m1_R2SCAN-3C E -148.716660849124
  B       0.601668      0.292001     -1.136058
  B       1.800777      0.863762     -0.332052
  B      -0.833946      0.113026     -0.491418
  B      -0.423536     -0.830112      0.931435
  B       0.728012      0.222106      0.622051
  B      -1.872975     -0.660783      0.406043
6
Coordinates from ORCA-job B6_random_3d_seed1002_d3.00_q0_m1_R2SCAN-3C E -148.716788243786
  B       0.602994      0.300725     -1.140066
  B       1.798778      0.869868     -0.326751
  B      -0.830216      0.092752     -0.497738
  B      -0.425380     -0.831762      0.929803
  B       0.733388      0.216569      0.620378
  B      -1.879565     -0.648151      0.414374
6
Coordinates from ORCA-job B6_random_3d_seed1002_d3.00_q0_m1_R2SCAN-3C E -148.717020281295
  B       0.608077      0.313835     -1.151640
  B       1.792509      0.879211     -0.321567
  B      -0.818331      0.074976     -0.501825
  B      -0.431802     -0.835655      0.942970
  B       0.730112      0.201207      0.611471
  B      -1.880564     -0.633573      0.420590
6
Coordinates from ORCA-job B6_random_3d_seed1002_d3.00_q0_m1_R2SCAN-3C E -148.717449023771
  B       0.616399      0.340993     -1.167869
  B       1.781702      0.898987     -0.313922
  B      -0.799322      0.045317     -0.513179
  B      -0.445525     -0.833846      0.977633
  B       0.727892      0.160828      0.590006
  B      -1.881146     -0.612279      0.427332
6
Coordinates from ORCA-job B6_random_3d_seed1002_d3.00_q0_m1_R2SCAN-3C E -148.717587050932
  B       0.618299      0.343560     -1.166234
  B       1.777900      0.910460     -0.310481
  B      -0.802045      0.036020     -0.525204
  B      -0.448379     -0.831325      0.982884
  B       0.733412      0.144414      0.586349
  B      -1.879187     -0.603129      0.432686
6
Coordinates from ORCA-job B6_random_3d_seed1002_d3.00_q0_m1_R2SCAN-3C E -148.717664530850
  B       0.622576      0.349077     -1.170131
  B       1.771994      0.922195     -0.306912
  B      -0.797926      0.022251     -0.533137
  B      -0.454843     -0.834014      0.988223
  B       0.737417      0.130710      0.581851
  B      -1.879218     -0.590219      0.440105
6
Coordinates from ORCA-job B6_random_3d_seed1002_d3.00_q0_m1_R2SCAN-3C E -148.717694251931
  B       0.624264      0.349624     -1.170235
  B       1.765446      0.929402     -0.306382
  B      -0.796427      0.014034     -0.539600
  B      -0.455909     -0.835547      0.986089
  B       0.742760      0.123102      0.585383
  B      -1.880134     -0.580616      0.444746
6
Coordinates from ORCA-job B6_random_3d_seed1002_d3.00_q0_m1_R2SCAN-3C E -148.717704569648
  B       0.624503      0.353553     -1.174635
  B       1.761167      0.932742     -0.304378
  B      -0.791921      0.008004     -0.541303
  B      -0.458566     -0.837135      0.991166
  B       0.744348      0.117391      0.583669
  B      -1.879531     -0.574554      0.445481
6
Coordinates from ORCA-job B6_random_3d_seed1002_d3.00_q0_m1_R2SCAN-3C E -148.717707324412
  B       0.624425      0.353101     -1.174838
  B       1.760156      0.933291     -0.304388
  B      -0.791152      0.007694     -0.540737
  B      -0.458176     -0.837073      0.990594
  B       0.744295      0.116664      0.584078
  B      -1.879548     -0.573678      0.445290
6
Coordinates from ORCA-job B6_random_3d_seed1002_d3.00_q0_m1_R2SCAN-3C E -148.717708655829
  B       0.622812      0.351307     -1.173470
  B       1.758705      0.931388     -0.305531
  B      -0.793172      0.011298     -0.541150
  B      -0.456995     -0.835126      0.989756
  B       0.746760      0.117146      0.587529
  B      -1.878110     -0.576013      0.442866
6
Coordinates from ORCA-job B6_random_3d_seed1002_d3.00_q0_m1_R2SCAN-3C E -148.717714613231
  B       0.623753      0.351186     -1.174456
  B       1.758352      0.933432     -0.305025
  B      -0.791512      0.010178     -0.539820
  B      -0.457689     -0.835815      0.990306
  B       0.746092      0.115659      0.585637
  B      -1.878997     -0.574640      0.443358
6
Coordinates from ORCA-job B6_random_3d_seed1002_d3.00_q0_m1_R2SCAN-3C E -148.717720058430
  B       0.624516      0.350301     -1.175197
  B       1.758013      0.935604     -0.304906
  B      -0.790593      0.010471     -0.538341
  B      -0.458792     -0.835871      0.990987
  B       0.746511      0.113901      0.584273
  B      -1.879655     -0.574406      0.443184
6
Coordinates from ORCA-job B6_random_3d_seed1002_d3.00_q0_m1_R2SCAN-3C E -148.717723449352
  B       0.624923      0.348889     -1.175317
  B       1.757427      0.937382     -0.305300
  B      -0.790462      0.012131     -0.537100
  B      -0.459813     -0.835248      0.991818
  B       0.747943      0.112071      0.583701
  B      -1.880018     -0.575225      0.442199
6
Coordinates from ORCA-job B6_random_3d_seed1002_d3.00_q0_m1_R2SCAN-3C E -148.717723926467
  B       0.624797      0.348470     -1.175230
  B       1.757212      0.937598     -0.305523
  B      -0.790780      0.012876     -0.537051
  B      -0.460106     -0.834798      0.991987
  B       0.748711      0.111611      0.584051
  B      -1.879834     -0.575757      0.441765
6
Coordinates from ORCA-job B6_random_3d_seed1002_d3.00_q0_m1_R2SCAN-3C E -148.717723950946
  B       0.624796      0.348552     -1.175170
  B       1.757087      0.937592     -0.305533
  B      -0.790773      0.012826     -0.537212
  B      -0.460112     -0.834783      0.992105
  B       0.748783      0.111501      0.584048
  B      -1.879781     -0.575689      0.441762
