6
Coordinates from ORCA-job B6_random_3d_seed1003_d2.50_q0_m3_R2SCAN-3C E -148.188861943967
  B       0.245641      1.128679     -1.521570
  B      -0.188163     -1.082174      1.355884
  B      -1.824643      0.248563     -0.065661
  B       1.957133     -0.171984      0.173575
  B       0.108707      1.284490      1.151563
  B      -0.298675     -1.407574     -1.093792
6
Coordinates from ORCA-job B6_random_3d_seed1003_d2.50_q0_m3_R2SCAN-3C E -148.210457330624
  B       0.242370      1.109026     -1.500872
  B      -0.183486     -1.056834      1.327568
  B      -1.794132      0.240724     -0.066496
  B       1.931070     -0.163614      0.176751
  B       0.108177      1.253023      1.135425
  B      -0.303998     -1.382326     -1.072376
6
Coordinates from ORCA-job B6_random_3d_seed1003_d2.50_q0_m3_R2SCAN-3C E -148.233162349781
  B       0.238892      1.089564     -1.480750
  B      -0.178633     -1.031363      1.299701
  B      -1.763007      0.232239     -0.067703
  B       1.904318     -0.154932      0.180627
  B       0.108453      1.221661      1.119758
  B      -0.310023     -1.357168     -1.051633
6
Coordinates from ORCA-job B6_random_3d_seed1003_d2.50_q0_m3_R2SCAN-3C E -148.269239372826
  B       0.233067      1.060640     -1.451076
  B      -0.170992     -0.993720      1.258912
  B      -1.714898      0.218894     -0.070088
  B       1.862224     -0.141775      0.187291
  B       0.110086      1.175568      1.096641
  B      -0.319487     -1.319606     -1.021679
6
Coordinates from ORCA-job B6_random_3d_seed1003_d2.50_q0_m3_R2SCAN-3C E -148.327304040859
  B       0.222116      1.017931     -1.407155
  B      -0.158062     -0.939308      1.200353
  B      -1.639350      0.198336     -0.075591
  B       1.794564     -0.122340      0.199315
  B       0.115027      1.109103      1.062341
  B      -0.334296     -1.263723     -0.979261
6
Coordinates from ORCA-job B6_random_3d_seed1003_d2.50_q0_m3_R2SCAN-3C E -148.394274211291
  B       0.206805      0.974749     -1.361866
  B      -0.141330     -0.883902      1.144511
  B      -1.557050      0.177864     -0.084749
  B       1.718922     -0.103138      0.214693
  B       0.122949      1.042223      1.027550
  B      -0.350297     -1.207796     -0.940139
6
Coordinates from ORCA-job B6_random_3d_seed1003_d2.50_q0_m3_R2SCAN-3C E -148.461422590999
  B       0.193055      0.935180     -1.312342
  B      -0.132556     -0.835790      1.089229
  B      -1.472459      0.153110     -0.094704
  B       1.647352     -0.079588      0.228079
  B       0.134274      0.978519      0.985987
  B      -0.369665     -1.151432     -0.896249
6
Coordinates from ORCA-job B6_random_3d_seed1003_d2.50_q0_m3_R2SCAN-3C E -148.525558058705
  B       0.182704      0.896792     -1.259715
  B      -0.124574     -0.793450      1.038028
  B      -1.393789      0.124366     -0.105386
  B       1.576221     -0.052940      0.243034
  B       0.150756      0.916066      0.936061
  B      -0.391316     -1.090833     -0.852021
6
Coordinates from ORCA-job B6_random_3d_seed1003_d2.50_q0_m3_R2SCAN-3C E -148.581639565533
  B       0.173694      0.854546     -1.201799
  B      -0.110823     -0.761199      0.983279
  B      -1.327542      0.110810     -0.107588
  B       1.500385     -0.038122      0.250915
  B       0.154763      0.858732      0.874986
  B      -0.390477     -1.024767     -0.799793
6
Coordinates from ORCA-job B6_random_3d_seed1003_d2.50_q0_m3_R2SCAN-3C E -148.622425485153
  B       0.154058      0.805727     -1.142871
  B      -0.087369     -0.742578      0.928983
  B      -1.264028      0.132954     -0.099238
  B       1.405058     -0.036919      0.253639
  B       0.149438      0.818621      0.818518
  B      -0.357156     -0.977805     -0.759030
6
Coordinates from ORCA-job B6_random_3d_seed1003_d2.50_q0_m3_R2SCAN-3C E -148.657661329284
  B       0.139535      0.747769     -1.071803
  B      -0.086753     -0.739611      0.884543
  B      -1.188346      0.168687     -0.071368
  B       1.336606     -0.046266      0.223669
  B       0.107412      0.810946      0.768530
  B      -0.308453     -0.941525     -0.733572
6
Coordinates from ORCA-job B6_random_3d_seed1003_d2.50_q0_m3_R2SCAN-3C E -148.679264398359
  B       0.144347      0.690211     -0.990207
  B      -0.097702     -0.744828      0.850290
  B      -1.132014      0.206091     -0.035208
  B       1.275903     -0.054357      0.169113
  B       0.062116      0.829931      0.731064
  B      -0.252649     -0.927049     -0.725052
6
Coordinates from ORCA-job B6_random_3d_seed1003_d2.50_q0_m3_R2SCAN-3C E -148.689388885996
  B       0.161555      0.656553     -0.948388
  B      -0.092494     -0.758764      0.855781
  B      -1.144031      0.216494     -0.035764
  B       1.218216     -0.070696      0.117873
  B       0.062656      0.878902      0.746750
  B      -0.205902     -0.922489     -0.736252
6
Coordinates from ORCA-job B6_random_3d_seed1003_d2.50_q0_m3_R2SCAN-3C E -148.693920564476
  B       0.184332      0.680769     -0.945608
  B      -0.100368     -0.770524      0.879190
  B      -1.157013      0.217229     -0.021361
  B       1.179175     -0.102783      0.071857
  B       0.053502      0.912290      0.754150
  B      -0.159629     -0.936981     -0.738229
6
Coordinates from ORCA-job B6_random_3d_seed1003_d2.50_q0_m3_R2SCAN-3C E -148.695093463506
  B       0.162749      0.690458     -0.945602
  B      -0.106498     -0.763358      0.903788
  B      -1.165556      0.205123     -0.035510
  B       1.175526     -0.137209      0.061079
  B       0.064890      0.923896      0.760398
  B      -0.131110     -0.918911     -0.744152
6
Coordinates from ORCA-job B6_random_3d_seed1003_d2.50_q0_m3_R2SCAN-3C E -148.695831395898
  B       0.154009      0.712505     -0.929191
  B      -0.126358     -0.751284      0.907896
  B      -1.170433      0.183457     -0.040976
  B       1.168514     -0.156411      0.044334
  B       0.082718      0.927160      0.750485
  B      -0.108450     -0.915428     -0.732549
6
Coordinates from ORCA-job B6_random_3d_seed1003_d2.50_q0_m3_R2SCAN-3C E -148.696173674903
  B       0.144199      0.725533     -0.920653
  B      -0.139097     -0.734645      0.917384
  B      -1.172199      0.170317     -0.043219
  B       1.173491     -0.160018      0.046281
  B       0.097048      0.915186      0.739966
  B      -0.103443     -0.916373     -0.739759
6
Coordinates from ORCA-job B6_random_3d_seed1003_d2.50_q0_m3_R2SCAN-3C E -148.696200512303
  B       0.140133      0.729122     -0.919906
  B      -0.139254     -0.731157      0.920388
  B      -1.170937      0.167292     -0.045254
  B       1.170055     -0.165487      0.046689
  B       0.099808      0.915732      0.739782
  B      -0.099805     -0.915502     -0.741699
6
Coordinates from ORCA-job B6_random_3d_seed1003_d2.50_q0_m3_R2SCAN-3C E -148.696203697382
  B       0.139764      0.729557     -0.921129
  B      -0.139709     -0.730604      0.920193
  B      -1.170718      0.165790     -0.045413
  B       1.170509     -0.165773      0.047452
  B       0.100664      0.916357      0.740952
  B      -0.100510     -0.915327     -0.742056
6
Coordinates from ORCA-job B6_random_3d_seed1003_d2.50_q0_m3_R2SCAN-3C E -148.696204101677
  B       0.139816      0.729480     -0.920715
  B      -0.139880     -0.730133      0.920264
  B      -1.170692      0.165667     -0.045445
  B       1.170330     -0.165961      0.046938
  B       0.100613      0.916352      0.741106
  B      -0.100187     -0.915405     -0.742147
6
Coordinates from ORCA-job B6_random_3d_seed1003_d2.50_q0_m3_R2SCAN-3C E -148.696204238444
  B       0.139576      0.729892     -0.919965
  B      -0.139982     -0.729713      0.920369
  B      -1.170615      0.165604     -0.045931
  B       1.170433     -0.166300      0.046377
  B       0.100614      0.916502      0.741230
  B      -0.100025     -0.915984     -0.742079
6
Coordinates from ORCA-job B6_random_3d_seed1003_d2.50_q0_m3_R2SCAN-3C E -148.696204377290
  B       0.139728      0.729748     -0.920280
  B      -0.139900     -0.729809      0.920349
  B      -1.170593      0.165687     -0.045908
  B       1.170475     -0.166085      0.046425
  B       0.100507      0.916362      0.741419
  B      -0.100217     -0.915903     -0.742005
6
Coordinates from ORCA-job B6_random_3d_seed1003_d2.50_q0_m3_R2SCAN-3C E -148.696204367462
  B       0.140013      0.729478     -0.920609
  B      -0.139600     -0.730110      0.920199
  B      -1.170490      0.166079     -0.045981
  B       1.170572     -0.165592      0.046466
  B       0.100179      0.916128      0.741681
  B      -0.100674     -0.915983     -0.741757
