6
Coordinates from ORCA-job B6_random_3d_seed1003_d2.50_q0_m3_R2SCAN-3C E -148.696204367462
  B           0.14001277602222      0.72947798202129     -0.92060930424417
  B          -0.13959998426978     -0.73010990905003      0.92019936517077
  B          -1.17048988721395      0.16607930581223     -0.04598063321012
  B           1.17057198707538     -0.16559246258094      0.04646621393353
  B           0.10017863536982      0.91612803485706      0.74168148320652
  B          -0.10067354698370     -0.91598296105961     -0.74175712485653
