6
Coordinates from ORCA-job B6_trigonal_prism_d2.00_q0_m5_R2SCAN-3C E -148.451758354754
  B       1.000000      0.577350     -1.000000
  B      -1.000000      0.577350     -1.000000
  B      -0.000000     -1.154701     -1.000000
  B       1.000000      0.577350      1.000000
  B      -1.000000      0.577350      1.000000
  B      -0.000000     -1.154701      1.000000
6
Coordinates from ORCA-job B6_trigonal_prism_d2.00_q0_m5_R2SCAN-3C E -148.479901474940
  B       0.968220      0.559009     -0.991001
  B      -0.968220      0.559009     -0.991001
  B       0.000000     -1.118018     -0.990996
  B       0.968220      0.559009      0.991001
  B      -0.968220      0.559009      0.991001
  B      -0.000000     -1.118018      0.990996
6
Coordinates from ORCA-job B6_trigonal_prism_d2.00_q0_m5_R2SCAN-3C E -148.506210751877
  B       0.936074      0.540434     -0.985365
  B      -0.936074      0.540434     -0.985365
  B       0.000000     -1.080868     -0.985341
  B       0.936074      0.540434      0.985365
  B      -0.936074      0.540434      0.985365
  B       0.000000     -1.080868      0.985341
6
Coordinates from ORCA-job B6_trigonal_prism_d2.00_q0_m5_R2SCAN-3C E -148.539457987296
  B       0.887541      0.512429     -0.981231
  B      -0.887541      0.512429     -0.981231
  B      -0.000000     -1.024859     -0.981167
  B       0.887541      0.512429      0.981231
  B      -0.887541      0.512429      0.981231
  B       0.000000     -1.024859      0.981167
6
Coordinates from ORCA-job B6_trigonal_prism_d2.00_q0_m5_R2SCAN-3C E -148.560265707196
  B       0.814760      0.470382     -0.975672
  B      -0.814760      0.470382     -0.975672
  B      -0.000000     -0.940763     -0.975540
  B       0.814760      0.470382      0.975672
  B      -0.814760      0.470382      0.975672
  B       0.000000     -0.940763      0.975540
6
Coordinates from ORCA-job B6_trigonal_prism_d2.00_q0_m5_R2SCAN-3C E -148.560670429569
  B       0.825894      0.476837     -0.972095
  B      -0.825894      0.476837     -0.972095
  B      -0.000000     -0.953673     -0.971949
  B       0.825894      0.476837      0.972095
  B      -0.825894      0.476837      0.972095
  B       0.000000     -0.953673      0.971949
6
Coordinates from ORCA-job B6_trigonal_prism_d2.00_q0_m5_R2SCAN-3C E -148.560736969445
  B       0.822995      0.475175     -0.970789
  B      -0.822995      0.475175     -0.970789
  B       0.000000     -0.950350     -0.970636
  B       0.822995      0.475175      0.970789
  B      -0.822995      0.475175      0.970789
  B       0.000000     -0.950350      0.970636
6
Coordinates from ORCA-job B6_trigonal_prism_d2.00_q0_m5_R2SCAN-3C E -148.560738995656
  B       0.822750      0.475030     -0.969954
  B      -0.822750      0.475030     -0.969954
  B      -0.000000     -0.950060     -0.969790
  B       0.822750      0.475030      0.969954
  B      -0.822750      0.475030      0.969954
  B       0.000000     -0.950060      0.969790
6
Coordinates from ORCA-job B6_trigonal_prism_d2.00_q0_m5_R2SCAN-3C E -148.560739116812
  B       0.822770      0.475046     -0.969689
  B      -0.822770      0.475046     -0.969689
  B       0.000000     -0.950092     -0.969520
  B       0.822770      0.475046      0.969689
  B      -0.822770      0.475046      0.969689
  B      -0.000000     -0.950092      0.969520
6
Coordinates from ORCA-job B6_trigonal_prism_d2.00_q0_m5_R2SCAN-3C E -148.560739120289
  B       0.822780      0.475051     -0.969664
  B      -0.822780      0.475051     -0.969664
  B       0.000000     -0.950102     -0.969493
  B       0.822780      0.475051      0.969664
  B      -0.822780      0.475051      0.969664
  B      -0.000000     -0.950102      0.969493
