6
Coordinates from ORCA-job B6_trigonal_prism_d2.00_q0_m5_R2SCAN-3C E -148.560739120289
  B           0.82277959029070      0.47505115141530     -0.96966393869980
  B          -0.82277959554338      0.47505114563122     -0.96966394309996
  B           0.00000000231185     -0.95010227857646     -0.96949281748569
  B           0.82277959888642      0.47505113176615      0.96966392963742
  B          -0.82277959371870      0.47505113769728      0.96966392766905
  B          -0.00000000222689     -0.95010228793348      0.96949284197897
