6
Coordinates from ORCA-job B6_random_3d_seed1003_d1.80_q0_m3_R2SCAN-3C E -148.696205634308
  B           0.14092906645115      0.72687926116145     -0.92234410479239
  B          -0.14042769475920     -0.72704577670263      0.92233260229607
  B          -1.17143764946206      0.15802140867166     -0.05311125365899
  B           1.17126278273675     -0.15883330196648      0.05393007475439
  B           0.09019410439920      0.92002210847733      0.73825601142969
  B          -0.09052060936584     -0.91904369964134     -0.73906332002877
