6
Coordinates from ORCA-job B6_random_3d_seed1003_d1.80_q0_m3_R2SCAN-3C E -148.612662182135
  B       0.180771      0.814190     -1.108283
  B      -0.134788     -0.776986      0.975735
  B      -1.320168      0.175948     -0.051023
  B       1.426160     -0.114685      0.137354
  B       0.070263      0.919897      0.831125
  B      -0.222237     -1.018364     -0.784907
6
Coordinates from ORCA-job B6_random_3d_seed1003_d1.80_q0_m3_R2SCAN-3C E -148.639170543820
  B       0.177204      0.786762     -1.075272
  B      -0.130252     -0.761981      0.952314
  B      -1.291694      0.174705     -0.049731
  B       1.393909     -0.111310      0.131695
  B       0.066658      0.903652      0.810469
  B      -0.215825     -0.991828     -0.769476
6
Coordinates from ORCA-job B6_random_3d_seed1003_d1.80_q0_m3_R2SCAN-3C E -148.661141758683
  B       0.172727      0.761243     -1.042220
  B      -0.126662     -0.748751      0.929466
  B      -1.259688      0.174306     -0.047774
  B       1.360351     -0.109129      0.125101
  B       0.061623      0.889718      0.789490
  B      -0.208351     -0.967386     -0.754064
6
Coordinates from ORCA-job B6_random_3d_seed1003_d1.80_q0_m3_R2SCAN-3C E -148.683432916420
  B       0.165853      0.725323     -0.991433
  B      -0.122148     -0.733923      0.898953
  B      -1.209196      0.176257     -0.043793
  B       1.304789     -0.108549      0.111404
  B       0.052815      0.876103      0.758408
  B      -0.192113     -0.935211     -0.733539
6
Coordinates from ORCA-job B6_random_3d_seed1003_d1.80_q0_m3_R2SCAN-3C E -148.691507200557
  B       0.160246      0.695160     -0.940052
  B      -0.118631     -0.726856      0.879159
  B      -1.161337      0.181285     -0.040071
  B       1.238759     -0.114492      0.088697
  B       0.044994      0.876724      0.731900
  B      -0.164030     -0.911819     -0.719633
6
Coordinates from ORCA-job B6_random_3d_seed1003_d1.80_q0_m3_R2SCAN-3C E -148.693418093755
  B       0.161397      0.697131     -0.935269
  B      -0.118840     -0.731182      0.887486
  B      -1.162048      0.181688     -0.041685
  B       1.221240     -0.121280      0.078290
  B       0.048368      0.889079      0.735370
  B      -0.150117     -0.915436     -0.724192
6
Coordinates from ORCA-job B6_random_3d_seed1003_d1.80_q0_m3_R2SCAN-3C E -148.695828018472
  B       0.162047      0.707570     -0.927079
  B      -0.120092     -0.741799      0.911399
  B      -1.165392      0.179038     -0.048313
  B       1.171223     -0.141147      0.053028
  B       0.063433      0.920589      0.745703
  B      -0.111218     -0.924251     -0.734738
6
Coordinates from ORCA-job B6_random_3d_seed1003_d1.80_q0_m3_R2SCAN-3C E -148.695956973714
  B       0.158954      0.712652     -0.929773
  B      -0.122060     -0.741722      0.914873
  B      -1.169381      0.175836     -0.050318
  B       1.173926     -0.143572      0.055345
  B       0.068548      0.921122      0.745698
  B      -0.109987     -0.924316     -0.735824
6
Coordinates from ORCA-job B6_random_3d_seed1003_d1.80_q0_m3_R2SCAN-3C E -148.696080710195
  B       0.153194      0.718544     -0.928809
  B      -0.126240     -0.739516      0.918709
  B      -1.171311      0.170017     -0.052872
  B       1.171393     -0.148648      0.056087
  B       0.076964      0.921296      0.742828
  B      -0.103999     -0.921693     -0.735942
6
Coordinates from ORCA-job B6_random_3d_seed1003_d1.80_q0_m3_R2SCAN-3C E -148.696166871890
  B       0.146061      0.724409     -0.925972
  B      -0.133236     -0.734340      0.921821
  B      -1.172368      0.162297     -0.054411
  B       1.169669     -0.154537      0.056179
  B       0.086375      0.919997      0.738468
  B      -0.096502     -0.917826     -0.736084
6
Coordinates from ORCA-job B6_random_3d_seed1003_d1.80_q0_m3_R2SCAN-3C E -148.696190143290
  B       0.143213      0.726217     -0.924228
  B      -0.137169     -0.730869      0.922598
  B      -1.172407      0.159137     -0.054053
  B       1.169876     -0.157080      0.055335
  B       0.089475      0.919562      0.737299
  B      -0.092987     -0.916968     -0.736950
6
Coordinates from ORCA-job B6_random_3d_seed1003_d1.80_q0_m3_R2SCAN-3C E -148.696202779780
  B       0.141361      0.726975     -0.922756
  B      -0.140158     -0.727785      0.922707
  B      -1.172076      0.157468     -0.053265
  B       1.170667     -0.158803      0.054226
  B       0.090744      0.919678      0.737406
  B      -0.090538     -0.917533     -0.738318
6
Coordinates from ORCA-job B6_random_3d_seed1003_d1.80_q0_m3_R2SCAN-3C E -148.696205222267
  B       0.141036      0.726882     -0.922417
  B      -0.140551     -0.727063      0.922429
  B      -1.171690      0.157695     -0.053019
  B       1.171220     -0.158926      0.053960
  B       0.090394      0.919901      0.737970
  B      -0.090409     -0.918490     -0.738923
6
Coordinates from ORCA-job B6_random_3d_seed1003_d1.80_q0_m3_R2SCAN-3C E -148.696205634308
  B       0.140929      0.726879     -0.922344
  B      -0.140428     -0.727046      0.922333
  B      -1.171438      0.158021     -0.053111
  B       1.171263     -0.158833      0.053930
  B       0.090194      0.920022      0.738256
  B      -0.090521     -0.919044     -0.739063
