6
Coordinates from ORCA-job B6_random_3d_seed1004_d2.20_q0_m1_R2SCAN-3C E -148.372043667456
  B      -0.665284     -0.601684      1.341603
  B       1.030102      0.937415      1.020253
  B       1.135437     -1.181509      0.466820
  B      -1.526947      0.119852     -0.507963
  B       0.013358      1.496804     -0.916684
  B       0.013335     -0.770877     -1.404029
6
Coordinates from ORCA-job B6_random_3d_seed1004_d2.20_q0_m1_R2SCAN-3C E -148.406588977625
  B      -0.646172     -0.587347      1.306535
  B       1.007199      0.927393      0.996717
  B       1.096410     -1.159201      0.451546
  B      -1.480594      0.108666     -0.496888
  B       0.013763      1.471895     -0.888178
  B       0.009395     -0.761406     -1.369732
6
Coordinates from ORCA-job B6_random_3d_seed1004_d2.20_q0_m1_R2SCAN-3C E -148.440758222510
  B      -0.626263     -0.571905      1.271425
  B       0.983330      0.916205      0.973216
  B       1.058596     -1.137166      0.436049
  B      -1.435081      0.099499     -0.486462
  B       0.013053      1.446319     -0.858969
  B       0.006364     -0.752952     -1.335258
6
Coordinates from ORCA-job B6_random_3d_seed1004_d2.20_q0_m1_R2SCAN-3C E -148.489992763852
  B      -0.592737     -0.545754      1.219533
  B       0.945312      0.896890      0.939847
  B       1.005271     -1.105473      0.413095
  B      -1.366852      0.091950     -0.475326
  B       0.007276      1.407385     -0.812797
  B       0.001730     -0.744998     -1.284352
6
Coordinates from ORCA-job B6_random_3d_seed1004_d2.20_q0_m1_R2SCAN-3C E -148.555273676088
  B      -0.535671     -0.497184      1.144335
  B       0.883320      0.857834      0.893841
  B       0.932634     -1.058701      0.375457
  B      -1.272908      0.093158     -0.465156
  B      -0.009059      1.349228     -0.740259
  B       0.001685     -0.744335     -1.208219
6
Coordinates from ORCA-job B6_random_3d_seed1004_d2.20_q0_m1_R2SCAN-3C E -148.605588431591
  B      -0.482866     -0.434024      1.071654
  B       0.821990      0.803785      0.845400
  B       0.882427     -1.008980      0.337305
  B      -1.195655      0.110422     -0.466492
  B      -0.033873      1.290430     -0.652499
  B       0.007977     -0.761633     -1.135368
6
Coordinates from ORCA-job B6_random_3d_seed1004_d2.20_q0_m1_R2SCAN-3C E -148.644985077938
  B      -0.454594     -0.355436      0.978404
  B       0.778520      0.731711      0.788028
  B       0.868907     -0.949161      0.308646
  B      -1.156400      0.121646     -0.470500
  B      -0.051337      1.257069     -0.541906
  B       0.014905     -0.805830     -1.062672
6
Coordinates from ORCA-job B6_random_3d_seed1004_d2.20_q0_m1_R2SCAN-3C E -148.664082857423
  B      -0.476355     -0.312588      0.900008
  B       0.780187      0.701201      0.746450
  B       0.881220     -0.912354      0.288963
  B      -1.159853      0.115331     -0.464173
  B      -0.047619      1.256301     -0.460531
  B       0.022420     -0.847889     -1.010718
6
Coordinates from ORCA-job B6_random_3d_seed1004_d2.20_q0_m1_R2SCAN-3C E -148.688903597758
  B      -0.490503     -0.266503      0.809461
  B       0.846266      0.642135      0.745788
  B       0.936068     -0.863558      0.316908
  B      -1.191579      0.107659     -0.513960
  B      -0.085200      1.279351     -0.386665
  B      -0.015053     -0.899083     -0.971533
6
Coordinates from ORCA-job B6_random_3d_seed1004_d2.20_q0_m1_R2SCAN-3C E -148.709490734433
  B      -0.499270     -0.233958      0.742930
  B       0.908868      0.665100      0.752836
  B       0.980461     -0.880762      0.306929
  B      -1.217117      0.109366     -0.593452
  B      -0.123516      1.316429     -0.290582
  B      -0.049426     -0.976176     -0.918661
6
Coordinates from ORCA-job B6_random_3d_seed1004_d2.20_q0_m1_R2SCAN-3C E -148.722178594490
  B      -0.468211     -0.204942      0.677623
  B       0.946411      0.658670      0.750929
  B       1.002869     -0.869860      0.310639
  B      -1.202600      0.124934     -0.667059
  B      -0.180136      1.330941     -0.205022
  B      -0.098333     -1.039742     -0.867109
6
Coordinates from ORCA-job B6_random_3d_seed1004_d2.20_q0_m1_R2SCAN-3C E -148.730602638854
  B      -0.439553     -0.191483      0.630314
  B       0.961355      0.674241      0.738728
  B       1.013490     -0.875826      0.298363
  B      -1.165275      0.153776     -0.729924
  B      -0.231740      1.338600     -0.126852
  B      -0.138277     -1.099308     -0.810629
6
Coordinates from ORCA-job B6_random_3d_seed1004_d2.20_q0_m1_R2SCAN-3C E -148.735052228852
  B      -0.413874     -0.193166      0.613495
  B       0.968311      0.680368      0.720707
  B       1.025632     -0.870822      0.287889
  B      -1.126448      0.176610     -0.797661
  B      -0.271985      1.345619     -0.063801
  B      -0.181637     -1.138609     -0.760628
6
Coordinates from ORCA-job B6_random_3d_seed1004_d2.20_q0_m1_R2SCAN-3C E -148.736393192465
  B      -0.418702     -0.173876      0.597235
  B       0.982608      0.681212      0.698605
  B       1.036171     -0.877361      0.272167
  B      -1.077734      0.195697     -0.835883
  B      -0.319157      1.339160     -0.013182
  B      -0.203185     -1.164832     -0.718942
6
Coordinates from ORCA-job B6_random_3d_seed1004_d2.20_q0_m1_R2SCAN-3C E -148.736867521369
  B      -0.419531     -0.197951      0.604811
  B       0.978111      0.686034      0.693299
  B       1.039787     -0.869776      0.260378
  B      -1.060268      0.199445     -0.856129
  B      -0.319235      1.352469     -0.003261
  B      -0.218864     -1.170221     -0.699098
6
Coordinates from ORCA-job B6_random_3d_seed1004_d2.20_q0_m1_R2SCAN-3C E -148.736843722728
  B      -0.421253     -0.183794      0.624190
  B       0.975995      0.686096      0.686282
  B       1.040091     -0.869550      0.262194
  B      -1.059275      0.192991     -0.865581
  B      -0.316126      1.345084      0.005151
  B      -0.219431     -1.170826     -0.712236
6
Coordinates from ORCA-job B6_random_3d_seed1004_d2.20_q0_m1_R2SCAN-3C E -148.737088355577
  B      -0.424521     -0.188465      0.617275
  B       0.980567      0.682384      0.688841
  B       1.039241     -0.868494      0.260989
  B      -1.060918      0.197990     -0.859963
  B      -0.319698      1.343572     -0.001797
  B      -0.214672     -1.166987     -0.705345
6
Coordinates from ORCA-job B6_random_3d_seed1004_d2.20_q0_m1_R2SCAN-3C E -148.737093427304
  B      -0.424942     -0.190012      0.615329
  B       0.979297      0.684526      0.689014
  B       1.041415     -0.868021      0.259922
  B      -1.058583      0.198580     -0.860980
  B      -0.318899      1.342581     -0.000243
  B      -0.218289     -1.167655     -0.703041
6
Coordinates from ORCA-job B6_random_3d_seed1004_d2.20_q0_m1_R2SCAN-3C E -148.737097144725
  B      -0.424874     -0.189372      0.616567
  B       0.979800      0.684003      0.689224
  B       1.040597     -0.868142      0.259126
  B      -1.058635      0.198186     -0.861757
  B      -0.319409      1.342772     -0.000285
  B      -0.217479     -1.167448     -0.702876
6
Coordinates from ORCA-job B6_random_3d_seed1004_d2.20_q0_m1_R2SCAN-3C E -148.737097605286
  B      -0.424956     -0.189338      0.616875
  B       0.979789      0.683867      0.689661
  B       1.040776     -0.867860      0.258786
  B      -1.058795      0.198234     -0.861913
  B      -0.319230      1.342401     -0.000658
  B      -0.217583     -1.167304     -0.702750
6
Coordinates from ORCA-job B6_random_3d_seed1004_d2.20_q0_m1_R2SCAN-3C E -148.737097923759
  B      -0.424972     -0.189320      0.616987
  B       0.979612      0.683841      0.690407
  B       1.041068     -0.867523      0.258050
  B      -1.058774      0.198232     -0.862166
  B      -0.318974      1.342154     -0.000972
  B      -0.217959     -1.167383     -0.702306
6
Coordinates from ORCA-job B6_random_3d_seed1004_d2.20_q0_m1_R2SCAN-3C E -148.737098016692
  B      -0.424939     -0.189292      0.616910
  B       0.979409      0.683800      0.690796
  B       1.041246     -0.867353      0.257723
  B      -1.058771      0.198221     -0.862132
  B      -0.318794      1.342176     -0.001145
  B      -0.218151     -1.167551     -0.702153
6
Coordinates from ORCA-job B6_random_3d_seed1004_d2.20_q0_m1_R2SCAN-3C E -148.737098042138
  B      -0.424918     -0.189277      0.616845
  B       0.979256      0.683748      0.690971
  B       1.041324     -0.867296      0.257564
  B      -1.058749      0.198190     -0.862032
  B      -0.318703      1.342311     -0.001243
  B      -0.218210     -1.167677     -0.702105
