6
Coordinates from ORCA-job B6_random_3d_seed1004_d2.20_q0_m1_R2SCAN-3C E -148.737098042138
  B          -0.42491815659436     -0.18927720533272      0.61684506703418
  B           0.97925603062459      0.68374821035958      0.69097129568686
  B           1.04132404890437     -0.86729588185895      0.25756404625455
  B          -1.05874925137423      0.19819034197277     -0.86203234134783
  B          -0.31870281390715      1.34231135609246     -0.00124276574176
  B          -0.21820985765321     -1.16767682123315     -0.70210530188601
