6
Coordinates from ORCA-job B6_random_3d_seed1000_d2.20_q0_m5_R2SCAN-3C E -148.328184112699
  B       0.672779     -0.697438      1.381913
  B       1.755413     -0.196714     -0.496730
  B      -0.037105     -1.604077     -0.604332
  B      -0.749191      0.786207      1.173302
  B      -0.106844      1.668577     -0.743057
  B      -1.535052      0.043445     -0.711097
6
Coordinates from ORCA-job B6_random_3d_seed1000_d2.20_q0_m5_R2SCAN-3C E -148.358506264659
  B       0.661074     -0.681919      1.347040
  B       1.723865     -0.205477     -0.478724
  B      -0.032786     -1.568395     -0.588968
  B      -0.731299      0.766904      1.140350
  B      -0.120902      1.637678     -0.726258
  B      -1.499952      0.051211     -0.693440
6
Coordinates from ORCA-job B6_random_3d_seed1000_d2.20_q0_m5_R2SCAN-3C E -148.389493386265
  B       0.650800     -0.667746      1.311570
  B       1.693219     -0.214397     -0.459742
  B      -0.028603     -1.533105     -0.572849
  B      -0.714002      0.748005      1.107366
  B      -0.136428      1.606677     -0.710100
  B      -1.464986      0.060565     -0.676246
6
Coordinates from ORCA-job B6_random_3d_seed1000_d2.20_q0_m5_R2SCAN-3C E -148.436691998243
  B       0.638160     -0.649257      1.256521
  B       1.647091     -0.227485     -0.429466
  B      -0.022360     -1.479701     -0.546913
  B      -0.689417      0.720669      1.058822
  B      -0.160151      1.560160     -0.687338
  B      -1.413323      0.075615     -0.651626
6
Coordinates from ORCA-job B6_random_3d_seed1000_d2.20_q0_m5_R2SCAN-3C E -148.504441247094
  B       0.624903     -0.626939      1.169647
  B       1.578141     -0.244699     -0.379489
  B      -0.015257     -1.398101     -0.503837
  B      -0.654925      0.679225      0.988377
  B      -0.195160      1.490842     -0.658030
  B      -1.337701      0.099672     -0.616667
6
Coordinates from ORCA-job B6_random_3d_seed1000_d2.20_q0_m5_R2SCAN-3C E -148.560608011071
  B       0.623365     -0.610052      1.080145
  B       1.517879     -0.257712     -0.318246
  B      -0.024387     -1.304955     -0.450434
  B      -0.616514      0.620253      0.924068
  B      -0.236051      1.423277     -0.644342
  B      -1.264292      0.129189     -0.591191
6
Coordinates from ORCA-job B6_random_3d_seed1000_d2.20_q0_m5_R2SCAN-3C E -148.590688400890
  B       0.634695     -0.591346      0.999515
  B       1.460020     -0.254782     -0.255198
  B      -0.070061     -1.184283     -0.385453
  B      -0.569720      0.528638      0.876775
  B      -0.257821      1.365489     -0.648587
  B      -1.197114      0.136283     -0.587051
6
Coordinates from ORCA-job B6_random_3d_seed1000_d2.20_q0_m5_R2SCAN-3C E -148.600736746687
  B       0.645572     -0.580717      1.010333
  B       1.441162     -0.230730     -0.272844
  B      -0.139215     -1.082876     -0.330869
  B      -0.552509      0.440441      0.857802
  B      -0.241646      1.338962     -0.649960
  B      -1.153363      0.114919     -0.614461
6
Coordinates from ORCA-job B6_random_3d_seed1000_d2.20_q0_m5_R2SCAN-3C E -148.615652729420
  B       0.723140     -0.610271      1.036917
  B       1.433009     -0.237403     -0.260626
  B      -0.167827     -1.018590     -0.263623
  B      -0.551479      0.376217      0.821866
  B      -0.255858      1.349869     -0.659803
  B      -1.180985      0.140178     -0.674732
6
Coordinates from ORCA-job B6_random_3d_seed1000_d2.20_q0_m5_R2SCAN-3C E -148.624736705937
  B       0.807525     -0.672586      1.121235
  B       1.432766     -0.232661     -0.235201
  B      -0.198226     -0.921191     -0.211411
  B      -0.492606      0.299382      0.765980
  B      -0.287842      1.353264     -0.687106
  B      -1.261617      0.173791     -0.753497
6
Coordinates from ORCA-job B6_random_3d_seed1000_d2.20_q0_m5_R2SCAN-3C E -148.628024542451
  B       0.806276     -0.670273      1.139900
  B       1.431896     -0.238142     -0.227813
  B      -0.185500     -0.973128     -0.276035
  B      -0.477242      0.362796      0.800058
  B      -0.283211      1.364883     -0.675044
  B      -1.292220      0.153864     -0.761066
6
Coordinates from ORCA-job B6_random_3d_seed1000_d2.20_q0_m5_R2SCAN-3C E -148.631091006211
  B       0.808560     -0.660497      1.142887
  B       1.411138     -0.241142     -0.206407
  B      -0.201679     -0.938579     -0.301614
  B      -0.439683      0.360776      0.797655
  B      -0.295371      1.333839     -0.666419
  B      -1.282965      0.145603     -0.766101
6
Coordinates from ORCA-job B6_random_3d_seed1000_d2.20_q0_m5_R2SCAN-3C E -148.633260426372
  B       0.791451     -0.666069      1.170536
  B       1.394277     -0.229468     -0.205012
  B      -0.199117     -0.905578     -0.319020
  B      -0.387004      0.355505      0.789815
  B      -0.300081      1.305727     -0.661517
  B      -1.299525      0.139882     -0.774802
6
Coordinates from ORCA-job B6_random_3d_seed1000_d2.20_q0_m5_R2SCAN-3C E -148.634018182319
  B       0.785863     -0.670687      1.182203
  B       1.392238     -0.222299     -0.189169
  B      -0.200327     -0.892573     -0.345880
  B      -0.355187      0.367426      0.784169
  B      -0.293727      1.291667     -0.655960
  B      -1.328860      0.126466     -0.775363
6
Coordinates from ORCA-job B6_random_3d_seed1000_d2.20_q0_m5_R2SCAN-3C E -148.634415535159
  B       0.774710     -0.677376      1.198306
  B       1.398560     -0.218232     -0.182082
  B      -0.188669     -0.888742     -0.379045
  B      -0.335360      0.384413      0.790356
  B      -0.299035      1.268109     -0.660565
  B      -1.350205      0.131828     -0.766970
6
Coordinates from ORCA-job B6_random_3d_seed1000_d2.20_q0_m5_R2SCAN-3C E -148.634652328108
  B       0.770380     -0.678688      1.192347
  B       1.393738     -0.214551     -0.178663
  B      -0.185285     -0.884429     -0.386085
  B      -0.336754      0.386552      0.798356
  B      -0.289669      1.265747     -0.668049
  B      -1.352411      0.125369     -0.757906
6
Coordinates from ORCA-job B6_random_3d_seed1000_d2.20_q0_m5_R2SCAN-3C E -148.634878366551
  B       0.768880     -0.683698      1.187117
  B       1.390195     -0.202747     -0.171438
  B      -0.184693     -0.873703     -0.398358
  B      -0.340107      0.389705      0.806269
  B      -0.273783      1.248388     -0.678402
  B      -1.360493      0.122055     -0.745189
6
Coordinates from ORCA-job B6_random_3d_seed1000_d2.20_q0_m5_R2SCAN-3C E -148.636151238961
  B       0.759206     -0.692286      1.165755
  B       1.363989     -0.146633     -0.155198
  B      -0.180148     -0.838555     -0.441034
  B      -0.353754      0.394676      0.840743
  B      -0.199584      1.164865     -0.708353
  B      -1.389710      0.117933     -0.701912
6
Coordinates from ORCA-job B6_random_3d_seed1000_d2.20_q0_m5_R2SCAN-3C E -148.638708607207
  B       0.757434     -0.696283      1.151167
  B       1.328776     -0.091747     -0.155264
  B      -0.182123     -0.819705     -0.469694
  B      -0.370312      0.399978      0.869409
  B      -0.128955      1.090219     -0.718920
  B      -1.404820      0.117538     -0.676697
6
Coordinates from ORCA-job B6_random_3d_seed1000_d2.20_q0_m5_R2SCAN-3C E -148.642192680341
  B       0.762084     -0.694344      1.141016
  B       1.291430     -0.046585     -0.164285
  B      -0.190350     -0.830576     -0.475137
  B      -0.380192      0.398705      0.885661
  B      -0.076463      1.048656     -0.713997
  B      -1.406509      0.124144     -0.673258
6
Coordinates from ORCA-job B6_random_3d_seed1000_d2.20_q0_m5_R2SCAN-3C E -148.645208227568
  B       0.768828     -0.697129      1.147549
  B       1.267290     -0.016690     -0.172737
  B      -0.191802     -0.860715     -0.471074
  B      -0.374665      0.394899      0.888579
  B      -0.059042      1.036292     -0.707783
  B      -1.410608      0.143343     -0.684535
6
Coordinates from ORCA-job B6_random_3d_seed1000_d2.20_q0_m5_R2SCAN-3C E -148.646691003556
  B       0.776052     -0.698503      1.150383
  B       1.250511      0.004967     -0.175608
  B      -0.199488     -0.873891     -0.469162
  B      -0.372449      0.390116      0.891306
  B      -0.049510      1.021060     -0.705835
  B      -1.405117      0.156251     -0.691083
6
Coordinates from ORCA-job B6_random_3d_seed1000_d2.20_q0_m5_R2SCAN-3C E -148.648066971118
  B       0.792440     -0.704586      1.155834
  B       1.234889      0.031240     -0.174430
  B      -0.209826     -0.900421     -0.456515
  B      -0.371539      0.377714      0.889960
  B      -0.050342      1.011313     -0.711438
  B      -1.395622      0.184740     -0.703411
6
Coordinates from ORCA-job B6_random_3d_seed1000_d2.20_q0_m5_R2SCAN-3C E -148.647803252134
  B       0.809631     -0.700038      1.130028
  B       1.207927      0.068322     -0.176612
  B      -0.233055     -0.912468     -0.438915
  B      -0.400010      0.365036      0.898530
  B      -0.002506      0.987435     -0.712349
  B      -1.381986      0.191713     -0.700681
6
Coordinates from ORCA-job B6_random_3d_seed1000_d2.20_q0_m5_R2SCAN-3C E -148.648898040860
  B       0.818159     -0.702204      1.133696
  B       1.224418      0.058109     -0.180992
  B      -0.243287     -0.933122     -0.405037
  B      -0.403628      0.346532      0.881659
  B      -0.028742      1.026038     -0.714490
  B      -1.366920      0.204647     -0.714835
6
Coordinates from ORCA-job B6_random_3d_seed1000_d2.20_q0_m5_R2SCAN-3C E -148.649056321943
  B       0.808583     -0.711998      1.136668
  B       1.230622      0.068122     -0.167866
  B      -0.229615     -0.920569     -0.423644
  B      -0.398738      0.352201      0.888130
  B      -0.028191      1.003061     -0.735549
  B      -1.382661      0.209182     -0.697738
6
Coordinates from ORCA-job B6_random_3d_seed1000_d2.20_q0_m5_R2SCAN-3C E -148.649183991401
  B       0.809623     -0.711024      1.127550
  B       1.231568      0.074083     -0.169019
  B      -0.233596     -0.922410     -0.412984
  B      -0.410939      0.344877      0.886305
  B      -0.019282      1.003321     -0.739885
  B      -1.377374      0.211153     -0.691967
6
Coordinates from ORCA-job B6_random_3d_seed1000_d2.20_q0_m5_R2SCAN-3C E -148.649264902956
  B       0.810753     -0.711518      1.121235
  B       1.233784      0.082806     -0.166049
  B      -0.236171     -0.922752     -0.405606
  B      -0.422484      0.335010      0.881858
  B      -0.011890      0.999003     -0.750310
  B      -1.373992      0.217452     -0.681129
6
Coordinates from ORCA-job B6_random_3d_seed1000_d2.20_q0_m5_R2SCAN-3C E -148.649619664140
  B       0.812054     -0.710164      1.113827
  B       1.239194      0.098085     -0.158725
  B      -0.236039     -0.920561     -0.403193
  B      -0.448860      0.316056      0.873150
  B       0.003886      0.984232     -0.775655
  B      -1.370235      0.232352     -0.649405
6
Coordinates from ORCA-job B6_random_3d_seed1000_d2.20_q0_m5_R2SCAN-3C E -148.652007893467
  B       0.811203     -0.705131      1.101042
  B       1.248405      0.129476     -0.144497
  B      -0.230590     -0.911417     -0.410585
  B      -0.503994      0.281168      0.858088
  B       0.038241      0.943024     -0.827242
  B      -1.363265      0.262879     -0.576806
6
Coordinates from ORCA-job B6_random_3d_seed1000_d2.20_q0_m5_R2SCAN-3C E -148.656085345461
  B       0.796867     -0.701004      1.106196
  B       1.247986      0.152016     -0.124229
  B      -0.207761     -0.888221     -0.461612
  B      -0.513396      0.274522      0.867037
  B       0.056493      0.879497     -0.864727
  B      -1.380188      0.283191     -0.522666
6
Coordinates from ORCA-job B6_random_3d_seed1000_d2.20_q0_m5_R2SCAN-3C E -148.659743705948
  B       0.783400     -0.690343      1.131142
  B       1.237858      0.158076     -0.127824
  B      -0.181497     -0.877444     -0.513162
  B      -0.507757      0.270504      0.882491
  B       0.065661      0.838392     -0.876898
  B      -1.397664      0.300816     -0.495750
6
Coordinates from ORCA-job B6_random_3d_seed1000_d2.20_q0_m5_R2SCAN-3C E -148.662465297922
  B       0.774054     -0.679510      1.152390
  B       1.238487      0.150770     -0.135729
  B      -0.156036     -0.876111     -0.539855
  B      -0.515990      0.259545      0.882640
  B       0.064782      0.826575     -0.890296
  B      -1.405297      0.318730     -0.469151
6
Coordinates from ORCA-job B6_random_3d_seed1000_d2.20_q0_m5_R2SCAN-3C E -148.665943292939
  B       0.771388     -0.667052      1.195199
  B       1.232226      0.124945     -0.137384
  B      -0.112487     -0.874050     -0.580940
  B      -0.505657      0.246734      0.886344
  B       0.041453      0.819204     -0.908380
  B      -1.426925      0.350220     -0.454840
6
Coordinates from ORCA-job B6_random_3d_seed1000_d2.20_q0_m5_R2SCAN-3C E -148.667829116660
  B       0.776079     -0.654886      1.213889
  B       1.215762      0.127939     -0.117406
  B      -0.075529     -0.860918     -0.609258
  B      -0.524595      0.211540      0.866871
  B       0.041017      0.775551     -0.953596
  B      -1.432734      0.400774     -0.400499
6
Coordinates from ORCA-job B6_random_3d_seed1000_d2.20_q0_m5_R2SCAN-3C E -148.666323322023
  B       0.811388     -0.625719      1.267059
  B       1.176168      0.098181     -0.146509
  B      -0.056034     -0.944983     -0.585046
  B      -0.521312      0.153139      0.821261
  B       0.025627      0.859731     -0.938269
  B      -1.435836      0.459651     -0.418496
6
Coordinates from ORCA-job B6_random_3d_seed1000_d2.20_q0_m5_R2SCAN-3C E -148.668017188720
  B       0.813048     -0.637110      1.252322
  B       1.183942      0.120431     -0.103498
  B      -0.071824     -0.914041     -0.618105
  B      -0.486679      0.169397      0.857322
  B       0.020176      0.801358     -0.947355
  B      -1.458662      0.459964     -0.440686
6
Coordinates from ORCA-job B6_random_3d_seed1000_d2.20_q0_m5_R2SCAN-3C E -148.669310007747
  B       0.800801     -0.639652      1.222633
  B       1.212138      0.132763     -0.107727
  B      -0.083498     -0.883968     -0.609799
  B      -0.521054      0.178180      0.864304
  B       0.039706      0.773975     -0.949623
  B      -1.448094      0.438703     -0.419788
6
Coordinates from ORCA-job B6_random_3d_seed1000_d2.20_q0_m5_R2SCAN-3C E -148.669475008725
  B       0.805815     -0.640108      1.229155
  B       1.208476      0.139924     -0.106766
  B      -0.084680     -0.899233     -0.601992
  B      -0.522854      0.164489      0.853871
  B       0.036569      0.782169     -0.957378
  B      -1.443325      0.452759     -0.416890
6
Coordinates from ORCA-job B6_random_3d_seed1000_d2.20_q0_m5_R2SCAN-3C E -148.669578732833
  B       0.809777     -0.639093      1.233384
  B       1.207137      0.140859     -0.105862
  B      -0.083141     -0.896172     -0.600458
  B      -0.522585      0.155199      0.852526
  B       0.035451      0.777567     -0.961423
  B      -1.446639      0.461640     -0.418166
6
Coordinates from ORCA-job B6_random_3d_seed1000_d2.20_q0_m5_R2SCAN-3C E -148.669684289488
  B       0.811988     -0.635474      1.229410
  B       1.211754      0.145822     -0.107403
  B      -0.086290     -0.895246     -0.591188
  B      -0.528867      0.140895      0.852718
  B       0.038052      0.773336     -0.963777
  B      -1.446638      0.470668     -0.419760
6
Coordinates from ORCA-job B6_random_3d_seed1000_d2.20_q0_m5_R2SCAN-3C E -148.669723016773
  B       0.813722     -0.633611      1.223021
  B       1.217212      0.150058     -0.110816
  B      -0.089776     -0.896744     -0.578971
  B      -0.536735      0.130558      0.853299
  B       0.040607      0.773668     -0.963702
  B      -1.445030      0.476070     -0.422831
6
Coordinates from ORCA-job B6_random_3d_seed1000_d2.20_q0_m5_R2SCAN-3C E -148.669727597082
  B       0.812777     -0.633939      1.220967
  B       1.218142      0.150826     -0.111849
  B      -0.089323     -0.897998     -0.576622
  B      -0.538114      0.130391      0.853962
  B       0.040639      0.774447     -0.963371
  B      -1.444121      0.476272     -0.423086
6
Coordinates from ORCA-job B6_random_3d_seed1000_d2.20_q0_m5_R2SCAN-3C E -148.669732957132
  B       0.811406     -0.635618      1.218075
  B       1.218938      0.152006     -0.113060
  B      -0.087261     -0.899655     -0.573020
  B      -0.539804      0.131165      0.854572
  B       0.040190      0.775170     -0.963319
  B      -1.443469      0.476933     -0.423249
6
Coordinates from ORCA-job B6_random_3d_seed1000_d2.20_q0_m5_R2SCAN-3C E -148.669741258289
  B       0.808783     -0.639288      1.213473
  B       1.219477      0.154494     -0.114231
  B      -0.082425     -0.902261     -0.567555
  B      -0.541626      0.133054      0.855088
  B       0.038987      0.775057     -0.963941
  B      -1.443197      0.478944     -0.422835
6
Coordinates from ORCA-job B6_random_3d_seed1000_d2.20_q0_m5_R2SCAN-3C E -148.669753047383
  B       0.804548     -0.646304      1.206219
  B       1.219595      0.159217     -0.115026
  B      -0.073049     -0.906303     -0.558953
  B      -0.543599      0.136537      0.854989
  B       0.036495      0.773221     -0.965686
  B      -1.443991      0.483633     -0.421543
6
Coordinates from ORCA-job B6_random_3d_seed1000_d2.20_q0_m5_R2SCAN-3C E -148.669761665572
  B       0.802256     -0.650875      1.202908
  B       1.218846      0.162398     -0.114391
  B      -0.066273     -0.908628     -0.554990
  B      -0.543612      0.138616      0.853742
  B       0.034515      0.770496     -0.967299
  B      -1.445732      0.487993     -0.419970
6
Coordinates from ORCA-job B6_random_3d_seed1000_d2.20_q0_m5_R2SCAN-3C E -148.669766681607
  B       0.801812     -0.652666      1.202824
  B       1.218060      0.163886     -0.112950
  B      -0.062627     -0.909446     -0.555023
  B      -0.542587      0.139204      0.851941
  B       0.033192      0.767521     -0.968248
  B      -1.447850      0.491501     -0.418544
6
Coordinates from ORCA-job B6_random_3d_seed1000_d2.20_q0_m5_R2SCAN-3C E -148.669767176449
  B       0.801834     -0.652671      1.202709
  B       1.218226      0.164139     -0.112759
  B      -0.062045     -0.909721     -0.555135
  B      -0.542634      0.139122      0.851545
  B       0.032947      0.766742     -0.968014
  B      -1.448328      0.492389     -0.418346
6
Coordinates from ORCA-job B6_random_3d_seed1000_d2.20_q0_m5_R2SCAN-3C E -148.669767378264
  B       0.801907     -0.652324      1.202827
  B       1.218437      0.163995     -0.112860
  B      -0.061846     -0.910035     -0.555418
  B      -0.542759      0.139007      0.851274
  B       0.032804      0.766548     -0.967530
  B      -1.448543      0.492808     -0.418293
6
Coordinates from ORCA-job B6_random_3d_seed1000_d2.20_q0_m5_R2SCAN-3C E -148.669767415455
  B       0.801804     -0.652435      1.202589
  B       1.218550      0.164093     -0.112971
  B      -0.061592     -0.910265     -0.555135
  B      -0.542923      0.139069      0.851233
  B       0.032697      0.766553     -0.967422
  B      -1.448536      0.492985     -0.418294
