6
Coordinates from ORCA-job B6_random_3d_seed1000_d2.20_q0_m5_R2SCAN-3C E -148.669767415455
  B           0.80180449769472     -0.65243544347958      1.20258852003821
  B           1.21855013174816      0.16409274675601     -0.11297058230095
  B          -0.06159179114288     -0.91026471653531     -0.55513493680501
  B          -0.54292331164637      0.13906910203272      0.85123260564891
  B           0.03269665821111      0.76655289411647     -0.96742195414743
  B          -1.44853618486473      0.49298541710968     -0.41829366243373
