6
Coordinates from ORCA-job B6_octahedral_3d_d1.60_q0_m3_R2SCAN-3C E -148.696303343644
  B           1.18296110734371      0.00000002628575      0.00000000021714
  B          -1.18296103463856      0.00000002620262      0.00000000069216
  B          -0.00000001776921      1.18296102091438     -0.00000000026963
  B          -0.00000001785234     -1.18296112774889     -0.00000000016808
  B          -0.00000001877932      0.00000002712229      1.18296107402548
  B          -0.00000001830429      0.00000002722385     -1.18296107449707
