6
Coordinates from ORCA-job B6_octahedral_3d_d1.60_q0_m3_R2SCAN-3C E -148.679873575906
  B       1.131371      0.000000      0.000000
  B      -1.131371      0.000000      0.000000
  B       0.000000      1.131371      0.000000
  B       0.000000     -1.131371      0.000000
  B       0.000000      0.000000      1.131371
  B       0.000000      0.000000     -1.131371
6
Coordinates from ORCA-job B6_octahedral_3d_d1.60_q0_m3_R2SCAN-3C E -148.690238649161
  B       1.150954      0.000000     -0.000000
  B      -1.150954      0.000000      0.000000
  B       0.000000      1.150954      0.000000
  B       0.000000     -1.150954     -0.000000
  B      -0.000000      0.000000      1.150954
  B      -0.000000     -0.000000     -1.150954
6
Coordinates from ORCA-job B6_octahedral_3d_d1.60_q0_m3_R2SCAN-3C E -148.696085192333
  B       1.176723     -0.000000      0.000000
  B      -1.176723     -0.000000      0.000000
  B       0.000000      1.176723      0.000000
  B       0.000000     -1.176723      0.000000
  B       0.000000     -0.000000      1.176723
  B       0.000000     -0.000000     -1.176723
6
Coordinates from ORCA-job B6_octahedral_3d_d1.60_q0_m3_R2SCAN-3C E -148.696301295668
  B       1.182353      0.000000      0.000000
  B      -1.182353      0.000000      0.000000
  B      -0.000000      1.182353      0.000000
  B      -0.000000     -1.182353      0.000000
  B      -0.000000      0.000000      1.182353
  B      -0.000000      0.000000     -1.182353
6
Coordinates from ORCA-job B6_octahedral_3d_d1.60_q0_m3_R2SCAN-3C E -148.696303341258
  B       1.182949      0.000000      0.000000
  B      -1.182949      0.000000      0.000000
  B      -0.000000      1.182949      0.000000
  B      -0.000000     -1.182949      0.000000
  B      -0.000000      0.000000      1.182949
  B      -0.000000      0.000000     -1.182949
6
Coordinates from ORCA-job B6_octahedral_3d_d1.60_q0_m3_R2SCAN-3C E -148.696303343644
  B       1.182961      0.000000      0.000000
  B      -1.182961      0.000000      0.000000
  B      -0.000000      1.182961     -0.000000
  B      -0.000000     -1.182961     -0.000000
  B      -0.000000      0.000000      1.182961
  B      -0.000000      0.000000     -1.182961
