6
Coordinates from ORCA-job B6_linear_chain_d3.50_q0_m3_R2SCAN-3C E -147.852532666069
  B      -8.750000      0.000000      0.000000
  B      -5.250000      0.000000      0.000000
  B      -1.750000      0.000000      0.000000
  B       1.750000      0.000000      0.000000
  B       5.250000      0.000000      0.000000
  B       8.750000      0.000000      0.000000
6
Coordinates from ORCA-job B6_linear_chain_d3.50_q0_m3_R2SCAN-3C E -147.855965311121
  B      -8.632596      0.000075     -0.000077
  B      -5.222386     -0.000100      0.000100
  B      -1.772692     -0.000091      0.000094
  B       1.752110      0.000100     -0.000097
  B       5.222386      0.000100     -0.000101
  B       8.653179     -0.000083      0.000081
6
Coordinates from ORCA-job B6_linear_chain_d3.50_q0_m3_R2SCAN-3C E -147.880257330029
  B      -8.239655      0.001225      0.000125
  B      -4.960371     -0.000888      0.001750
  B      -1.642007     -0.000684      0.001050
  B       1.874491      0.000820     -0.001063
  B       4.960847      0.000730     -0.001592
  B       8.006695     -0.001203     -0.000269
6
Coordinates from ORCA-job B6_linear_chain_d3.50_q0_m3_R2SCAN-3C E -147.891058693226
  B      -8.103792      0.001556     -0.000244
  B      -4.876785     -0.001689      0.002520
  B      -1.612845     -0.001619      0.001971
  B       1.890200      0.002026     -0.002217
  B       4.877417      0.002576     -0.003381
  B       7.825805     -0.002851      0.001351
6
Coordinates from ORCA-job B6_linear_chain_d3.50_q0_m3_R2SCAN-3C E -147.903247341121
  B      -7.973185      0.001190      0.000036
  B      -4.791377     -0.002798      0.003519
  B      -1.583911     -0.002047      0.002349
  B       1.908195      0.004390     -0.004304
  B       4.795748      0.005243     -0.005765
  B       7.644530     -0.005978      0.004165
6
Coordinates from ORCA-job B6_linear_chain_d3.50_q0_m3_R2SCAN-3C E -147.917298345807
  B      -7.846432      0.001137      0.000052
  B      -4.706582     -0.003806      0.004418
  B      -1.554539     -0.002413      0.002665
  B       1.927488      0.006185     -0.005888
  B       4.717512      0.006748     -0.007114
  B       7.462554     -0.007850      0.005868
6
Coordinates from ORCA-job B6_linear_chain_d3.50_q0_m3_R2SCAN-3C E -147.941921228107
  B      -7.667932      0.001688     -0.000472
  B      -4.583428     -0.004874      0.005365
  B      -1.508295     -0.003103      0.003258
  B       1.963941      0.007526     -0.007073
  B       4.604719      0.006995     -0.007348
  B       7.190996     -0.008232      0.006271
