6
Coordinates from ORCA-job B6_linear_chain_d3.50_q0_m3_R2SCAN-3C
  B          -7.45625107065331      0.00285068217124     -0.00157329899224
  B          -4.44504441502244     -0.00599523122600      0.00638198549687
  B          -1.47313647427676     -0.00426530350983      0.00427258239904
  B           1.99428261864024      0.00864510148703     -0.00804753141503
  B           4.47630559815843      0.00607013967100     -0.00652482787849
  B           6.90384374315384     -0.00730538859344      0.00549109038985
