6
Coordinates from ORCA-job B6_planar_ring_d1.80_q0_m1_R2SCAN-3C E -148.495773253857
  B       1.800000     -0.000000      0.000000
  B       0.900000      1.558846      0.000000
  B      -0.900000      1.558846      0.000000
  B      -1.800000      0.000000      0.000000
  B      -0.900000     -1.558846      0.000000
  B       0.900000     -1.558846      0.000000
6
Coordinates from ORCA-job B6_planar_ring_d1.80_q0_m1_R2SCAN-3C E -148.553673019892
  B       1.758424     -0.000000     -0.000000
  B       0.880664      1.486182      0.000000
  B      -0.880664      1.486182     -0.000000
  B      -1.758424      0.000000     -0.000000
  B      -0.880664     -1.486182      0.000000
  B       0.880664     -1.486182      0.000000
6
Coordinates from ORCA-job B6_planar_ring_d1.80_q0_m1_R2SCAN-3C E -148.601825501245
  B       1.724696     -0.000000     -0.000000
  B       0.862909      1.409467      0.000000
  B      -0.862909      1.409467      0.000000
  B      -1.724696      0.000000     -0.000000
  B      -0.862909     -1.409467      0.000000
  B       0.862909     -1.409467      0.000000
6
Coordinates from ORCA-job B6_planar_ring_d1.80_q0_m1_R2SCAN-3C E -148.646562012496
  B       1.688417     -0.000000     -0.000000
  B       0.835963      1.287574      0.000000
  B      -0.835963      1.287574      0.000000
  B      -1.688417      0.000000     -0.000000
  B      -0.835963     -1.287574      0.000000
  B       0.835963     -1.287574     -0.000000
6
Coordinates from ORCA-job B6_planar_ring_d1.80_q0_m1_R2SCAN-3C E -148.656988873420
  B       1.703221     -0.000000     -0.000000
  B       0.811479      1.192168      0.000000
  B      -0.811479      1.192168     -0.000000
  B      -1.703221      0.000000      0.000000
  B      -0.811479     -1.192168      0.000000
  B       0.811479     -1.192168      0.000000
6
Coordinates from ORCA-job B6_planar_ring_d1.80_q0_m1_R2SCAN-3C E -148.664623908544
  B       1.762742     -0.000000      0.000000
  B       0.802646      1.132553     -0.000000
  B      -0.802646      1.132553     -0.000000
  B      -1.762742      0.000000      0.000000
  B      -0.802646     -1.132553     -0.000000
  B       0.802646     -1.132553      0.000000
6
Coordinates from ORCA-job B6_planar_ring_d1.80_q0_m1_R2SCAN-3C E -148.676937295560
  B       1.939323     -0.000000     -0.000000
  B       0.798307      0.961764      0.000000
  B      -0.798307      0.961764     -0.000000
  B      -1.939323      0.000000     -0.000000
  B      -0.798307     -0.961764      0.000000
  B       0.798307     -0.961764      0.000000
6
Coordinates from ORCA-job B6_planar_ring_d1.80_q0_m1_R2SCAN-3C E -148.677388580566
  B       1.917629     -0.000000      0.000000
  B       0.802459      1.019924     -0.000000
  B      -0.802459      1.019924     -0.000000
  B      -1.917629      0.000000      0.000000
  B      -0.802459     -1.019924     -0.000000
  B       0.802459     -1.019924     -0.000000
6
Coordinates from ORCA-job B6_planar_ring_d1.80_q0_m1_R2SCAN-3C E -148.677852852890
  B       1.934392     -0.000000      0.000000
  B       0.803458      0.996178     -0.000000
  B      -0.803458      0.996178     -0.000000
  B      -1.934392      0.000000      0.000000
  B      -0.803458     -0.996178     -0.000000
  B       0.803458     -0.996178     -0.000000
6
Coordinates from ORCA-job B6_planar_ring_d1.80_q0_m1_R2SCAN-3C E -148.677864571819
  B       1.937336     -0.000000      0.000000
  B       0.803258      0.991000     -0.000000
  B      -0.803258      0.991000     -0.000000
  B      -1.937336      0.000000      0.000000
  B      -0.803258     -0.991000     -0.000000
  B       0.803258     -0.991000     -0.000000
6
Coordinates from ORCA-job B6_planar_ring_d1.80_q0_m1_R2SCAN-3C E -148.677865030990
  B       1.936684     -0.000000      0.000001
  B       0.803320      0.991873     -0.000000
  B      -0.803320      0.991873     -0.000000
  B      -1.936684      0.000000      0.000001
  B      -0.803320     -0.991873     -0.000000
  B       0.803320     -0.991873     -0.000000
6
Coordinates from ORCA-job B6_planar_ring_d1.80_q0_m1_R2SCAN-3C E -148.677865034019
  B       1.936746     -0.000000      0.000003
  B       0.803307      0.991841     -0.000002
  B      -0.803306      0.991841     -0.000002
  B      -1.936747      0.000000      0.000003
  B      -0.803306     -0.991841     -0.000002
  B       0.803307     -0.991841     -0.000002
