6
Coordinates from ORCA-job B6_planar_ring_d1.80_q0_m1_R2SCAN-3C E -148.677865034019
  B           1.93674568923465     -0.00000000436820      0.00000327048969
  B           0.80330675403663      0.99184069021079     -0.00000163525919
  B          -0.80330633846778      0.99184119656684     -0.00000163560161
  B          -1.93674654848332      0.00000000320216      0.00000327123191
  B          -0.80330632439749     -0.99184118030462     -0.00000163595025
  B           0.80330676807732     -0.99184070530697     -0.00000163491055
