6
Coordinates from ORCA-job B6_random_3d_seed1003_d3.50_q0_m3_R2SCAN-3C E -147.909337250607
  B       0.324351      1.572447     -2.066432
  B      -0.266872     -1.525942      1.900746
  B      -2.522376      0.363074     -0.073189
  B       2.654865     -0.286495      0.181103
  B       0.192219      1.822967      1.602195
  B      -0.382187     -1.946051     -1.544423
6
Coordinates from ORCA-job B6_random_3d_seed1003_d3.50_q0_m3_R2SCAN-3C E -147.917598926010
  B       0.324366      1.557461     -2.047749
  B      -0.260662     -1.501174      1.870053
  B      -2.491198      0.359096     -0.077728
  B       2.631466     -0.276390      0.179079
  B       0.185671      1.787578      1.590091
  B      -0.389643     -1.926570     -1.513745
6
Coordinates from ORCA-job B6_random_3d_seed1003_d3.50_q0_m3_R2SCAN-3C E -147.926228735662
  B       0.324172      1.542579     -2.028986
  B      -0.254524     -1.476082      1.839311
  B      -2.460318      0.354750     -0.082237
  B       2.608128     -0.266530      0.177357
  B       0.179511      1.752109      1.577725
  B      -0.396969     -1.906826     -1.483170
6
Coordinates from ORCA-job B6_random_3d_seed1003_d3.50_q0_m3_R2SCAN-3C E -147.939890441361
  B       0.323540      1.520278     -2.000607
  B      -0.245642     -1.438231      1.793499
  B      -2.414001      0.347492     -0.088613
  B       2.572558     -0.252301      0.175147
  B       0.170913      1.699280      1.558477
  B      -0.407368     -1.876518     -1.437903
6
Coordinates from ORCA-job B6_random_3d_seed1003_d3.50_q0_m3_R2SCAN-3C E -147.962085744729
  B       0.322164      1.486899     -1.957836
  B      -0.233104     -1.380916      1.725423
  B      -2.344628      0.334980     -0.097224
  B       2.518413     -0.231977      0.172524
  B       0.159124      1.620534      1.528247
  B      -0.421969     -1.829520     -1.371133
6
Coordinates from ORCA-job B6_random_3d_seed1003_d3.50_q0_m3_R2SCAN-3C E -147.987521041200
  B       0.320836      1.453039     -1.914405
  B      -0.220877     -1.319888      1.654969
  B      -2.273983      0.319573     -0.105562
  B       2.463614     -0.211617      0.170879
  B       0.147894      1.537734      1.496022
  B      -0.437483     -1.778841     -1.301903
6
Coordinates from ORCA-job B6_random_3d_seed1003_d3.50_q0_m3_R2SCAN-3C E -148.015880828644
  B       0.319802      1.419953     -1.872447
  B      -0.209722     -1.256698      1.585014
  B      -2.204678      0.301245     -0.113248
  B       2.410567     -0.191816      0.170268
  B       0.137702      1.453295      1.463362
  B      -0.453671     -1.725979     -1.232948
6
Coordinates from ORCA-job B6_random_3d_seed1003_d3.50_q0_m3_R2SCAN-3C E -148.047678533513
  B       0.319196      1.387718     -1.832325
  B      -0.199784     -1.191772      1.515973
  B      -2.136556      0.279589     -0.120451
  B       2.359181     -0.172336      0.170741
  B       0.128885      1.367681      1.430609
  B      -0.470923     -1.670879     -1.164547
6
Coordinates from ORCA-job B6_random_3d_seed1003_d3.50_q0_m3_R2SCAN-3C E -148.083504441517
  B       0.319052      1.356383     -1.794389
  B      -0.191491     -1.126131      1.448312
  B      -2.069214      0.254367     -0.127172
  B       2.309145     -0.152813      0.172349
  B       0.121964      1.281935      1.398085
  B      -0.489456     -1.613740     -1.097184
6
Coordinates from ORCA-job B6_random_3d_seed1003_d3.50_q0_m3_R2SCAN-3C E -148.124091146377
  B       0.319213      1.326307     -1.758898
  B      -0.184812     -1.059798      1.382254
  B      -2.002475      0.225426     -0.133610
  B       2.259962     -0.133178      0.175401
  B       0.117525      1.196201      1.366006
  B      -0.509413     -1.554958     -1.031154
6
Coordinates from ORCA-job B6_random_3d_seed1003_d3.50_q0_m3_R2SCAN-3C E -148.154729697150
  B       0.319319      1.307553     -1.737153
  B      -0.180737     -1.011876      1.338978
  B      -1.959254      0.203555     -0.138322
  B       2.228768     -0.120045      0.178881
  B       0.116033      1.135239      1.344780
  B      -0.524129     -1.514426     -0.987163
6
Coordinates from ORCA-job B6_random_3d_seed1003_d3.50_q0_m3_R2SCAN-3C E -148.187772162727
  B       0.318919      1.289855     -1.716343
  B      -0.176953     -0.964322      1.296365
  B      -1.915657      0.180109     -0.143174
  B       2.197117     -0.107230      0.183734
  B       0.116056      1.074738      1.322930
  B      -0.539482     -1.473151     -0.943512
6
Coordinates from ORCA-job B6_random_3d_seed1003_d3.50_q0_m3_R2SCAN-3C E -148.240920161679
  B       0.316924      1.264891     -1.685456
  B      -0.172181     -0.899590      1.233175
  B      -1.847477      0.142776     -0.150396
  B       2.146532     -0.089157      0.193156
  B       0.119060      0.991325      1.288238
  B      -0.562858     -1.410246     -0.878717
6
Coordinates from ORCA-job B6_random_3d_seed1003_d3.50_q0_m3_R2SCAN-3C E -148.297576100974
  B       0.313165      1.242325     -1.654892
  B      -0.167695     -0.837594      1.170330
  B      -1.778660      0.103759     -0.157575
  B       2.094602     -0.073024      0.205253
  B       0.124295      0.910489      1.250070
  B      -0.585707     -1.345955     -0.813187
6
Coordinates from ORCA-job B6_random_3d_seed1003_d3.50_q0_m3_R2SCAN-3C E -148.354092123745
  B       0.308944      1.222112     -1.622930
  B      -0.167162     -0.788031      1.105569
  B      -1.707560      0.063238     -0.162766
  B       2.041007     -0.058174      0.218502
  B       0.131990      0.841293      1.206625
  B      -0.607218     -1.280438     -0.745000
6
Coordinates from ORCA-job B6_random_3d_seed1003_d3.50_q0_m3_R2SCAN-3C E -148.391012743644
  B       0.307558      1.209643     -1.600309
  B      -0.173452     -0.766519      1.055523
  B      -1.655663      0.031858     -0.163947
  B       2.004779     -0.046381      0.228180
  B       0.140670      0.805448      1.174424
  B      -0.623892     -1.234048     -0.693872
6
Coordinates from ORCA-job B6_random_3d_seed1003_d3.50_q0_m3_R2SCAN-3C E -148.413123771739
  B       0.307570      1.198889     -1.582261
  B      -0.180474     -0.758678      1.018860
  B      -1.620969      0.016805     -0.160718
  B       1.974284     -0.036133      0.233763
  B       0.149442      0.787596      1.151824
  B      -0.629853     -1.208480     -0.661468
6
Coordinates from ORCA-job B6_random_3d_seed1003_d3.50_q0_m3_R2SCAN-3C E -148.442198560819
  B       0.308901      1.178114     -1.551011
  B      -0.191951     -0.751385      0.963431
  B      -1.571609      0.007470     -0.149672
  B       1.916577     -0.016274      0.241042
  B       0.167501      0.764687      1.117045
  B      -0.629419     -1.182611     -0.620836
6
Coordinates from ORCA-job B6_random_3d_seed1003_d3.50_q0_m3_R2SCAN-3C E -148.477766283718
  B       0.312330      1.138227     -1.496548
  B      -0.202106     -0.742715      0.895381
  B      -1.505669      0.015321     -0.129869
  B       1.813602      0.018561      0.247026
  B       0.199770      0.736158      1.068366
  B      -0.617926     -1.165551     -0.584357
6
Coordinates from ORCA-job B6_random_3d_seed1003_d3.50_q0_m3_R2SCAN-3C E -148.508856287714
  B       0.315213      1.091575     -1.434409
  B      -0.199495     -0.736441      0.853619
  B      -1.445389      0.033799     -0.116039
  B       1.700959      0.055688      0.249474
  B       0.238248      0.718596      1.024907
  B      -0.609537     -1.163218     -0.577553
6
Coordinates from ORCA-job B6_random_3d_seed1003_d3.50_q0_m3_R2SCAN-3C E -148.529987470422
  B       0.317386      1.054336     -1.384638
  B      -0.193925     -0.737830      0.837302
  B      -1.408465      0.060012     -0.108134
  B       1.621515      0.084375      0.245718
  B       0.265202      0.713876      0.997294
  B      -0.601714     -1.174769     -0.587541
6
Coordinates from ORCA-job B6_random_3d_seed1003_d3.50_q0_m3_R2SCAN-3C E -148.543149615828
  B       0.319967      1.025318     -1.344760
  B      -0.191575     -0.744596      0.834913
  B      -1.385460      0.084200     -0.104488
  B       1.577273      0.102829      0.231808
  B       0.274589      0.719786      0.984054
  B      -0.594793     -1.187537     -0.601526
6
Coordinates from ORCA-job B6_random_3d_seed1003_d3.50_q0_m3_R2SCAN-3C E -148.561554336496
  B       0.325204      0.977719     -1.277002
  B      -0.189951     -0.753519      0.833244
  B      -1.347530      0.117515     -0.102325
  B       1.522489      0.126850      0.197127
  B       0.272884      0.728881      0.966415
  B      -0.583095     -1.197446     -0.617458
6
Coordinates from ORCA-job B6_random_3d_seed1003_d3.50_q0_m3_R2SCAN-3C E -148.586865448437
  B       0.324690      0.911330     -1.183955
  B      -0.188351     -0.768982      0.834726
  B      -1.289847      0.165944     -0.103567
  B       1.452016      0.155504      0.148859
  B       0.265868      0.742515      0.942400
  B      -0.564377     -1.206311     -0.638463
6
Coordinates from ORCA-job B6_random_3d_seed1003_d3.50_q0_m3_R2SCAN-3C E -148.620119642018
  B       0.320982      0.847181     -1.090550
  B      -0.187239     -0.788619      0.837757
  B      -1.226686      0.217221     -0.107177
  B       1.381610      0.181390      0.098959
  B       0.255310      0.757297      0.917270
  B      -0.543978     -1.214470     -0.656259
6
Coordinates from ORCA-job B6_random_3d_seed1003_d3.50_q0_m3_R2SCAN-3C E -148.635811725898
  B       0.321493      0.804844     -1.025907
  B      -0.186435     -0.801180      0.840329
  B      -1.176609      0.251289     -0.106304
  B       1.332180      0.195529      0.058680
  B       0.239341      0.769479      0.901437
  B      -0.529971     -1.219962     -0.668235
6
Coordinates from ORCA-job B6_random_3d_seed1003_d3.50_q0_m3_R2SCAN-3C E -148.647041296218
  B       0.310454      0.784043     -0.998945
  B      -0.185581     -0.800398      0.836670
  B      -1.152177      0.262534     -0.109059
  B       1.342958      0.182007      0.026647
  B       0.202770      0.777725      0.908669
  B      -0.518424     -1.205912     -0.663982
6
Coordinates from ORCA-job B6_random_3d_seed1003_d3.50_q0_m3_R2SCAN-3C E -148.659461126399
  B       0.259705      0.756595     -0.960255
  B      -0.177140     -0.799983      0.835396
  B      -1.094917      0.290156     -0.122501
  B       1.343327      0.164951      0.019723
  B       0.168822      0.766019      0.882370
  B      -0.499797     -1.177738     -0.654732
6
Coordinates from ORCA-job B6_random_3d_seed1003_d3.50_q0_m3_R2SCAN-3C E -148.664032299162
  B       0.216429      0.748039     -0.927794
  B      -0.166609     -0.816955      0.879990
  B      -1.056565      0.314982     -0.131462
  B       1.365175      0.120247     -0.005468
  B       0.109215      0.764797      0.844219
  B      -0.467645     -1.131109     -0.659486
6
Coordinates from ORCA-job B6_random_3d_seed1003_d3.50_q0_m3_R2SCAN-3C E -148.668225694718
  B       0.236270      0.749077     -0.932309
  B      -0.145100     -0.801164      0.877324
  B      -1.084150      0.305621     -0.115097
  B       1.332986      0.076821     -0.014329
  B       0.091900      0.764203      0.837121
  B      -0.431906     -1.094558     -0.652709
6
Coordinates from ORCA-job B6_random_3d_seed1003_d3.50_q0_m3_R2SCAN-3C E -148.676454171253
  B       0.244307      0.731673     -0.934757
  B      -0.107051     -0.791783      0.874876
  B      -1.136830      0.294393     -0.104833
  B       1.267745      0.002657     -0.013926
  B       0.096197      0.795300      0.838497
  B      -0.364367     -1.032241     -0.659856
6
Coordinates from ORCA-job B6_random_3d_seed1003_d3.50_q0_m3_R2SCAN-3C E -148.684515599749
  B       0.244194      0.710055     -0.935506
  B      -0.076549     -0.781012      0.877701
  B      -1.179476      0.284048     -0.086349
  B       1.211977     -0.071445     -0.012647
  B       0.093504      0.819763      0.827725
  B      -0.293651     -0.961408     -0.670924
6
Coordinates from ORCA-job B6_random_3d_seed1003_d3.50_q0_m3_R2SCAN-3C E -148.690022933604
  B       0.215275      0.701328     -0.942693
  B      -0.073342     -0.788143      0.902210
  B      -1.192944      0.277985     -0.075835
  B       1.201386     -0.121573     -0.001475
  B       0.098087      0.847005      0.816556
  B      -0.248461     -0.916603     -0.698763
6
Coordinates from ORCA-job B6_random_3d_seed1003_d3.50_q0_m3_R2SCAN-3C E -148.692710974730
  B       0.201896      0.701475     -0.925708
  B      -0.073757     -0.778464      0.900438
  B      -1.183848      0.272793     -0.063952
  B       1.177002     -0.154596     -0.004766
  B       0.093987      0.857861      0.797740
  B      -0.215280     -0.899068     -0.703752
6
Coordinates from ORCA-job B6_random_3d_seed1003_d3.50_q0_m3_R2SCAN-3C E -148.694662406783
  B       0.166525      0.721732     -0.897091
  B      -0.110442     -0.764093      0.912867
  B      -1.152817      0.255716     -0.047810
  B       1.182689     -0.180696     -0.006512
  B       0.103967      0.878584      0.772461
  B      -0.189922     -0.911244     -0.733915
6
Coordinates from ORCA-job B6_random_3d_seed1003_d3.50_q0_m3_R2SCAN-3C E -148.695544838242
  B       0.163062      0.730395     -0.900326
  B      -0.132540     -0.743563      0.918954
  B      -1.156607      0.220826     -0.033570
  B       1.160859     -0.207025     -0.014245
  B       0.124037      0.893794      0.775610
  B      -0.158812     -0.894427     -0.746422
6
Coordinates from ORCA-job B6_random_3d_seed1003_d3.50_q0_m3_R2SCAN-3C E -148.696023061898
  B       0.158680      0.747959     -0.897689
  B      -0.134984     -0.737220      0.914142
  B      -1.163656      0.208839     -0.034301
  B       1.165157     -0.213963     -0.003914
  B       0.136116      0.895840      0.768623
  B      -0.161313     -0.901456     -0.746860
6
Coordinates from ORCA-job B6_random_3d_seed1003_d3.50_q0_m3_R2SCAN-3C E -148.696128694887
  B       0.152662      0.746230     -0.900802
  B      -0.143327     -0.735107      0.913608
  B      -1.165267      0.205784     -0.026978
  B       1.167512     -0.211254      0.004950
  B       0.145659      0.894244      0.764274
  B      -0.157238     -0.899897     -0.755052
6
Coordinates from ORCA-job B6_random_3d_seed1003_d3.50_q0_m3_R2SCAN-3C E -148.696178494505
  B       0.147466      0.748528     -0.903340
  B      -0.146118     -0.737096      0.913815
  B      -1.167139      0.205294     -0.022510
  B       1.163873     -0.213852      0.011566
  B       0.151907      0.893868      0.757636
  B      -0.149989     -0.896742     -0.757166
6
Coordinates from ORCA-job B6_random_3d_seed1003_d3.50_q0_m3_R2SCAN-3C E -148.696190047377
  B       0.146133      0.746629     -0.905374
  B      -0.146900     -0.739114      0.912987
  B      -1.164953      0.206784     -0.021205
  B       1.163573     -0.212262      0.013304
  B       0.152035      0.894244      0.757996
  B      -0.149888     -0.896281     -0.757709
6
Coordinates from ORCA-job B6_random_3d_seed1003_d3.50_q0_m3_R2SCAN-3C E -148.696199506613
  B       0.145537      0.743960     -0.907354
  B      -0.147498     -0.741839      0.910426
  B      -1.163849      0.209664     -0.018270
  B       1.163835     -0.210400      0.015267
  B       0.151293      0.895145      0.757907
  B      -0.149318     -0.896530     -0.757976
6
Coordinates from ORCA-job B6_random_3d_seed1003_d3.50_q0_m3_R2SCAN-3C E -148.696202050802
  B       0.146184      0.743296     -0.908482
  B      -0.147272     -0.743089      0.908893
  B      -1.163709      0.210249     -0.017099
  B       1.163944     -0.209541      0.016245
  B       0.150837      0.895716      0.757960
  B      -0.149983     -0.896631     -0.757517
6
Coordinates from ORCA-job B6_random_3d_seed1003_d3.50_q0_m3_R2SCAN-3C E -148.696202487861
  B       0.146710      0.743316     -0.908549
  B      -0.147159     -0.743179      0.908449
  B      -1.163944      0.209916     -0.016668
  B       1.164010     -0.209593      0.016444
  B       0.150668      0.896008      0.757720
  B      -0.150285     -0.896468     -0.757395
6
Coordinates from ORCA-job B6_random_3d_seed1003_d3.50_q0_m3_R2SCAN-3C E -148.696202533710
  B       0.146888      0.743267     -0.908543
  B      -0.147025     -0.743286      0.908517
  B      -1.164093      0.209892     -0.016663
  B       1.164094     -0.209582      0.016472
  B       0.150571      0.896037      0.757619
  B      -0.150435     -0.896328     -0.757402
