6
Coordinates from ORCA-job B6_random_3d_seed1003_d3.50_q0_m3_R2SCAN-3C E -148.696202533710
  B           0.14688835814776      0.74326690871752     -0.90854327259377
  B          -0.14702470521013     -0.74328567484777      0.90851709781325
  B          -1.16409297571890      0.20989206529776     -0.01666287999928
  B           1.16409355618070     -0.20958248195251      0.01647193319373
  B           0.15057077754113      0.89603722838473      0.75761889291740
  B          -0.15043501094056     -0.89632803559974     -0.75740178133132
