6
Coordinates from ORCA-job B6_octahedral_3d_d1.80_q0_m1_R2SCAN-3C E -148.659848993237
  B           1.23905226678294     -0.00056098648310      0.00000000052606
  B          -1.23905227043962     -0.00056098719336      0.00000000073320
  B           0.00000000054288      1.23971247928663     -0.00000000073022
  B          -0.00000000015879     -1.23942535212115     -0.00000000052718
  B           0.00000000147696      0.00041742317924      1.08384970251481
  B           0.00000000179564      0.00041742333174     -1.08384970251667
