6
Coordinates from ORCA-job B6_octahedral_3d_d1.80_q0_m1_R2SCAN-3C E -148.613889323484
  B       1.272792      0.000000      0.000000
  B      -1.272792      0.000000      0.000000
  B       0.000000      1.272792      0.000000
  B       0.000000     -1.272792      0.000000
  B       0.000000      0.000000      1.272792
  B       0.000000      0.000000     -1.272792
6
Coordinates from ORCA-job B6_octahedral_3d_d1.80_q0_m1_R2SCAN-3C E -148.635593820449
  B       1.251794     -0.000123      0.000000
  B      -1.251794     -0.000123      0.000000
  B       0.000000      1.251861     -0.000000
  B      -0.000000     -1.252039     -0.000000
  B       0.000000      0.000212      1.225396
  B       0.000000      0.000212     -1.225396
6
Coordinates from ORCA-job B6_octahedral_3d_d1.80_q0_m1_R2SCAN-3C E -148.650690798231
  B       1.233142     -0.000314     -0.000000
  B      -1.233142     -0.000314      0.000000
  B      -0.000000      1.233366     -0.000000
  B       0.000000     -1.233876      0.000000
  B      -0.000000      0.000569      1.176500
  B      -0.000000      0.000569     -1.176500
6
Coordinates from ORCA-job B6_octahedral_3d_d1.80_q0_m1_R2SCAN-3C E -148.658020469649
  B       1.219468     -0.000548      0.000000
  B      -1.219468     -0.000548     -0.000000
  B      -0.000000      1.219984     -0.000000
  B      -0.000000     -1.220754      0.000000
  B       0.000000      0.000934      1.125460
  B      -0.000000      0.000934     -1.125460
6
Coordinates from ORCA-job B6_octahedral_3d_d1.80_q0_m1_R2SCAN-3C E -148.659139734128
  B       1.220829     -0.000640      0.000000
  B      -1.220829     -0.000640     -0.000000
  B      -0.000000      1.221582     -0.000000
  B      -0.000000     -1.222148     -0.000000
  B       0.000000      0.000923      1.100670
  B       0.000000      0.000923     -1.100670
6
Coordinates from ORCA-job B6_octahedral_3d_d1.80_q0_m1_R2SCAN-3C E -148.659603581671
  B       1.227948     -0.000648      0.000000
  B      -1.227948     -0.000648      0.000000
  B      -0.000000      1.228816     -0.000000
  B      -0.000000     -1.229008     -0.000000
  B       0.000000      0.000744      1.090178
  B       0.000000      0.000744     -1.090178
6
Coordinates from ORCA-job B6_octahedral_3d_d1.80_q0_m1_R2SCAN-3C E -148.659844080024
  B       1.237659     -0.000612      0.000000
  B      -1.237659     -0.000612      0.000000
  B      -0.000000      1.238517     -0.000000
  B      -0.000000     -1.238259     -0.000000
  B       0.000000      0.000482      1.083574
  B       0.000000      0.000482     -1.083574
6
Coordinates from ORCA-job B6_octahedral_3d_d1.80_q0_m1_R2SCAN-3C E -148.659848933494
  B       1.238952     -0.000582      0.000000
  B      -1.238952     -0.000582      0.000000
  B      -0.000000      1.239702     -0.000000
  B      -0.000000     -1.239408     -0.000000
  B       0.000000      0.000434      1.083728
  B       0.000000      0.000434     -1.083728
6
Coordinates from ORCA-job B6_octahedral_3d_d1.80_q0_m1_R2SCAN-3C E -148.659848993237
  B       1.239052     -0.000561      0.000000
  B      -1.239052     -0.000561      0.000000
  B       0.000000      1.239712     -0.000000
  B      -0.000000     -1.239425     -0.000000
  B       0.000000      0.000417      1.083850
  B       0.000000      0.000417     -1.083850
