6
Coordinates from ORCA-job B6_trigonal_prism_d2.20_q0_m1_R2SCAN-3C E -148.594156676456
  B           0.79522019554603      0.50898240810097     -0.90965847754141
  B          -0.79522040101633      0.50898278602893     -0.90965814062288
  B           0.00000020248611     -1.01796510780816     -0.84684553939103
  B           0.79522021440337      0.50898232027699      0.90965843529893
  B          -0.79522040774920      0.50898270838013      0.90965809167603
  B           0.00000019633002     -1.01796509497887      0.84684563058036
