6
Coordinates from ORCA-job B6_trigonal_prism_d2.20_q0_m1_R2SCAN-3C E -148.349752182197
  B       1.100000      0.635085     -1.100000
  B      -1.100000      0.635085     -1.100000
  B      -0.000000     -1.270171     -1.100000
  B       1.100000      0.635085      1.100000
  B      -1.100000      0.635085      1.100000
  B      -0.000000     -1.270171      1.100000
6
Coordinates from ORCA-job B6_trigonal_prism_d2.20_q0_m1_R2SCAN-3C E -148.384367729370
  B       1.066569      0.627033     -1.071079
  B      -1.066569      0.627033     -1.071079
  B       0.000000     -1.254067     -1.070357
  B       1.066569      0.627033      1.071079
  B      -1.066569      0.627033      1.071079
  B      -0.000000     -1.254067      1.070357
6
Coordinates from ORCA-job B6_trigonal_prism_d2.20_q0_m1_R2SCAN-3C E -148.419063550847
  B       1.032771      0.618748     -1.042789
  B      -1.032771      0.618748     -1.042789
  B       0.000000     -1.237497     -1.041291
  B       1.032771      0.618748      1.042789
  B      -1.032771      0.618748      1.042789
  B       0.000000     -1.237497      1.041291
6
Coordinates from ORCA-job B6_trigonal_prism_d2.20_q0_m1_R2SCAN-3C E -148.469257868629
  B       0.980186      0.605921     -1.003217
  B      -0.980186      0.605921     -1.003217
  B      -0.000000     -1.211841     -0.999600
  B       0.980186      0.605921      1.003217
  B      -0.980186      0.605921      1.003217
  B       0.000000     -1.211841      0.999600
6
Coordinates from ORCA-job B6_trigonal_prism_d2.20_q0_m1_R2SCAN-3C E -148.536030321522
  B       0.900935      0.583877     -0.949381
  B      -0.900935      0.583877     -0.949381
  B       0.000000     -1.167754     -0.943290
  B       0.900935      0.583877      0.949381
  B      -0.900935      0.583877      0.949381
  B      -0.000000     -1.167754      0.943290
6
Coordinates from ORCA-job B6_trigonal_prism_d2.20_q0_m1_R2SCAN-3C E -148.581975560596
  B       0.821926      0.551983     -0.906763
  B      -0.821926      0.551983     -0.906763
  B       0.000000     -1.103966     -0.891756
  B       0.821926      0.551983      0.906763
  B      -0.821926      0.551983      0.906763
  B      -0.000000     -1.103966      0.891756
6
Coordinates from ORCA-job B6_trigonal_prism_d2.20_q0_m1_R2SCAN-3C E -148.593028669396
  B       0.788048      0.502951     -0.887207
  B      -0.788048      0.502951     -0.887207
  B       0.000000     -1.005903     -0.855632
  B       0.788048      0.502951      0.887207
  B      -0.788048      0.502951      0.887207
  B       0.000000     -1.005903      0.855632
6
Coordinates from ORCA-job B6_trigonal_prism_d2.20_q0_m1_R2SCAN-3C E -148.594032644966
  B       0.796661      0.512548     -0.901484
  B      -0.796661      0.512548     -0.901484
  B       0.000000     -1.025097     -0.850229
  B       0.796661      0.512548      0.901484
  B      -0.796661      0.512548      0.901484
  B       0.000000     -1.025097      0.850229
6
Coordinates from ORCA-job B6_trigonal_prism_d2.20_q0_m1_R2SCAN-3C E -148.594136402317
  B       0.794477      0.509651     -0.909407
  B      -0.794477      0.509651     -0.909407
  B       0.000000     -1.019302     -0.851075
  B       0.794477      0.509651      0.909407
  B      -0.794477      0.509651      0.909407
  B       0.000000     -1.019302      0.851075
6
Coordinates from ORCA-job B6_trigonal_prism_d2.20_q0_m1_R2SCAN-3C E -148.594140268465
  B       0.796156      0.507865     -0.909741
  B      -0.796156      0.507865     -0.909741
  B       0.000000     -1.015731     -0.844094
  B       0.796156      0.507865      0.909741
  B      -0.796156      0.507865      0.909741
  B       0.000000     -1.015731      0.844094
6
Coordinates from ORCA-job B6_trigonal_prism_d2.20_q0_m1_R2SCAN-3C E -148.594156380743
  B       0.794972      0.509054     -0.909641
  B      -0.794972      0.509054     -0.909640
  B       0.000000     -1.018109     -0.846604
  B       0.794972      0.509054      0.909641
  B      -0.794972      0.509054      0.909640
  B       0.000000     -1.018109      0.846604
6
Coordinates from ORCA-job B6_trigonal_prism_d2.20_q0_m1_R2SCAN-3C E -148.594156532755
  B       0.795354      0.508968     -0.909604
  B      -0.795354      0.508968     -0.909604
  B       0.000000     -1.017936     -0.847145
  B       0.795354      0.508968      0.909604
  B      -0.795354      0.508968      0.909604
  B       0.000000     -1.017936      0.847145
6
Coordinates from ORCA-job B6_trigonal_prism_d2.20_q0_m1_R2SCAN-3C E -148.594156673623
  B       0.795215      0.508979     -0.909643
  B      -0.795215      0.508980     -0.909643
  B       0.000000     -1.017959     -0.846850
  B       0.795215      0.508979      0.909643
  B      -0.795215      0.508980      0.909643
  B       0.000000     -1.017959      0.846850
6
Coordinates from ORCA-job B6_trigonal_prism_d2.20_q0_m1_R2SCAN-3C E -148.594156676456
  B       0.795220      0.508982     -0.909658
  B      -0.795220      0.508983     -0.909658
  B       0.000000     -1.017965     -0.846846
  B       0.795220      0.508982      0.909658
  B      -0.795220      0.508983      0.909658
  B       0.000000     -1.017965      0.846846
