6
Coordinates from ORCA-job B6_rhombic_planar_d3.00_q0_m1_R2SCAN-3C E -147.972796348742
  B      -3.750000     -1.299038      0.000000
  B      -0.750000     -1.299038      0.000000
  B       2.250000     -1.299038      0.000000
  B      -2.250000      1.299038      0.000000
  B       0.750000      1.299038      0.000000
  B       3.750000      1.299038      0.000000
6
Coordinates from ORCA-job B6_rhombic_planar_d3.00_q0_m1_R2SCAN-3C E -147.989006220125
  B      -3.666753     -1.280174      0.000000
  B      -0.730477     -1.281664     -0.000000
  B       2.202262     -1.293579      0.000000
  B      -2.202263      1.293579      0.000000
  B       0.730477      1.281665     -0.000000
  B       3.666754      1.280173      0.000000
6
Coordinates from ORCA-job B6_rhombic_planar_d3.00_q0_m1_R2SCAN-3C E -148.006060094773
  B      -3.583372     -1.261372      0.000000
  B      -0.710458     -1.265114     -0.000000
  B       2.153610     -1.288326      0.000000
  B      -2.153612      1.288326     -0.000000
  B       0.710458      1.265116     -0.000000
  B       3.583374      1.261370      0.000000
6
Coordinates from ORCA-job B6_rhombic_planar_d3.00_q0_m1_R2SCAN-3C E -148.033264226919
  B      -3.459269     -1.233356      0.000000
  B      -0.680264     -1.241118     -0.000000
  B       2.079053     -1.279619     -0.000000
  B      -2.079053      1.279619     -0.000000
  B       0.680264      1.241118     -0.000000
  B       3.459270      1.233356      0.000000
6
Coordinates from ORCA-job B6_rhombic_planar_d3.00_q0_m1_R2SCAN-3C E -148.077430451727
  B      -3.276424     -1.192178      0.000000
  B      -0.635467     -1.206488     -0.000000
  B       1.965050     -1.264818     -0.000000
  B      -1.965049      1.264818     -0.000000
  B       0.635467      1.206487     -0.000000
  B       3.276423      1.192179      0.000000
6
Coordinates from ORCA-job B6_rhombic_planar_d3.00_q0_m1_R2SCAN-3C E -148.125667577244
  B      -3.094318     -1.151718      0.000000
  B      -0.591970     -1.173040     -0.000000
  B       1.848580     -1.248762     -0.000000
  B      -1.848579      1.248761     -0.000000
  B       0.591970      1.173038     -0.000000
  B       3.094317      1.151720      0.000000
6
Coordinates from ORCA-job B6_rhombic_planar_d3.00_q0_m1_R2SCAN-3C E -148.175826257643
  B      -2.919564     -1.113722      0.000000
  B      -0.550088     -1.142722     -0.000000
  B       1.730040     -1.230830     -0.000000
  B      -1.730040      1.230829     -0.000000
  B       0.550088      1.142721     -0.000000
  B       2.919563      1.113724      0.000000
6
Coordinates from ORCA-job B6_rhombic_planar_d3.00_q0_m1_R2SCAN-3C E -148.225603883086
  B      -2.754477     -1.078518      0.000000
  B      -0.510259     -1.115340     -0.000000
  B       1.609181     -1.209315     -0.000000
  B      -1.609181      1.209313     -0.000000
  B       0.510259      1.115338     -0.000000
  B       2.754477      1.078522      0.000000
6
Coordinates from ORCA-job B6_rhombic_planar_d3.00_q0_m1_R2SCAN-3C E -148.261002344415
  B      -2.643910     -1.055811      0.000000
  B      -0.477274     -1.104279     -0.000000
  B       1.510512     -1.189755     -0.000000
  B      -1.510511      1.189754     -0.000000
  B       0.477274      1.104277     -0.000000
  B       2.643909      1.055814      0.000000
6
Coordinates from ORCA-job B6_rhombic_planar_d3.00_q0_m1_R2SCAN-3C E -148.282840570452
  B      -2.574512     -1.041106      0.000000
  B      -0.457519     -1.098439     -0.000000
  B       1.443183     -1.172089     -0.000000
  B      -1.443182      1.172088     -0.000000
  B       0.457519      1.098437     -0.000000
  B       2.574511      1.041109      0.000000
6
Coordinates from ORCA-job B6_rhombic_planar_d3.00_q0_m1_R2SCAN-3C E -148.309764113518
  B      -2.478355     -1.017703      0.000000
  B      -0.436293     -1.087703     -0.000000
  B       1.345735     -1.133316     -0.000000
  B      -1.345735      1.133315     -0.000000
  B       0.436294      1.087701     -0.000000
  B       2.478355      1.017706      0.000000
6
Coordinates from ORCA-job B6_rhombic_planar_d3.00_q0_m1_R2SCAN-3C E -148.489117249895
  B      -2.362052     -0.974937     -0.000000
  B      -0.442897     -1.059179      0.000000
  B       1.243402     -1.041746      0.000000
  B      -1.243401      1.041744      0.000000
  B       0.442897      1.059178      0.000000
  B       2.362051      0.974940     -0.000000
6
Coordinates from ORCA-job B6_rhombic_planar_d3.00_q0_m1_R2SCAN-3C E -148.561058042369
  B      -2.194895     -0.903151     -0.000001
  B      -0.424484     -1.045849      0.000002
  B       1.174635     -0.989763     -0.000001
  B      -1.174634      0.989762     -0.000001
  B       0.424484      1.045848      0.000001
  B       2.194895      0.903153     -0.000001
6
Coordinates from ORCA-job B6_rhombic_planar_d3.00_q0_m1_R2SCAN-3C E -148.606804808879
  B      -2.102257     -0.841207     -0.000001
  B      -0.416538     -1.035506      0.000001
  B       1.166203     -0.941475     -0.000001
  B      -1.166204      0.941474     -0.000001
  B       0.416538      1.035506      0.000001
  B       2.102258      0.841208     -0.000001
6
Coordinates from ORCA-job B6_rhombic_planar_d3.00_q0_m1_R2SCAN-3C E -148.636106179467
  B      -2.054318     -0.796590     -0.000001
  B      -0.407714     -1.029359      0.000001
  B       1.166595     -0.901585     -0.000001
  B      -1.166592      0.901584     -0.000001
  B       0.407714      1.029357      0.000001
  B       2.054316      0.796595     -0.000001
6
Coordinates from ORCA-job B6_rhombic_planar_d3.00_q0_m1_R2SCAN-3C E -148.675834497613
  B      -1.994237     -0.728631     -0.000001
  B      -0.393651     -1.021237      0.000002
  B       1.171311     -0.836163     -0.000001
  B      -1.171300      0.836159     -0.000001
  B       0.393650      1.021223      0.000001
  B       1.994227      0.728649     -0.000001
6
Coordinates from ORCA-job B6_rhombic_planar_d3.00_q0_m1_R2SCAN-3C E -148.705507307471
  B      -1.934866     -0.654817     -0.000001
  B      -0.384378     -1.007257      0.000002
  B       1.161965     -0.744102     -0.000001
  B      -1.162005      0.744103     -0.000001
  B       0.384377      1.007287      0.000001
  B       1.934908      0.654785     -0.000001
6
Coordinates from ORCA-job B6_rhombic_planar_d3.00_q0_m1_R2SCAN-3C E -148.707529925793
  B      -1.942208     -0.651613     -0.000000
  B      -0.422171     -0.983647      0.000002
  B       1.128541     -0.672861     -0.000001
  B      -1.128360      0.672766     -0.000001
  B       0.422075      0.983572      0.000001
  B       1.942123      0.651784     -0.000000
6
Coordinates from ORCA-job B6_rhombic_planar_d3.00_q0_m1_R2SCAN-3C E -148.708506395053
  B      -1.944435     -0.641726      0.000000
  B      -0.394237     -0.998698      0.000001
  B       1.126010     -0.682456     -0.000001
  B      -1.126363      0.682611     -0.000001
  B       0.394630      0.998865      0.000001
  B       1.944395      0.641404      0.000000
6
Coordinates from ORCA-job B6_rhombic_planar_d3.00_q0_m1_R2SCAN-3C E -148.709071341414
  B      -1.952327     -0.652704     -0.000000
  B      -0.414975     -1.026594      0.000003
  B       1.133537     -0.694414     -0.000003
  B      -1.132382      0.693858     -0.000003
  B       0.412619      1.026500      0.000002
  B       1.953528      0.653356      0.000000
6
Coordinates from ORCA-job B6_rhombic_planar_d3.00_q0_m1_R2SCAN-3C E -148.709443678527
  B      -1.960951     -0.652614      0.000001
  B      -0.413397     -1.033706      0.000002
  B       1.114994     -0.674952     -0.000003
  B      -1.119360      0.678306     -0.000003
  B       0.429081      1.031853      0.000002
  B       1.949633      0.651113      0.000001
6
Coordinates from ORCA-job B6_rhombic_planar_d3.00_q0_m1_R2SCAN-3C E -148.705110143523
  B      -1.935830     -0.641444      0.000005
  B      -0.467642     -1.053941      0.000000
  B       1.050383     -0.608352     -0.000005
  B      -1.049579      0.598375     -0.000005
  B       0.421552      1.065067      0.000001
  B       1.981117      0.640295      0.000005
6
Coordinates from ORCA-job B6_rhombic_planar_d3.00_q0_m1_R2SCAN-3C E -148.710085909162
  B      -1.962760     -0.649339      0.000005
  B      -0.441188     -1.072508      0.000001
  B       1.085527     -0.642215     -0.000005
  B      -1.071516      0.646369     -0.000006
  B       0.436116      1.071180      0.000001
  B       1.953821      0.646514      0.000004
6
Coordinates from ORCA-job B6_rhombic_planar_d3.00_q0_m1_R2SCAN-3C E -148.699455012380
  B      -1.924715     -0.627593      0.000005
  B      -0.424683     -1.088962      0.000002
  B       1.044244     -0.697406     -0.000007
  B      -1.138462      0.642602     -0.000007
  B       0.454009      1.091222      0.000002
  B       1.989607      0.680137      0.000005
6
Coordinates from ORCA-job B6_rhombic_planar_d3.00_q0_m1_R2SCAN-3C E -148.710221233576
  B      -1.951305     -0.656037      0.000005
  B      -0.441547     -1.086137      0.000002
  B       1.067730     -0.653179     -0.000007
  B      -1.086147      0.653601     -0.000007
  B       0.445539      1.092196      0.000002
  B       1.965730      0.649557      0.000005
6
Coordinates from ORCA-job B6_rhombic_planar_d3.00_q0_m1_R2SCAN-3C E -148.709165832709
  B      -1.964489     -0.615142      0.000006
  B      -0.452494     -1.122129      0.000003
  B       1.081484     -0.647352     -0.000009
  B      -1.041454      0.625229     -0.000008
  B       0.439890      1.086823      0.000002
  B       1.937063      0.672571      0.000006
6
Coordinates from ORCA-job B6_rhombic_planar_d3.00_q0_m1_R2SCAN-3C E -148.710517019244
  B      -1.954748     -0.650196      0.000007
  B      -0.448549     -1.107541      0.000003
  B       1.058061     -0.634055     -0.000010
  B      -1.056469      0.637438     -0.000010
  B       0.449622      1.112291      0.000003
  B       1.952084      0.642064      0.000007
6
Coordinates from ORCA-job B6_rhombic_planar_d3.00_q0_m1_R2SCAN-3C E -148.710486873682
  B      -1.961173     -0.653281      0.000008
  B      -0.453159     -1.107947      0.000004
  B       1.050992     -0.639448     -0.000011
  B      -1.054488      0.637232     -0.000011
  B       0.453820      1.106378      0.000004
  B       1.964007      0.657067      0.000007
6
Coordinates from ORCA-job B6_rhombic_planar_d3.00_q0_m1_R2SCAN-3C E -148.710620636373
  B      -1.956383     -0.649674      0.000007
  B      -0.454134     -1.117424      0.000005
  B       1.049443     -0.634236     -0.000012
  B      -1.049978      0.634191     -0.000013
  B       0.454184      1.116735      0.000005
  B       1.956868      0.650408      0.000007
6
Coordinates from ORCA-job B6_rhombic_planar_d3.00_q0_m1_R2SCAN-3C E -148.710628321117
  B      -1.956547     -0.649798      0.000007
  B      -0.455317     -1.121098      0.000007
  B       1.045765     -0.631694     -0.000014
  B      -1.045446      0.631772     -0.000015
  B       0.455369      1.121261      0.000007
  B       1.956176      0.649558      0.000007
6
Coordinates from ORCA-job B6_rhombic_planar_d3.00_q0_m1_R2SCAN-3C E -148.710630878446
  B      -1.956274     -0.649778      0.000007
  B      -0.457010     -1.125562      0.000012
  B       1.041900     -0.629723     -0.000018
  B      -1.041872      0.629803     -0.000018
  B       0.457025      1.125587      0.000012
  B       1.956231      0.649673      0.000006
6
Coordinates from ORCA-job B6_rhombic_planar_d3.00_q0_m1_R2SCAN-3C E -148.710630957335
  B      -1.956451     -0.649849      0.000005
  B      -0.457110     -1.125665      0.000016
  B       1.041635     -0.629649     -0.000021
  B      -1.041612      0.629648     -0.000021
  B       0.457107      1.125681      0.000016
  B       1.956431      0.649834      0.000005
6
Coordinates from ORCA-job B6_rhombic_planar_d3.00_q0_m1_R2SCAN-3C E -148.710630958267
  B      -1.956461     -0.649851      0.000003
  B      -0.457202     -1.125842      0.000022
  B       1.041468     -0.629560     -0.000024
  B      -1.041466      0.629536     -0.000024
  B       0.457195      1.125855      0.000022
  B       1.956466      0.649862      0.000002
