6
Coordinates from ORCA-job B6_rhombic_planar_d3.00_q0_m1_R2SCAN-3C E -148.710630958267
  B          -1.95646103426489     -0.64985126153540      0.00000278310971
  B          -0.45720165573676     -1.12584168488647      0.00002154671367
  B           1.04146838904486     -0.62955999233934     -0.00002405309254
  B          -1.04146607699985      0.62953639346008     -0.00002438032395
  B           0.45719463923149      1.12585476767626      0.00002163677338
  B           1.95646573872516      0.64986177762487      0.00000246681974
