6
Coordinates from ORCA-job B6_random_3d_seed1002_d3.50_q0_m5_R2SCAN-3C E -148.696374246400
  B          -0.02728385952012      0.37177860037270     -0.75460878989341
  B           1.32451490978109      0.47008316428863      0.11888505522093
  B          -1.59459319306793      0.12643911837307     -1.50810510134375
  B           0.02732094989930     -0.37193604655414      0.75462191736696
  B           1.59442402157126     -0.12624968860712      1.50817343504127
  B          -1.32438281866361     -0.47011515787313     -0.11896651639201
