6
Coordinates from ORCA-job B6_random_3d_seed1002_d3.50_q0_m5_R2SCAN-3C E -147.904094554631
  B       0.958479     -1.000388     -2.212112
  B       1.694359      2.109046     -0.618768
  B      -1.712172      1.152362     -1.672728
  B       0.312316     -2.507986      0.859582
  B       0.992382      0.376084      2.445912
  B      -2.245364     -0.129119      1.198113
6
Coordinates from ORCA-job B6_random_3d_seed1002_d3.50_q0_m5_R2SCAN-3C E -147.913901437986
  B       0.939742     -0.966533     -2.187226
  B       1.689696      2.078975     -0.605644
  B      -1.706958      1.118023     -1.646132
  B       0.302907     -2.462848      0.868988
  B       0.996550      0.360619      2.413827
  B      -2.221937     -0.128236      1.156187
6
Coordinates from ORCA-job B6_random_3d_seed1002_d3.50_q0_m5_R2SCAN-3C E -147.924273065453
  B       0.920752     -0.932424     -2.162147
  B       1.685621      2.048736     -0.593046
  B      -1.702016      1.083594     -1.619224
  B       0.294460     -2.417346      0.878589
  B       1.000228      0.344429      2.381887
  B      -2.199044     -0.126987      1.113940
6
Coordinates from ORCA-job B6_random_3d_seed1002_d3.50_q0_m5_R2SCAN-3C E -147.940957166278
  B       0.892258     -0.881592     -2.124049
  B       1.679689      2.003024     -0.575119
  B      -1.694030      1.031979     -1.577713
  B       0.283008     -2.348337      0.892191
  B       1.004196      0.319541      2.333852
  B      -2.165121     -0.124616      1.050837
6
Coordinates from ORCA-job B6_random_3d_seed1002_d3.50_q0_m5_R2SCAN-3C E -147.967597803249
  B       0.849747     -0.806508     -2.066452
  B       1.670718      1.933990     -0.550723
  B      -1.679327      0.959884     -1.523193
  B       0.268605     -2.244656      0.910978
  B       1.007328      0.281526      2.263061
  B      -2.117071     -0.124236      0.966328
6
Coordinates from ORCA-job B6_random_3d_seed1002_d3.50_q0_m5_R2SCAN-3C E -147.997926063407
  B       0.805365     -0.729897     -2.005873
  B       1.661875      1.862809     -0.528708
  B      -1.663749      0.888441     -1.468479
  B       0.256577     -2.139834      0.928763
  B       1.008232      0.242597      2.193154
  B      -2.068300     -0.124116      0.881144
6
Coordinates from ORCA-job B6_random_3d_seed1002_d3.50_q0_m5_R2SCAN-3C E -148.022419355675
  B       0.775177     -0.679901     -1.963557
  B       1.656083      1.815955     -0.515866
  B      -1.656439      0.837596     -1.419928
  B       0.252909     -2.066509      0.942972
  B       1.006313      0.210765      2.145459
  B      -2.034043     -0.117907      0.810920
6
Coordinates from ORCA-job B6_random_3d_seed1002_d3.50_q0_m5_R2SCAN-3C E -148.040325541249
  B       0.755261     -0.648371     -1.934778
  B       1.651851      1.785866     -0.508477
  B      -1.652355      0.804761     -1.385214
  B       0.252566     -2.018515      0.952668
  B       1.003637      0.188334      2.114132
  B      -2.010960     -0.112075      0.761670
6
Coordinates from ORCA-job B6_random_3d_seed1002_d3.50_q0_m5_R2SCAN-3C E -148.070034016536
  B       0.726367     -0.604198     -1.890837
  B       1.644280      1.741927     -0.498546
  B      -1.645978      0.756710     -1.329204
  B       0.253803     -1.947777      0.965593
  B       0.997087      0.154667      2.067009
  B      -1.975559     -0.101328      0.685985
6
Coordinates from ORCA-job B6_random_3d_seed1002_d3.50_q0_m5_R2SCAN-3C E -148.111711519269
  B       0.688262     -0.544547     -1.826150
  B       1.629766      1.679273     -0.486712
  B      -1.632918      0.700982     -1.269240
  B       0.256912     -1.852753      0.979843
  B       0.985792      0.109970      2.001474
  B      -1.927814     -0.092925      0.600785
6
Coordinates from ORCA-job B6_random_3d_seed1002_d3.50_q0_m5_R2SCAN-3C E -148.156611432568
  B       0.648908     -0.483996     -1.761079
  B       1.613371      1.616236     -0.477325
  B      -1.616530      0.644529     -1.209393
  B       0.259202     -1.756676      0.992362
  B       0.971094      0.064430      1.937756
  B      -1.876045     -0.084522      0.517680
6
Coordinates from ORCA-job B6_random_3d_seed1002_d3.50_q0_m5_R2SCAN-3C E -148.192054324408
  B       0.617582     -0.440982     -1.715573
  B       1.600689      1.572520     -0.471815
  B      -1.603104      0.599666     -1.157586
  B       0.262121     -1.683815      1.002955
  B       0.956181      0.027071      1.892388
  B      -1.833468     -0.074459      0.449631
6
Coordinates from ORCA-job B6_random_3d_seed1002_d3.50_q0_m5_R2SCAN-3C E -148.215718458410
  B       0.590065     -0.407204     -1.683852
  B       1.593769      1.540966     -0.466592
  B      -1.592247      0.570341     -1.131821
  B       0.264300     -1.633993      1.013517
  B       0.947822      0.001824      1.861523
  B      -1.803709     -0.071934      0.407226
6
Coordinates from ORCA-job B6_random_3d_seed1002_d3.50_q0_m5_R2SCAN-3C E -148.250037961036
  B       0.542180     -0.354768     -1.634409
  B       1.580908      1.490359     -0.454796
  B      -1.574069      0.530604     -1.105690
  B       0.268756     -1.558298      1.031613
  B       0.938009     -0.035399      1.814438
  B      -1.755785     -0.072498      0.348845
6
Coordinates from ORCA-job B6_random_3d_seed1002_d3.50_q0_m5_R2SCAN-3C E -148.298588450205
  B       0.477309     -0.261505     -1.551708
  B       1.561530      1.404867     -0.445456
  B      -1.543670      0.477372     -1.092013
  B       0.263102     -1.450284      1.051376
  B       0.934031     -0.081226      1.750073
  B      -1.692303     -0.089226      0.287728
6
Coordinates from ORCA-job B6_random_3d_seed1002_d3.50_q0_m5_R2SCAN-3C E -148.346242464567
  B       0.413275     -0.162938     -1.470075
  B       1.537453      1.308730     -0.436437
  B      -1.507712      0.431729     -1.093702
  B       0.256676     -1.338109      1.066868
  B       0.928639     -0.122905      1.687832
  B      -1.628330     -0.116507      0.245514
6
Coordinates from ORCA-job B6_random_3d_seed1002_d3.50_q0_m5_R2SCAN-3C E -148.388306768405
  B       0.353783     -0.100118     -1.420302
  B       1.513701      1.242192     -0.423596
  B      -1.469003      0.415861     -1.126554
  B       0.242614     -1.288827      1.066526
  B       0.937344     -0.123429      1.660364
  B      -1.578439     -0.145680      0.243562
6
Coordinates from ORCA-job B6_random_3d_seed1002_d3.50_q0_m5_R2SCAN-3C E -148.457288423150
  B       0.287065     -0.013181     -1.348635
  B       1.465196      1.141382     -0.408617
  B      -1.420226      0.413356     -1.197639
  B       0.201827     -1.258188      1.049235
  B       0.975170     -0.086574      1.640903
  B      -1.509033     -0.196794      0.264753
6
Coordinates from ORCA-job B6_random_3d_seed1002_d3.50_q0_m5_R2SCAN-3C E -148.517783604552
  B       0.229086      0.069562     -1.267545
  B       1.404674      1.033476     -0.391092
  B      -1.374203      0.399440     -1.232364
  B       0.163377     -1.200904      1.028522
  B       0.995694     -0.064405      1.602993
  B      -1.418628     -0.237168      0.259485
6
Coordinates from ORCA-job B6_random_3d_seed1002_d3.50_q0_m5_R2SCAN-3C E -148.563478336319
  B       0.217944      0.130905     -1.183426
  B       1.346280      0.934148     -0.375615
  B      -1.373412      0.394631     -1.255990
  B       0.109805     -1.162246      0.990262
  B       1.023804     -0.023903      1.573862
  B      -1.324421     -0.273535      0.250907
6
Coordinates from ORCA-job B6_random_3d_seed1002_d3.50_q0_m5_R2SCAN-3C E -148.592595956967
  B       0.143441      0.156590     -1.111294
  B       1.330477      0.863002     -0.323613
  B      -1.353350      0.369687     -1.251567
  B       0.072225     -1.079125      0.944463
  B       1.025735     -0.011969      1.521511
  B      -1.218528     -0.298185      0.220500
6
Coordinates from ORCA-job B6_random_3d_seed1002_d3.50_q0_m5_R2SCAN-3C E -148.606876347423
  B       0.150783      0.170097     -1.041545
  B       1.315533      0.796659     -0.288503
  B      -1.409001      0.364398     -1.259588
  B       0.064736     -1.038583      0.910013
  B       1.041134      0.013316      1.500917
  B      -1.163183     -0.305886      0.178705
6
Coordinates from ORCA-job B6_random_3d_seed1002_d3.50_q0_m5_R2SCAN-3C E -148.616073535315
  B       0.109016      0.169440     -1.008523
  B       1.327037      0.757174     -0.240917
  B      -1.438665      0.355576     -1.267737
  B       0.075364     -1.010626      0.892626
  B       1.065191      0.029217      1.494494
  B      -1.137943     -0.300780      0.130057
6
Coordinates from ORCA-job B6_random_3d_seed1002_d3.50_q0_m5_R2SCAN-3C E -148.626761489451
  B       0.053698      0.170604     -0.961077
  B       1.317936      0.683004     -0.173176
  B      -1.491849      0.349104     -1.293149
  B       0.113240     -0.963742      0.871476
  B       1.114850      0.048053      1.507757
  B      -1.107873     -0.287023      0.048169
6
Coordinates from ORCA-job B6_random_3d_seed1002_d3.50_q0_m5_R2SCAN-3C E -148.638491955656
  B      -0.008253      0.163131     -0.912847
  B       1.319141      0.592741     -0.057443
  B      -1.574711      0.340869     -1.350449
  B       0.137075     -0.882841      0.811350
  B       1.214813      0.076470      1.531862
  B      -1.088066     -0.290370     -0.022472
6
Coordinates from ORCA-job B6_random_3d_seed1002_d3.50_q0_m5_R2SCAN-3C E -148.654231016722
  B       0.009543      0.154269     -0.876074
  B       1.328647      0.543321      0.035483
  B      -1.606987      0.342367     -1.378755
  B       0.147907     -0.825999      0.753088
  B       1.278249      0.107981      1.500822
  B      -1.157359     -0.321940     -0.034563
6
Coordinates from ORCA-job B6_random_3d_seed1002_d3.50_q0_m5_R2SCAN-3C E -148.671011086533
  B       0.059784      0.185578     -0.868888
  B       1.342026      0.536376     -0.001829
  B      -1.613462      0.336807     -1.388930
  B       0.117431     -0.746549      0.719035
  B       1.335794      0.085741      1.564855
  B      -1.241573     -0.397952     -0.024243
6
Coordinates from ORCA-job B6_random_3d_seed1002_d3.50_q0_m5_R2SCAN-3C E -148.682907302209
  B       0.044029      0.182897     -0.818311
  B       1.312788      0.486473      0.051633
  B      -1.618417      0.318040     -1.393061
  B       0.135761     -0.658472      0.680933
  B       1.388561      0.079813      1.550572
  B      -1.262722     -0.408751     -0.071767
6
Coordinates from ORCA-job B6_random_3d_seed1002_d3.50_q0_m5_R2SCAN-3C E -148.688421997104
  B       0.016296      0.195756     -0.788466
  B       1.334703      0.457201      0.101862
  B      -1.638314      0.298890     -1.417741
  B       0.119094     -0.581685      0.656042
  B       1.461655      0.069633      1.555628
  B      -1.293433     -0.439796     -0.107325
6
Coordinates from ORCA-job B6_random_3d_seed1002_d3.50_q0_m5_R2SCAN-3C E -148.691512210621
  B       0.003569      0.223798     -0.780115
  B       1.347532      0.452676      0.095936
  B      -1.633656      0.283911     -1.433445
  B       0.108434     -0.524427      0.671656
  B       1.515190      0.042326      1.578604
  B      -1.341069     -0.478284     -0.132637
6
Coordinates from ORCA-job B6_random_3d_seed1002_d3.50_q0_m5_R2SCAN-3C E -148.692037631832
  B      -0.024142      0.241595     -0.788618
  B       1.341388      0.449753      0.091420
  B      -1.621426      0.278735     -1.452512
  B       0.097786     -0.494008      0.685434
  B       1.531294      0.018289      1.584784
  B      -1.324901     -0.494364     -0.120507
6
Coordinates from ORCA-job B6_random_3d_seed1002_d3.50_q0_m5_R2SCAN-3C E -148.693047311002
  B      -0.016463      0.249220     -0.779498
  B       1.341667      0.462501      0.092551
  B      -1.596530      0.264232     -1.445371
  B       0.083044     -0.474480      0.684268
  B       1.531148      0.000465      1.563263
  B      -1.342867     -0.501938     -0.115214
6
Coordinates from ORCA-job B6_random_3d_seed1002_d3.50_q0_m5_R2SCAN-3C E -148.693380718935
  B      -0.016436      0.252592     -0.779793
  B       1.336621      0.474217      0.096028
  B      -1.590496      0.250088     -1.449589
  B       0.086721     -0.470219      0.690373
  B       1.529124     -0.015793      1.553428
  B      -1.345534     -0.490884     -0.110447
6
Coordinates from ORCA-job B6_random_3d_seed1002_d3.50_q0_m5_R2SCAN-3C E -148.693722023498
  B      -0.019072      0.264433     -0.772467
  B       1.334114      0.490912      0.103693
  B      -1.588793      0.221629     -1.467318
  B       0.086295     -0.452248      0.697334
  B       1.534870     -0.048363      1.540757
  B      -1.347413     -0.476364     -0.102000
6
Coordinates from ORCA-job B6_random_3d_seed1002_d3.50_q0_m5_R2SCAN-3C E -148.693822546119
  B      -0.019926      0.268655     -0.771827
  B       1.334846      0.500146      0.107177
  B      -1.591702      0.208939     -1.475693
  B       0.085117     -0.447512      0.700596
  B       1.537627     -0.062596      1.537770
  B      -1.345963     -0.467632     -0.098024
6
Coordinates from ORCA-job B6_random_3d_seed1002_d3.50_q0_m5_R2SCAN-3C E -148.693918653063
  B      -0.019013      0.269507     -0.772390
  B       1.332747      0.504122      0.111267
  B      -1.595503      0.202537     -1.480126
  B       0.083521     -0.443428      0.701627
  B       1.542149     -0.069996      1.536915
  B      -1.343901     -0.462742     -0.097292
6
Coordinates from ORCA-job B6_random_3d_seed1002_d3.50_q0_m5_R2SCAN-3C E -148.694168629113
  B      -0.011323      0.267994     -0.780292
  B       1.328724      0.510518      0.119051
  B      -1.606281      0.196189     -1.482892
  B       0.077950     -0.440489      0.704423
  B       1.548760     -0.078259      1.536975
  B      -1.337829     -0.455953     -0.097264
6
Coordinates from ORCA-job B6_random_3d_seed1002_d3.50_q0_m5_R2SCAN-3C E -148.694458923774
  B      -0.001139      0.265853     -0.791116
  B       1.320844      0.509350      0.127665
  B      -1.616657      0.195627     -1.479681
  B       0.070903     -0.433828      0.706385
  B       1.557971     -0.080776      1.538565
  B      -1.331922     -0.456226     -0.101819
6
Coordinates from ORCA-job B6_random_3d_seed1002_d3.50_q0_m5_R2SCAN-3C E -148.694727332088
  B       0.007755      0.267074     -0.800269
  B       1.318075      0.502424      0.130164
  B      -1.623190      0.200156     -1.471568
  B       0.063543     -0.430956      0.708963
  B       1.561423     -0.075714      1.540709
  B      -1.327606     -0.462984     -0.107999
6
Coordinates from ORCA-job B6_random_3d_seed1002_d3.50_q0_m5_R2SCAN-3C E -148.695050341446
  B       0.009909      0.274115     -0.801297
  B       1.318219      0.489383      0.126745
  B      -1.623291      0.205226     -1.464137
  B       0.057035     -0.425431      0.711846
  B       1.563235     -0.068428      1.542425
  B      -1.325106     -0.474866     -0.115582
6
Coordinates from ORCA-job B6_random_3d_seed1002_d3.50_q0_m5_R2SCAN-3C E -148.695456888941
  B       0.005042      0.287934     -0.794028
  B       1.324566      0.473760      0.116598
  B      -1.618945      0.208543     -1.460144
  B       0.050854     -0.424836      0.720016
  B       1.560297     -0.059099      1.541056
  B      -1.321814     -0.486304     -0.123498
6
Coordinates from ORCA-job B6_random_3d_seed1002_d3.50_q0_m5_R2SCAN-3C E -148.695769271315
  B      -0.006037      0.304260     -0.779695
  B       1.328616      0.464618      0.109720
  B      -1.612427      0.201168     -1.467552
  B       0.047172     -0.415683      0.728728
  B       1.563385     -0.063016      1.536457
  B      -1.320709     -0.491346     -0.127657
6
Coordinates from ORCA-job B6_random_3d_seed1002_d3.50_q0_m5_R2SCAN-3C E -148.695992342605
  B      -0.013199      0.318436     -0.770624
  B       1.331006      0.465885      0.109098
  B      -1.610266      0.186365     -1.478986
  B       0.042225     -0.410097      0.741573
  B       1.568393     -0.074839      1.527877
  B      -1.318159     -0.485749     -0.128938
6
Coordinates from ORCA-job B6_random_3d_seed1002_d3.50_q0_m5_R2SCAN-3C E -148.696156635140
  B      -0.018151      0.330940     -0.764118
  B       1.328214      0.473571      0.113602
  B      -1.607052      0.165663     -1.492049
  B       0.038783     -0.392410      0.745861
  B       1.577848     -0.098273      1.521216
  B      -1.319642     -0.479490     -0.124513
6
Coordinates from ORCA-job B6_random_3d_seed1002_d3.50_q0_m5_R2SCAN-3C E -148.696254302831
  B      -0.017513      0.341891     -0.766581
  B       1.324576      0.478045      0.121123
  B      -1.606981      0.149641     -1.497949
  B       0.033773     -0.382236      0.751857
  B       1.585911     -0.113731      1.514655
  B      -1.319767     -0.473609     -0.123105
6
Coordinates from ORCA-job B6_random_3d_seed1002_d3.50_q0_m5_R2SCAN-3C E -148.696296746321
  B      -0.019427      0.350369     -0.762793
  B       1.323477      0.479150      0.122208
  B      -1.603187      0.140387     -1.502549
  B       0.028218     -0.373236      0.755021
  B       1.591489     -0.123211      1.510049
  B      -1.320569     -0.473458     -0.121935
6
Coordinates from ORCA-job B6_random_3d_seed1002_d3.50_q0_m5_R2SCAN-3C E -148.696312983640
  B      -0.021685      0.356368     -0.760895
  B       1.321831      0.478120      0.122843
  B      -1.599024      0.135317     -1.504414
  B       0.025165     -0.366419      0.757554
  B       1.595838     -0.128488      1.507172
  B      -1.322126     -0.474899     -0.122262
6
Coordinates from ORCA-job B6_random_3d_seed1002_d3.50_q0_m5_R2SCAN-3C E -148.696315318515
  B      -0.022347      0.358189     -0.760242
  B       1.321786      0.477391      0.122234
  B      -1.597416      0.134615     -1.504457
  B       0.024290     -0.364471      0.758199
  B       1.596064     -0.129478      1.506373
  B      -1.322377     -0.476248     -0.122108
6
Coordinates from ORCA-job B6_random_3d_seed1002_d3.50_q0_m5_R2SCAN-3C E -148.696316424887
  B      -0.022713      0.359035     -0.760136
  B       1.322009      0.476874      0.121917
  B      -1.596921      0.134422     -1.504249
  B       0.024304     -0.363591      0.758293
  B       1.595708     -0.129780      1.506260
  B      -1.322387     -0.476960     -0.122084
6
Coordinates from ORCA-job B6_random_3d_seed1002_d3.50_q0_m5_R2SCAN-3C E -148.696318064659
  B      -0.023035      0.359861     -0.760098
  B       1.322726      0.476158      0.121395
  B      -1.596927      0.134455     -1.503828
  B       0.024620     -0.362943      0.758186
  B       1.594675     -0.129765      1.506456
  B      -1.322060     -0.477767     -0.122112
6
Coordinates from ORCA-job B6_random_3d_seed1002_d3.50_q0_m5_R2SCAN-3C E -148.696320129747
  B      -0.023303      0.360789     -0.760076
  B       1.323606      0.475340      0.120955
  B      -1.597423      0.134329     -1.503453
  B       0.025115     -0.362450      0.757911
  B       1.593514     -0.129688      1.506876
  B      -1.321510     -0.478320     -0.122213
6
Coordinates from ORCA-job B6_random_3d_seed1002_d3.50_q0_m5_R2SCAN-3C E -148.696323431416
  B      -0.023625      0.361912     -0.759916
  B       1.324713      0.474442      0.120499
  B      -1.598235      0.133983     -1.503242
  B       0.025692     -0.362285      0.757581
  B       1.592293     -0.129507      1.507431
  B      -1.320838     -0.478545     -0.122353
6
Coordinates from ORCA-job B6_random_3d_seed1002_d3.50_q0_m5_R2SCAN-3C E -148.696330422357
  B      -0.024204      0.363900     -0.759323
  B       1.326303      0.473049      0.119824
  B      -1.599475      0.133025     -1.503314
  B       0.026550     -0.362701      0.757053
  B       1.590705     -0.129089      1.508235
  B      -1.319879     -0.478184     -0.122475
6
Coordinates from ORCA-job B6_random_3d_seed1002_d3.50_q0_m5_R2SCAN-3C E -148.696342279022
  B      -0.025023      0.366605     -0.758104
  B       1.327692      0.471479      0.119107
  B      -1.600491      0.131240     -1.504057
  B       0.027403     -0.364398      0.756391
  B       1.589632     -0.128344      1.509012
  B      -1.319214     -0.476582     -0.122349
6
Coordinates from ORCA-job B6_random_3d_seed1002_d3.50_q0_m5_R2SCAN-3C E -148.696356531320
  B      -0.025666      0.368385     -0.756806
  B       1.327265      0.471018      0.119025
  B      -1.599773      0.129393     -1.505492
  B       0.027363     -0.366622      0.756148
  B       1.590788     -0.127904      1.508883
  B      -1.319976     -0.474269     -0.121758
6
Coordinates from ORCA-job B6_random_3d_seed1002_d3.50_q0_m5_R2SCAN-3C E -148.696370621209
  B      -0.026448      0.369889     -0.755367
  B       1.324977      0.471329      0.119444
  B      -1.596614      0.127251     -1.507589
  B       0.026558     -0.369251      0.756090
  B       1.594150     -0.127788      1.507808
  B      -1.322624     -0.471430     -0.120385
6
Coordinates from ORCA-job B6_random_3d_seed1002_d3.50_q0_m5_R2SCAN-3C E -148.696374040232
  B      -0.027117      0.371448     -0.754531
  B       1.324209      0.470642      0.119188
  B      -1.594767      0.126159     -1.508392
  B       0.026882     -0.371499      0.755176
  B       1.594970     -0.126874      1.507775
  B      -1.324176     -0.469875     -0.119216
6
Coordinates from ORCA-job B6_random_3d_seed1002_d3.50_q0_m5_R2SCAN-3C E -148.696374235156
  B      -0.027288      0.371817     -0.754544
  B       1.324383      0.470244      0.119011
  B      -1.594553      0.126204     -1.508267
  B       0.027199     -0.371812      0.754752
  B       1.594688     -0.126500      1.508036
  B      -1.324429     -0.469952     -0.118988
6
Coordinates from ORCA-job B6_random_3d_seed1002_d3.50_q0_m5_R2SCAN-3C E -148.696374246400
  B      -0.027284      0.371779     -0.754609
  B       1.324515      0.470083      0.118885
  B      -1.594593      0.126439     -1.508105
  B       0.027321     -0.371936      0.754622
  B       1.594424     -0.126250      1.508173
  B      -1.324383     -0.470115     -0.118967
