6
Coordinates from ORCA-job B6_planar_ring_d2.20_q0_m3_R2SCAN-3C E -148.247899852491
  B       2.200000     -0.000000      0.000000
  B       1.100000      1.905256      0.000000
  B      -1.100000      1.905256      0.000000
  B      -2.200000      0.000000      0.000000
  B      -1.100000     -1.905256      0.000000
  B       1.100000     -1.905256      0.000000
6
Coordinates from ORCA-job B6_planar_ring_d2.20_q0_m3_R2SCAN-3C E -148.287533188165
  B       2.150754      0.000000     -0.000000
  B       1.073911      1.837709     -0.000000
  B      -1.073910      1.837708      0.000000
  B      -2.150754     -0.000000     -0.000000
  B      -1.073911     -1.837709     -0.000000
  B       1.073910     -1.837709      0.000000
6
Coordinates from ORCA-job B6_planar_ring_d2.20_q0_m3_R2SCAN-3C E -148.329455840770
  B       2.104385      0.000000      0.000000
  B       1.048806      1.768261     -0.000000
  B      -1.048806      1.768261     -0.000000
  B      -2.104385     -0.000000      0.000000
  B      -1.048806     -1.768261     -0.000000
  B       1.048806     -1.768261     -0.000000
6
Coordinates from ORCA-job B6_planar_ring_d2.20_q0_m3_R2SCAN-3C E -148.394875050737
  B       2.037420      0.000000      0.000000
  B       1.012574      1.662144     -0.000000
  B      -1.012574      1.662145     -0.000000
  B      -2.037420     -0.000000      0.000000
  B      -1.012574     -1.662144      0.000000
  B       1.012574     -1.662145     -0.000000
6
Coordinates from ORCA-job B6_planar_ring_d2.20_q0_m3_R2SCAN-3C E -148.491732367301
  B       1.946138     -0.000001     -0.000000
  B       0.961826      1.499789      0.000000
  B      -0.961830      1.499795      0.000000
  B      -1.946138      0.000001     -0.000000
  B      -0.961826     -1.499789     -0.000000
  B       0.961830     -1.499795      0.000000
6
Coordinates from ORCA-job B6_planar_ring_d2.20_q0_m3_R2SCAN-3C E -148.573105906226
  B       1.894656     -0.000005     -0.000000
  B       0.916544      1.310396      0.000000
  B      -0.916572      1.310429      0.000000
  B      -1.894656      0.000005      0.000000
  B      -0.916544     -1.310396     -0.000000
  B       0.916572     -1.310429      0.000000
6
Coordinates from ORCA-job B6_planar_ring_d2.20_q0_m3_R2SCAN-3C E -148.700876066121
  B       1.874259     -0.000026     -0.000000
  B       0.853633      1.104713      0.000000
  B      -0.853745      1.104827      0.000000
  B      -1.874259      0.000026     -0.000000
  B      -0.853633     -1.104713      0.000000
  B       0.853745     -1.104827      0.000000
6
Coordinates from ORCA-job B6_planar_ring_d2.20_q0_m3_R2SCAN-3C E -148.722498495598
  B       1.897588     -0.000012      0.000000
  B       0.774265      0.949547     -0.000000
  B      -0.774360      0.949685     -0.000000
  B      -1.897591      0.000010      0.000000
  B      -0.774263     -0.949548      0.000000
  B       0.774361     -0.949683     -0.000000
6
Coordinates from ORCA-job B6_planar_ring_d2.20_q0_m3_R2SCAN-3C E -148.734235747759
  B       2.051360     -0.000034      0.000000
  B       0.799685      0.889918     -0.000000
  B      -0.799821      0.890062      0.000000
  B      -2.051366      0.000041     -0.000000
  B      -0.799682     -0.889925      0.000000
  B       0.799826     -0.890061     -0.000000
6
Coordinates from ORCA-job B6_planar_ring_d2.20_q0_m3_R2SCAN-3C E -148.729760623291
  B       2.017323     -0.000035     -0.000000
  B       0.797279      1.019042      0.000000
  B      -0.797474      1.019214      0.000000
  B      -2.017307      0.000030     -0.000000
  B      -0.797287     -1.019030      0.000000
  B       0.797466     -1.019221      0.000000
6
Coordinates from ORCA-job B6_planar_ring_d2.20_q0_m3_R2SCAN-3C E -148.737414598430
  B       2.014419     -0.000024      0.000000
  B       0.795040      0.957010     -0.000000
  B      -0.795212      0.957193      0.000000
  B      -2.014409      0.000024     -0.000000
  B      -0.795044     -0.957003      0.000000
  B       0.795205     -0.957200     -0.000000
6
Coordinates from ORCA-job B6_planar_ring_d2.20_q0_m3_R2SCAN-3C E -148.737740601429
  B       2.021494     -0.000058     -0.000000
  B       0.792522      0.933278      0.000000
  B      -0.792753      0.933521      0.000000
  B      -2.021532      0.000049     -0.000000
  B      -0.792512     -0.933294     -0.000000
  B       0.792782     -0.933496      0.000000
6
Coordinates from ORCA-job B6_planar_ring_d2.20_q0_m3_R2SCAN-3C E -148.737786078073
  B       2.020811      0.000035      0.000000
  B       0.794155      0.939482     -0.000000
  B      -0.794327      0.939690     -0.000000
  B      -2.020721     -0.000002      0.000000
  B      -0.794168     -0.939449     -0.000000
  B       0.794250     -0.939755     -0.000000
6
Coordinates from ORCA-job B6_planar_ring_d2.20_q0_m3_R2SCAN-3C E -148.737786390537
  B       2.020782     -0.000305     -0.000000
  B       0.793519      0.939036      0.000000
  B      -0.794061      0.939463      0.000000
  B      -2.021056      0.000155     -0.000000
  B      -0.793518     -0.939109      0.000000
  B       0.794335     -0.939240      0.000000
6
Coordinates from ORCA-job B6_planar_ring_d2.20_q0_m3_R2SCAN-3C E -148.737785891158
  B       2.021227      0.000374     -0.000000
  B       0.793891      0.938722      0.000000
  B      -0.793821      0.938939      0.000000
  B      -2.020934     -0.000074     -0.000000
  B      -0.793753     -0.938713      0.000000
  B       0.793390     -0.939248      0.000000
6
Coordinates from ORCA-job B6_planar_ring_d2.20_q0_m3_R2SCAN-3C E -148.737786592408
  B       2.021103     -0.000072      0.000000
  B       0.793738      0.939006     -0.000000
  B      -0.794106      0.939295     -0.000000
  B      -2.020954     -0.000042      0.000000
  B      -0.793930     -0.938868     -0.000000
  B       0.794149     -0.939319     -0.000000
6
Coordinates from ORCA-job B6_planar_ring_d2.20_q0_m3_R2SCAN-3C E -148.737785928760
  B       2.020673     -0.000052      0.000000
  B       0.793976      0.938809     -0.000000
  B      -0.794443      0.939527     -0.000000
  B      -2.021249      0.000384      0.000000
  B      -0.793327     -0.939294     -0.000000
  B       0.794370     -0.939374     -0.000000
6
Coordinates from ORCA-job B6_planar_ring_d2.20_q0_m3_R2SCAN-3C E -148.737786663256
  B       2.020962     -0.000039      0.000000
  B       0.793751      0.938924      0.000000
  B      -0.794095      0.939399     -0.000000
  B      -2.021020      0.000012     -0.000000
  B      -0.793737     -0.938950     -0.000000
  B       0.794139     -0.939347      0.000000
6
Coordinates from ORCA-job B6_planar_ring_d2.20_q0_m3_R2SCAN-3C E -148.737786574223
  B       2.021128     -0.000128      0.000000
  B       0.793529      0.938917      0.000000
  B      -0.794394      0.939299     -0.000000
  B      -2.020892      0.000213     -0.000000
  B      -0.793600     -0.938832     -0.000000
  B       0.794229     -0.939469     -0.000000
