6
Coordinates from ORCA-job B6_planar_ring_d2.20_q0_m3_R2SCAN-3C E -148.737786574223
  B           2.02112828582951     -0.00012849271324      0.00000002984706
  B           0.79352947377485      0.93891662880634      0.00000000510182
  B          -0.79439447743864      0.93929923388028     -0.00000001979797
  B          -2.02089244575486      0.00021341472129     -0.00000000053519
  B          -0.79359978963126     -0.93883201211809     -0.00000001291272
  B           0.79422895322040     -0.93946877257658     -0.00000000170300
