6
Coordinates from ORCA-job B6_linear_chain_d2.50_q0_m3_R2SCAN-3C E -148.589067535583
  B          -3.85294275671073     -0.00008604450477      0.00017821768017
  B          -2.31087108367750     -0.00025840140352      0.00053907126704
  B          -0.77372473366715      0.00010592768192     -0.00022198993608
  B           0.77370911530706      0.00064506676429     -0.00134448524646
  B           2.31086725389602     -0.00015194621937      0.00032397968401
  B           3.85296220485231     -0.00025460231855      0.00052520655133
