6
Coordinates from ORCA-job B6_linear_chain_d2.50_q0_m3_R2SCAN-3C E -148.046819196814
  B      -6.250000      0.000000      0.000000
  B      -3.750000      0.000000      0.000000
  B      -1.250000      0.000000      0.000000
  B       1.250000      0.000000      0.000000
  B       3.750000      0.000000      0.000000
  B       6.250000      0.000000      0.000000
6
Coordinates from ORCA-job B6_linear_chain_d2.50_q0_m3_R2SCAN-3C E -148.076457069336
  B      -6.071583      0.000000      0.000001
  B      -3.637090     -0.000000     -0.000001
  B      -1.215175     -0.000000     -0.000001
  B       1.210832      0.000000      0.000001
  B       3.638619     -0.000000     -0.000000
  B       6.074397      0.000000     -0.000000
6
Coordinates from ORCA-job B6_linear_chain_d2.50_q0_m3_R2SCAN-3C E -148.109855400916
  B      -5.893771      0.000000      0.000001
  B      -3.521727     -0.000000     -0.000001
  B      -1.179063     -0.000000     -0.000001
  B       1.170951      0.000000      0.000001
  B       3.524439     -0.000000     -0.000000
  B       5.899171     -0.000000     -0.000000
6
Coordinates from ORCA-job B6_linear_chain_d2.50_q0_m3_R2SCAN-3C E -148.167073464499
  B      -5.628340      0.000000      0.000000
  B      -3.345415     -0.000000     -0.000001
  B      -1.123799     -0.000000     -0.000001
  B       1.110882      0.000000      0.000001
  B       3.349790     -0.000000     -0.000000
  B       5.636882     -0.000000     -0.000000
6
Coordinates from ORCA-job B6_linear_chain_d2.50_q0_m3_R2SCAN-3C E -148.257600798469
  B      -5.267439      0.000000      0.000000
  B      -3.107260     -0.000000     -0.000001
  B      -1.044398     -0.000000     -0.000001
  B       1.031530      0.000000      0.000001
  B       3.111685     -0.000000     -0.000000
  B       5.275882     -0.000000     -0.000000
6
Coordinates from ORCA-job B6_linear_chain_d2.50_q0_m3_R2SCAN-3C E -148.352576271357
  B      -4.918131      0.000000      0.000000
  B      -2.869122     -0.000000     -0.000001
  B      -0.965012     -0.000000     -0.000001
  B       0.952163      0.000000      0.000001
  B       2.873564     -0.000000     -0.000000
  B       4.926538     -0.000000     -0.000000
6
Coordinates from ORCA-job B6_linear_chain_d2.50_q0_m3_R2SCAN-3C E -148.439736794701
  B      -4.565412      0.000000      0.000000
  B      -2.631014     -0.000000     -0.000001
  B      -0.885658     -0.000000     -0.000000
  B       0.872764      0.000000      0.000001
  B       2.635412     -0.000000     -0.000000
  B       4.573907     -0.000000     -0.000000
6
Coordinates from ORCA-job B6_linear_chain_d2.50_q0_m3_R2SCAN-3C E -148.527297969535
  B      -4.223132      0.000000      0.000001
  B      -2.392361     -0.000000     -0.000001
  B      -0.805758     -0.000000     -0.000001
  B       0.793911      0.000001      0.000002
  B       2.397806     -0.000001     -0.000002
  B       4.229535      0.000000      0.000001
6
Coordinates from ORCA-job B6_linear_chain_d2.50_q0_m3_R2SCAN-3C E -148.566359360178
  B      -3.879374      0.000158     -0.000320
  B      -2.207356      0.000186     -0.000391
  B      -0.744670     -0.000066      0.000130
  B       0.728017     -0.000684      0.001424
  B       2.215204      0.000030     -0.000076
  B       3.888180      0.000375     -0.000767
6
Coordinates from ORCA-job B6_linear_chain_d2.50_q0_m3_R2SCAN-3C E -148.586867088383
  B      -3.821769     -0.000400      0.000812
  B      -2.308504     -0.000510      0.001063
  B      -0.763970      0.000154     -0.000303
  B       0.799161      0.001873     -0.003880
  B       2.290430     -0.000109      0.000239
  B       3.804651     -0.001007      0.002068
6
Coordinates from ORCA-job B6_linear_chain_d2.50_q0_m3_R2SCAN-3C E -148.578867352786
  B      -3.811461     -0.000785      0.001600
  B      -2.319921     -0.000866      0.001806
  B      -0.791499      0.000426     -0.000857
  B       0.685397      0.003357     -0.006963
  B       2.335404     -0.000331      0.000716
  B       3.902081     -0.001801      0.003698
6
Coordinates from ORCA-job B6_linear_chain_d2.50_q0_m3_R2SCAN-3C E -148.581375464356
  B      -3.901203     -0.000399      0.000813
  B      -2.293611     -0.000498      0.001039
  B      -0.827701      0.000185     -0.000371
  B       0.759966      0.001842     -0.003821
  B       2.365140     -0.000175      0.000377
  B       3.897409     -0.000955      0.001963
6
Coordinates from ORCA-job B6_linear_chain_d2.50_q0_m3_R2SCAN-3C E -148.578538826928
  B      -3.947768     -0.000216      0.000439
  B      -2.347796     -0.000322      0.000671
  B      -0.723133      0.000127     -0.000258
  B       0.849575      0.000987     -0.002045
  B       2.296001     -0.000083      0.000180
  B       3.873120     -0.000493      0.001013
6
Coordinates from ORCA-job B6_linear_chain_d2.50_q0_m3_R2SCAN-3C E -148.586718928301
  B      -3.827467     -0.000428      0.000872
  B      -2.331258     -0.000563      0.001174
  B      -0.759652      0.000231     -0.000465
  B       0.777185      0.001924     -0.003991
  B       2.313943     -0.000188      0.000408
  B       3.827248     -0.000975      0.002002
6
Coordinates from ORCA-job B6_linear_chain_d2.50_q0_m3_R2SCAN-3C E -148.587483099267
  B      -3.859551     -0.000333      0.000681
  B      -2.313792     -0.000459      0.000957
  B      -0.801328      0.000198     -0.000404
  B       0.755142      0.001558     -0.003237
  B       2.317589     -0.000174      0.000374
  B       3.901941     -0.000791      0.001629
6
Coordinates from ORCA-job B6_linear_chain_d2.50_q0_m3_R2SCAN-3C E -148.585741498391
  B      -3.885493     -0.000219      0.000451
  B      -2.279252     -0.000340      0.000709
  B      -0.743428      0.000165     -0.000340
  B       0.768342      0.001049     -0.002182
  B       2.315153     -0.000155      0.000331
  B       3.824679     -0.000500      0.001032
6
Coordinates from ORCA-job B6_linear_chain_d2.50_q0_m3_R2SCAN-3C E -148.588789268048
  B      -3.857277     -0.000232      0.000478
  B      -2.309328     -0.000371      0.000773
  B      -0.762002      0.000164     -0.000338
  B       0.783407      0.001144     -0.002379
  B       2.309642     -0.000158      0.000337
  B       3.835558     -0.000546      0.001128
6
Coordinates from ORCA-job B6_linear_chain_d2.50_q0_m3_R2SCAN-3C E -148.588588583892
  B      -3.854047     -0.000213      0.000439
  B      -2.311738     -0.000353      0.000735
  B      -0.786538      0.000162     -0.000336
  B       0.760258      0.001081     -0.002250
  B       2.313354     -0.000165      0.000352
  B       3.878710     -0.000514      0.001061
6
Coordinates from ORCA-job B6_linear_chain_d2.50_q0_m3_R2SCAN-3C E -148.589066320837
  B      -3.851846     -0.000190      0.000393
  B      -2.310690     -0.000338      0.000705
  B      -0.773938      0.000152     -0.000316
  B       0.773086      0.001001     -0.002083
  B       2.310208     -0.000161      0.000344
  B       3.853180     -0.000463      0.000957
6
Coordinates from ORCA-job B6_linear_chain_d2.50_q0_m3_R2SCAN-3C E -148.589066844403
  B      -3.854104     -0.000156      0.000322
  B      -2.311492     -0.000311      0.000649
  B      -0.773874      0.000139     -0.000288
  B       0.774117      0.000879     -0.001831
  B       2.311713     -0.000159      0.000340
  B       3.853640     -0.000392      0.000809
6
Coordinates from ORCA-job B6_linear_chain_d2.50_q0_m3_R2SCAN-3C E -148.589067434286
  B      -3.852822     -0.000136      0.000281
  B      -2.310647     -0.000295      0.000616
  B      -0.773675      0.000130     -0.000272
  B       0.773725      0.000810     -0.001686
  B       2.310730     -0.000157      0.000336
  B       3.852689     -0.000351      0.000725
6
Coordinates from ORCA-job B6_linear_chain_d2.50_q0_m3_R2SCAN-3C E -148.589067497076
  B      -3.852909     -0.000113      0.000233
  B      -2.310895     -0.000277      0.000578
  B      -0.773703      0.000120     -0.000250
  B       0.773680      0.000730     -0.001520
  B       2.310842     -0.000155      0.000330
  B       3.852986     -0.000305      0.000629
6
Coordinates from ORCA-job B6_linear_chain_d2.50_q0_m3_R2SCAN-3C E -148.589067535583
  B      -3.852943     -0.000086      0.000178
  B      -2.310871     -0.000258      0.000539
  B      -0.773725      0.000106     -0.000222
  B       0.773709      0.000645     -0.001344
  B       2.310867     -0.000152      0.000324
  B       3.852962     -0.000255      0.000525
