6
Coordinates from ORCA-job FINAL_rank08_B6_rhombic_planar_d3.50_q0_m3_R2SCAN-3C_PBE0_def2-TZVP_OptFreq E -148.631673188213
  B      -1.941021     -0.629207     -0.000049
  B      -0.360218     -0.872830     -0.000107
  B       1.217796     -0.707835     -0.000114
  B      -1.217789      0.707834      0.000120
  B       0.360208      0.872825      0.000109
  B       1.941023      0.629212      0.000041
6
Coordinates from ORCA-job FINAL_rank08_B6_rhombic_planar_d3.50_q0_m3_R2SCAN-3C_PBE0_def2-TZVP_OptFreq E -148.631708337589
  B      -1.938293     -0.628374     -0.000049
  B      -0.360062     -0.873993     -0.000107
  B       1.217480     -0.708187     -0.000115
  B      -1.217477      0.708186      0.000119
  B       0.360055      0.873989      0.000109
  B       1.938295      0.628377      0.000042
6
Coordinates from ORCA-job FINAL_rank08_B6_rhombic_planar_d3.50_q0_m3_R2SCAN-3C_PBE0_def2-TZVP_OptFreq E -148.631764853195
  B      -1.931772     -0.626597     -0.000053
  B      -0.359923     -0.878438     -0.000106
  B       1.216574     -0.709608     -0.000112
  B      -1.216579      0.709607      0.000123
  B       0.359923      0.878439      0.000111
  B       1.931776      0.626596      0.000037
6
Coordinates from ORCA-job FINAL_rank08_B6_rhombic_planar_d3.50_q0_m3_R2SCAN-3C_PBE0_def2-TZVP_OptFreq E -148.631775784314
  B      -1.930575     -0.626399     -0.000051
  B      -0.360097     -0.880897     -0.000107
  B       1.216188     -0.710285     -0.000113
  B      -1.216195      0.710285      0.000122
  B       0.360098      0.880899      0.000111
  B       1.930579      0.626396      0.000039
6
Coordinates from ORCA-job FINAL_rank08_B6_rhombic_planar_d3.50_q0_m3_R2SCAN-3C_PBE0_def2-TZVP_OptFreq E -148.631797363871
  B      -1.929631     -0.626464     -0.000051
  B      -0.360798     -0.887263     -0.000108
  B       1.215059     -0.711591     -0.000113
  B      -1.215069      0.711590      0.000121
  B       0.360796      0.887270      0.000113
  B       1.929641      0.626457      0.000038
6
Coordinates from ORCA-job FINAL_rank08_B6_rhombic_planar_d3.50_q0_m3_R2SCAN-3C_PBE0_def2-TZVP_OptFreq E -148.631802853982
  B      -1.930383     -0.626639     -0.000045
  B      -0.361142     -0.888758     -0.000110
  B       1.214541     -0.711375     -0.000118
  B      -1.214553      0.711370      0.000116
  B       0.361136      0.888767      0.000111
  B       1.930400      0.626634      0.000045
6
Coordinates from ORCA-job FINAL_rank08_B6_rhombic_planar_d3.50_q0_m3_R2SCAN-3C_PBE0_def2-TZVP_OptFreq E -148.631804005377
  B      -1.931391     -0.626749     -0.000040
  B      -0.361610     -0.889905     -0.000110
  B       1.213778     -0.710581     -0.000122
  B      -1.213784      0.710579      0.000113
  B       0.361604      0.889910      0.000110
  B       1.931402      0.626745      0.000050
6
Coordinates from ORCA-job FINAL_rank08_B6_rhombic_planar_d3.50_q0_m3_R2SCAN-3C_PBE0_def2-TZVP_OptFreq E -148.631806564313
  B      -1.931843     -0.626712     -0.000042
  B      -0.361975     -0.890289     -0.000111
  B       1.213175     -0.709783     -0.000119
  B      -1.213179      0.709781      0.000115
  B       0.361969      0.890292      0.000109
  B       1.931851      0.626710      0.000047
6
Coordinates from ORCA-job FINAL_rank08_B6_rhombic_planar_d3.50_q0_m3_R2SCAN-3C_PBE0_def2-TZVP_OptFreq E -148.631803828451
  B      -1.931883     -0.626621     -0.000045
  B      -0.362301     -0.890465     -0.000111
  B       1.212696     -0.709152     -0.000116
  B      -1.212700      0.709149      0.000118
  B       0.362294      0.890469      0.000110
  B       1.931892      0.626619      0.000044
6
Coordinates from ORCA-job FINAL_rank08_B6_rhombic_planar_d3.50_q0_m3_R2SCAN-3C_PBE0_def2-TZVP_OptFreq E -148.631808437135
  B      -1.931756     -0.626606     -0.000046
  B      -0.362380     -0.890425     -0.000111
  B       1.212634     -0.709088     -0.000116
  B      -1.212639      0.709085      0.000118
  B       0.362374      0.890429      0.000110
  B       1.931766      0.626605      0.000044
