6
Coordinates from ORCA-job FINAL_rank08_B6_rhombic_planar_d3.50_q0_m3_R2SCAN-3C_PBE0_def2-TZVP_OptFreq E -148.631808437135
  B          -1.93175569662059     -0.62660648336785     -0.00004559583284
  B          -0.36237976301126     -0.89042548138807     -0.00011081660837
  B           1.21263421295397     -0.70908753946964     -0.00011573717502
  B          -1.21263913700014      0.70908457737530      0.00011825734421
  B           0.36237387926103      0.89042935254647      0.00010993713498
  B           1.93176550441699      0.62660457430379      0.00004395513704
