6
Coordinates from ORCA-job B6_trigonal_prism_d1.80_q0_m1_R2SCAN-3C E -148.566015827436
  B       0.900000      0.519615     -0.900000
  B      -0.900000      0.519615     -0.900000
  B      -0.000000     -1.039230     -0.900000
  B       0.900000      0.519615      0.900000
  B      -0.900000      0.519615      0.900000
  B      -0.000000     -1.039230      0.900000
6
Coordinates from ORCA-job B6_trigonal_prism_d1.80_q0_m1_R2SCAN-3C E -148.583846422844
  B       0.852457      0.520072     -0.893969
  B      -0.852457      0.520072     -0.893969
  B       0.000000     -1.040144     -0.884047
  B       0.852457      0.520072      0.893969
  B      -0.852457      0.520072      0.893969
  B       0.000000     -1.040144      0.884047
6
Coordinates from ORCA-job B6_trigonal_prism_d1.80_q0_m1_R2SCAN-3C E -148.593028441731
  B       0.805338      0.517944     -0.892456
  B      -0.805338      0.517944     -0.892456
  B       0.000000     -1.035888     -0.869126
  B       0.805338      0.517944      0.892456
  B      -0.805338      0.517944      0.892456
  B       0.000000     -1.035888      0.869126
6
Coordinates from ORCA-job B6_trigonal_prism_d1.80_q0_m1_R2SCAN-3C E -148.593784456747
  B       0.791460      0.513428     -0.895320
  B      -0.791460      0.513428     -0.895320
  B       0.000000     -1.026855     -0.859361
  B       0.791460      0.513428      0.895320
  B      -0.791460      0.513428      0.895320
  B      -0.000000     -1.026855      0.859361
6
Coordinates from ORCA-job B6_trigonal_prism_d1.80_q0_m1_R2SCAN-3C E -148.594002460295
  B       0.793471      0.510858     -0.898734
  B      -0.793471      0.510858     -0.898734
  B       0.000000     -1.021716     -0.854886
  B       0.793471      0.510858      0.898734
  B      -0.793471      0.510858      0.898734
  B       0.000000     -1.021716      0.854886
6
Coordinates from ORCA-job B6_trigonal_prism_d1.80_q0_m1_R2SCAN-3C E -148.594135080012
  B       0.795465      0.508325     -0.905647
  B      -0.795465      0.508325     -0.905647
  B       0.000000     -1.016649     -0.848413
  B       0.795465      0.508325      0.905647
  B      -0.795465      0.508325      0.905647
  B       0.000000     -1.016649      0.848413
6
Coordinates from ORCA-job B6_trigonal_prism_d1.80_q0_m1_R2SCAN-3C E -148.594151957719
  B       0.795580      0.508502     -0.908139
  B      -0.795580      0.508502     -0.908139
  B       0.000000     -1.017005     -0.847269
  B       0.795580      0.508502      0.908139
  B      -0.795580      0.508502      0.908139
  B       0.000000     -1.017005      0.847269
6
Coordinates from ORCA-job B6_trigonal_prism_d1.80_q0_m1_R2SCAN-3C E -148.594156635735
  B       0.795281      0.508916     -0.909649
  B      -0.795281      0.508916     -0.909649
  B       0.000000     -1.017832     -0.846835
  B       0.795281      0.508916      0.909649
  B      -0.795281      0.508916      0.909649
  B       0.000000     -1.017832      0.846835
6
Coordinates from ORCA-job B6_trigonal_prism_d1.80_q0_m1_R2SCAN-3C E -148.594156675904
  B       0.795220      0.508974     -0.909661
  B      -0.795220      0.508974     -0.909661
  B       0.000000     -1.017947     -0.846852
  B       0.795220      0.508974      0.909661
  B      -0.795220      0.508974      0.909661
  B       0.000000     -1.017947      0.846852
