6
Coordinates from ORCA-job B6_trigonal_prism_d1.80_q0_m1_R2SCAN-3C E -148.594156675904
  B           0.79521986738401      0.50897351940133     -0.90966056776925
  B          -0.79521989180743      0.50897356701557     -0.90966052403111
  B           0.00000002948707     -1.01794708549110     -0.84685243183490
  B           0.79521986714597      0.50897352055612      0.90966056207448
  B          -0.79521989179073      0.50897356690367      0.90966052862536
  B           0.00000001958111     -1.01794708838560      0.84685243293542
