6
Coordinates from ORCA-job B6_random_3d_seed1000_d2.00_q0_m3_R2SCAN-3C E -148.473093960797
  B       0.611618     -0.634035      1.256285
  B       1.595830     -0.178831     -0.451572
  B      -0.033732     -1.458251     -0.549392
  B      -0.681083      0.714734      1.066638
  B      -0.097131      1.516888     -0.675506
  B      -1.395502      0.039495     -0.646452
6
Coordinates from ORCA-job B6_random_3d_seed1000_d2.00_q0_m3_R2SCAN-3C E -148.509528168575
  B       0.590467     -0.609230      1.229299
  B       1.514045     -0.125216     -0.447499
  B      -0.044277     -1.417196     -0.542201
  B      -0.658694      0.690572      1.046970
  B      -0.047158      1.430649     -0.655532
  B      -1.354382      0.030421     -0.631036
6
Coordinates from ORCA-job B6_random_3d_seed1000_d2.00_q0_m3_R2SCAN-3C E -148.543678676163
  B       0.573036     -0.587058      1.203514
  B       1.425834     -0.060475     -0.442833
  B      -0.055077     -1.376616     -0.535982
  B      -0.638659      0.667488      1.027549
  B       0.011298      1.330942     -0.636608
  B      -1.316432      0.025720     -0.615640
6
Coordinates from ORCA-job B6_random_3d_seed1000_d2.00_q0_m3_R2SCAN-3C E -148.586019991932
  B       0.558158     -0.558626      1.166826
  B       1.290219      0.050751     -0.429842
  B      -0.074430     -1.317917     -0.529904
  B      -0.613700      0.635407      0.994850
  B       0.105226      1.161879     -0.610103
  B      -1.265474      0.028506     -0.591827
6
Coordinates from ORCA-job B6_random_3d_seed1000_d2.00_q0_m3_R2SCAN-3C E -148.631428883249
  B       0.596615     -0.546451      1.116179
  B       1.229366      0.069908     -0.328481
  B      -0.110146     -1.224845     -0.521881
  B      -0.571085      0.598657      0.937370
  B       0.064687      1.049535     -0.620941
  B      -1.209437      0.053196     -0.582246
6
Coordinates from ORCA-job B6_random_3d_seed1000_d2.00_q0_m3_R2SCAN-3C E -148.652265647712
  B       0.632133     -0.547938      1.065693
  B       1.228073      0.089383     -0.192086
  B      -0.163397     -1.076278     -0.497562
  B      -0.524478      0.516554      0.885990
  B       0.007479      0.939219     -0.703803
  B      -1.179811      0.079060     -0.558233
6
Coordinates from ORCA-job B6_random_3d_seed1000_d2.00_q0_m3_R2SCAN-3C E -148.672219019511
  B       0.649802     -0.567678      1.070464
  B       1.250614      0.095014     -0.180390
  B      -0.171252     -1.058104     -0.436522
  B      -0.528480      0.455107      0.881287
  B       0.030264      0.989822     -0.761409
  B      -1.230948      0.085838     -0.573431
6
Coordinates from ORCA-job B6_random_3d_seed1000_d2.00_q0_m3_R2SCAN-3C E -148.683126748633
  B       0.657719     -0.600856      1.075986
  B       1.241324      0.158171     -0.174662
  B      -0.188604     -1.026959     -0.390461
  B      -0.522862      0.397784      0.883902
  B       0.069864      0.962388     -0.814954
  B      -1.257441      0.109472     -0.579812
6
Coordinates from ORCA-job B6_random_3d_seed1000_d2.00_q0_m3_R2SCAN-3C E -148.688783630660
  B       0.675232     -0.647254      1.070788
  B       1.289446      0.185301     -0.131501
  B      -0.187494     -1.010923     -0.343254
  B      -0.532310      0.361404      0.874187
  B       0.044472      0.958557     -0.890570
  B      -1.289346      0.152915     -0.579649
6
Coordinates from ORCA-job B6_random_3d_seed1000_d2.00_q0_m3_R2SCAN-3C E -148.693923604234
  B       0.694412     -0.661947      1.033268
  B       1.267998      0.229817     -0.117579
  B      -0.211474     -1.014541     -0.296802
  B      -0.547552      0.331449      0.881221
  B       0.083507      0.944211     -0.918026
  B      -1.286891      0.171010     -0.582082
6
Coordinates from ORCA-job B6_random_3d_seed1000_d2.00_q0_m3_R2SCAN-3C E -148.697788408388
  B       0.701090     -0.683628      1.000197
  B       1.258455      0.299518     -0.114256
  B      -0.242254     -1.046154     -0.278221
  B      -0.573622      0.323945      0.917686
  B       0.115709      0.911744     -0.948163
  B      -1.259378      0.194575     -0.577243
6
Coordinates from ORCA-job B6_random_3d_seed1000_d2.00_q0_m3_R2SCAN-3C E -148.699917036860
  B       0.707900     -0.700938      0.962043
  B       1.266693      0.352343     -0.058294
  B      -0.272288     -1.058422     -0.268704
  B      -0.574915      0.310720      0.934985
  B       0.113912      0.877689     -1.008770
  B      -1.241303      0.218608     -0.561261
6
Coordinates from ORCA-job B6_random_3d_seed1000_d2.00_q0_m3_R2SCAN-3C E -148.700411716320
  B       0.715273     -0.684944      0.955721
  B       1.269864      0.355488     -0.072704
  B      -0.291320     -1.075068     -0.257940
  B      -0.594447      0.295559      0.937834
  B       0.125860      0.885950     -1.002261
  B      -1.225231      0.223015     -0.560651
6
Coordinates from ORCA-job B6_random_3d_seed1000_d2.00_q0_m3_R2SCAN-3C E -148.700507087624
  B       0.713555     -0.682352      0.955798
  B       1.274970      0.358371     -0.073638
  B      -0.295046     -1.083707     -0.260197
  B      -0.596266      0.295817      0.940540
  B       0.126364      0.888139     -1.003452
  B      -1.223577      0.223733     -0.559052
6
Coordinates from ORCA-job B6_random_3d_seed1000_d2.00_q0_m3_R2SCAN-3C E -148.700558536214
  B       0.710020     -0.677643      0.954858
  B       1.283270      0.357770     -0.078402
  B      -0.298359     -1.089916     -0.257969
  B      -0.599987      0.293450      0.942019
  B       0.126885      0.894332     -1.001524
  B      -1.221829      0.222008     -0.558982
6
Coordinates from ORCA-job B6_random_3d_seed1000_d2.00_q0_m3_R2SCAN-3C E -148.700570275254
  B       0.708376     -0.674459      0.954036
  B       1.285969      0.355488     -0.080358
  B      -0.298927     -1.091452     -0.258948
  B      -0.600890      0.294332      0.944006
  B       0.126942      0.896554     -0.998994
  B      -1.221470      0.219536     -0.559742
6
Coordinates from ORCA-job B6_random_3d_seed1000_d2.00_q0_m3_R2SCAN-3C E -148.700572965353
  B       0.707821     -0.673537      0.953569
  B       1.287856      0.354456     -0.082143
  B      -0.299190     -1.090604     -0.258100
  B      -0.602269      0.293914      0.944898
  B       0.126813      0.897441     -0.997504
  B      -1.221031      0.218331     -0.560721
6
Coordinates from ORCA-job B6_random_3d_seed1000_d2.00_q0_m3_R2SCAN-3C E -148.700573210722
  B       0.707993     -0.673486      0.953455
  B       1.287822      0.354246     -0.082122
  B      -0.298971     -1.090205     -0.258290
  B      -0.602423      0.294097      0.945014
  B       0.126794      0.897053     -0.997238
  B      -1.221216      0.218295     -0.560819
6
Coordinates from ORCA-job B6_random_3d_seed1000_d2.00_q0_m3_R2SCAN-3C E -148.700573291238
  B       0.708073     -0.673416      0.953442
  B       1.288053      0.354142     -0.082136
  B      -0.298779     -1.089901     -0.258522
  B      -0.602589      0.294200      0.945012
  B       0.126733      0.896635     -0.996985
  B      -1.221491      0.218340     -0.560811
