6
Coordinates from ORCA-job B6_random_3d_seed1000_d2.00_q0_m3_R2SCAN-3C E -148.700573291238
  B           0.70807323285576     -0.67341581320025      0.95344197212336
  B           1.28805340991451      0.35414204042789     -0.08213590802470
  B          -0.29877925411411     -1.08990112177156     -0.25852210914830
  B          -0.60258915736568      0.29419993867450      0.94501217705413
  B           0.12673320729211      0.89663508575803     -0.99698493527686
  B          -1.22149143858258      0.21833988011140     -0.56081118672763
