6
Coordinates from ORCA-job B6_compact_planar_triangle_d3.00_q0_m1_R2SCAN-3C E -148.630568457852
  B          -1.69339476724404     -0.97764276327346     -0.00000020804828
  B          -0.00001902850147     -0.92915683637083      0.00000020319899
  B           1.69337646407981     -0.97758398437448     -0.00000021080181
  B          -0.80477685434509      0.46460074808001      0.00000020534865
  B           0.80477228811100      0.46462033777925      0.00000022079344
  B           0.00004189789979      1.95516248815952     -0.00000021049099
