6
Coordinates from ORCA-job B6_compact_planar_triangle_d3.00_q0_m1_R2SCAN-3C E -147.967652671442
  B      -3.000000     -1.732051      0.000000
  B       0.000000     -1.732051      0.000000
  B       3.000000     -1.732051      0.000000
  B      -1.500000      0.866025      0.000000
  B       1.500000      0.866025      0.000000
  B       0.000000      3.464102      0.000000
6
Coordinates from ORCA-job B6_compact_planar_triangle_d3.00_q0_m1_R2SCAN-3C E -147.983120151156
  B      -2.951680     -1.704159     -0.000000
  B       0.000000     -1.696838      0.000000
  B       2.951680     -1.704159     -0.000000
  B      -1.469503      0.848420     -0.000000
  B       1.469503      0.848420      0.000000
  B      -0.000000      3.408315     -0.000000
6
Coordinates from ORCA-job B6_compact_planar_triangle_d3.00_q0_m1_R2SCAN-3C E -147.999196700043
  B      -2.903706     -1.676461     -0.000000
  B       0.000000     -1.661310      0.000000
  B       2.903706     -1.676461     -0.000000
  B      -1.438733      0.830656     -0.000000
  B       1.438733      0.830656      0.000000
  B      -0.000000      3.352920     -0.000000
6
Coordinates from ORCA-job B6_compact_planar_triangle_d3.00_q0_m1_R2SCAN-3C E -148.024445437440
  B      -2.831995     -1.635052     -0.000000
  B       0.000000     -1.607777      0.000000
  B       2.831995     -1.635052     -0.000000
  B      -1.392367      0.803883     -0.000000
  B       1.392367      0.803883      0.000000
  B       0.000000      3.270115     -0.000000
6
Coordinates from ORCA-job B6_compact_planar_triangle_d3.00_q0_m1_R2SCAN-3C E -148.064728580168
  B      -2.724985     -1.573235      0.000000
  B      -0.000000     -1.526937     -0.000000
  B       2.724985     -1.573235      0.000000
  B      -1.322359      0.763454     -0.000000
  B       1.322359      0.763454     -0.000000
  B       0.000000      3.146501      0.000000
6
Coordinates from ORCA-job B6_compact_planar_triangle_d3.00_q0_m1_R2SCAN-3C E -148.109136429187
  B      -2.615762     -1.510165      0.000000
  B       0.000000     -1.441502     -0.000000
  B       2.615762     -1.510165      0.000000
  B      -1.248360      0.720736     -0.000000
  B       1.248360      0.720736     -0.000000
  B       0.000000      3.020359      0.000000
6
Coordinates from ORCA-job B6_compact_planar_triangle_d3.00_q0_m1_R2SCAN-3C E -148.155310969347
  B      -2.508612     -1.448249      0.000000
  B       0.000000     -1.354269     -0.000000
  B       2.508612     -1.448249      0.000000
  B      -1.172791      0.677077     -0.000000
  B       1.172791      0.677077      0.000000
  B       0.000000      2.896614      0.000000
6
Coordinates from ORCA-job B6_compact_planar_triangle_d3.00_q0_m1_R2SCAN-3C E -148.201060156718
  B      -2.403138     -1.387331      0.000000
  B       0.000000     -1.265505     -0.000000
  B       2.403138     -1.387331     -0.000000
  B      -1.095958      0.632716     -0.000000
  B       1.095958      0.632716      0.000000
  B       0.000000      2.774735     -0.000000
6
Coordinates from ORCA-job B6_compact_planar_triangle_d3.00_q0_m1_R2SCAN-3C E -148.243684890564
  B      -2.299185     -1.327189      0.000000
  B       0.000000     -1.175456     -0.000000
  B       2.299185     -1.327189      0.000000
  B      -1.017879      0.587572     -0.000000
  B       1.017879      0.587572      0.000000
  B      -0.000000      2.654689     -0.000000
6
Coordinates from ORCA-job B6_compact_planar_triangle_d3.00_q0_m1_R2SCAN-3C E -148.276969235240
  B      -2.191334     -1.264924      0.000000
  B       0.000000     -1.088130     -0.000000
  B       2.191334     -1.264924      0.000000
  B      -0.942168      0.543929      0.000000
  B       0.942168      0.543929     -0.000000
  B       0.000000      2.530119     -0.000000
6
Coordinates from ORCA-job B6_compact_planar_triangle_d3.00_q0_m1_R2SCAN-3C E -148.497988390457
  B      -2.060954     -1.189491     -0.000000
  B       0.000000     -1.026686      0.000000
  B       2.060954     -1.189491     -0.000000
  B      -0.888986      0.513070      0.000000
  B       0.888986      0.513070      0.000000
  B       0.000000      2.379528     -0.000000
6
Coordinates from ORCA-job B6_compact_planar_triangle_d3.00_q0_m1_R2SCAN-3C E -148.569075749833
  B      -1.922658     -1.109655     -0.000000
  B      -0.000001     -0.982569      0.000000
  B       1.922655     -1.109647     -0.000000
  B      -0.850789      0.491022      0.000000
  B       0.850787      0.491022      0.000000
  B       0.000006      2.219827     -0.000000
6
Coordinates from ORCA-job B6_compact_planar_triangle_d3.00_q0_m1_R2SCAN-3C E -148.606140799800
  B      -1.828386     -1.055232     -0.000000
  B      -0.000000     -0.960806      0.000000
  B       1.828385     -1.055229     -0.000000
  B      -0.831893      0.480097      0.000000
  B       0.831892      0.480097      0.000000
  B       0.000002      2.111073     -0.000000
6
Coordinates from ORCA-job B6_compact_planar_triangle_d3.00_q0_m1_R2SCAN-3C E -148.630519146562
  B      -1.690423     -0.975998     -0.000000
  B      -0.000001     -0.932393      0.000000
  B       1.690428     -0.976007     -0.000000
  B      -0.807309      0.466141      0.000000
  B       0.807311      0.466143      0.000000
  B      -0.000005      1.952114     -0.000000
6
Coordinates from ORCA-job B6_compact_planar_triangle_d3.00_q0_m1_R2SCAN-3C E -148.630106821600
  B      -1.696328     -0.979171     -0.000000
  B       0.000009     -0.917606      0.000000
  B       1.696304     -0.979146     -0.000000
  B      -0.794859      0.458738      0.000000
  B       0.794864      0.458730      0.000000
  B       0.000010      1.958455     -0.000000
6
Coordinates from ORCA-job B6_compact_planar_triangle_d3.00_q0_m1_R2SCAN-3C E -148.630567452261
  B      -1.694226     -0.978206     -0.000000
  B       0.000006     -0.929461      0.000000
  B       1.694199     -0.978167     -0.000000
  B      -0.804995      0.464887      0.000000
  B       0.804996      0.464881      0.000000
  B       0.000020      1.956066     -0.000000
6
Coordinates from ORCA-job B6_compact_planar_triangle_d3.00_q0_m1_R2SCAN-3C E -148.630567914107
  B      -1.692745     -0.977440     -0.000000
  B      -0.000037     -0.929138      0.000000
  B       1.692845     -0.977544     -0.000000
  B      -0.804927      0.464283      0.000000
  B       0.804905      0.464312      0.000000
  B      -0.000041      1.955527     -0.000000
6
Coordinates from ORCA-job B6_compact_planar_triangle_d3.00_q0_m1_R2SCAN-3C E -148.630566138393
  B      -1.693366     -0.977742     -0.000000
  B       0.000095     -0.929024      0.000000
  B       1.693200     -0.977619     -0.000000
  B      -0.804133      0.465371      0.000000
  B       0.804182      0.465289      0.000000
  B       0.000023      1.953725     -0.000000
6
Coordinates from ORCA-job B6_compact_planar_triangle_d3.00_q0_m1_R2SCAN-3C E -148.630568418307
  B      -1.693727     -0.977809     -0.000000
  B      -0.000012     -0.929217      0.000000
  B       1.693685     -0.977721     -0.000000
  B      -0.804816      0.464667      0.000000
  B       0.804815      0.464680      0.000000
  B       0.000055      1.955399     -0.000000
6
Coordinates from ORCA-job B6_compact_planar_triangle_d3.00_q0_m1_R2SCAN-3C E -148.630568393718
  B      -1.692980     -0.977821     -0.000000
  B       0.000032     -0.929208      0.000000
  B       1.693088     -0.978047     -0.000000
  B      -0.804723      0.464714      0.000000
  B       0.804726      0.464679      0.000000
  B      -0.000142      1.955682     -0.000000
6
Coordinates from ORCA-job B6_compact_planar_triangle_d3.00_q0_m1_R2SCAN-3C E -148.630568457852
  B      -1.693395     -0.977643     -0.000000
  B      -0.000019     -0.929157      0.000000
  B       1.693376     -0.977584     -0.000000
  B      -0.804777      0.464601      0.000000
  B       0.804772      0.464620      0.000000
  B       0.000042      1.955162     -0.000000
