6
Coordinates from ORCA-job B6_rhombic_planar_d1.80_q0_m3_R2SCAN-3C E -148.644196708009
  B      -2.250000     -0.779423      0.000000
  B      -0.450000     -0.779423      0.000000
  B       1.350000     -0.779423      0.000000
  B      -1.350000      0.779423      0.000000
  B       0.450000      0.779423      0.000000
  B       2.250000      0.779423      0.000000
6
Coordinates from ORCA-job B6_rhombic_planar_d1.80_q0_m3_R2SCAN-3C E -148.681996190851
  B      -2.176398     -0.741174      0.000000
  B      -0.427591     -0.777050     -0.000000
  B       1.326140     -0.756540     -0.000000
  B      -1.326140      0.756540     -0.000000
  B       0.427591      0.777050     -0.000000
  B       2.176398      0.741174      0.000000
6
Coordinates from ORCA-job B6_rhombic_planar_d1.80_q0_m3_R2SCAN-3C E -148.712965475362
  B      -2.103180     -0.701690     -0.000000
  B      -0.403309     -0.779851      0.000000
  B       1.302149     -0.734106     -0.000000
  B      -1.302149      0.734106      0.000000
  B       0.403309      0.779851      0.000000
  B       2.103180      0.701690     -0.000000
6
Coordinates from ORCA-job B6_rhombic_planar_d1.80_q0_m3_R2SCAN-3C E -148.739051203588
  B      -1.991329     -0.644113      0.000000
  B      -0.364988     -0.791113      0.000000
  B       1.259311     -0.703672     -0.000000
  B      -1.259311      0.703672     -0.000000
  B       0.364988      0.791113     -0.000000
  B       1.991329      0.644113      0.000000
6
Coordinates from ORCA-job B6_rhombic_planar_d1.80_q0_m3_R2SCAN-3C E -148.741343668541
  B      -1.945127     -0.628590     -0.000000
  B      -0.350222     -0.805529      0.000000
  B       1.229454     -0.699528      0.000000
  B      -1.229454      0.699528     -0.000000
  B       0.350222      0.805529      0.000000
  B       1.945127      0.628590     -0.000000
6
Coordinates from ORCA-job B6_rhombic_planar_d1.80_q0_m3_R2SCAN-3C E -148.742044168528
  B      -1.946944     -0.631519     -0.000000
  B      -0.352803     -0.815292     -0.000000
  B       1.227604     -0.703266      0.000000
  B      -1.227596      0.703272      0.000000
  B       0.352809      0.815286     -0.000000
  B       1.946929      0.631519      0.000000
6
Coordinates from ORCA-job B6_rhombic_planar_d1.80_q0_m3_R2SCAN-3C E -148.743149309780
  B      -1.944367     -0.631645      0.000000
  B      -0.357378     -0.849081     -0.000000
  B       1.223959     -0.709413      0.000000
  B      -1.223957      0.709394     -0.000000
  B       0.357369      0.849069     -0.000000
  B       1.944374      0.631676      0.000000
6
Coordinates from ORCA-job B6_rhombic_planar_d1.80_q0_m3_R2SCAN-3C E -148.743311917897
  B      -1.940695     -0.629629     -0.000000
  B      -0.358041     -0.864853      0.000000
  B       1.220863     -0.710419     -0.000000
  B      -1.220852      0.710423     -0.000000
  B       0.358041      0.864854     -0.000000
  B       1.940683      0.629626      0.000000
6
Coordinates from ORCA-job B6_rhombic_planar_d1.80_q0_m3_R2SCAN-3C E -148.743330622173
  B      -1.940085     -0.628785      0.000000
  B      -0.358774     -0.871023     -0.000000
  B       1.219670     -0.710005     -0.000000
  B      -1.219663      0.709997     -0.000000
  B       0.358772      0.871019     -0.000000
  B       1.940081      0.628798      0.000000
6
Coordinates from ORCA-job B6_rhombic_planar_d1.80_q0_m3_R2SCAN-3C E -148.743333358498
  B      -1.940222     -0.628719     -0.000000
  B      -0.359263     -0.872474      0.000000
  B       1.218869     -0.709423      0.000000
  B      -1.218870      0.709424      0.000000
  B       0.359265      0.872479      0.000000
  B       1.940221      0.628713     -0.000000
6
Coordinates from ORCA-job B6_rhombic_planar_d1.80_q0_m3_R2SCAN-3C E -148.743335422981
  B      -1.940782     -0.628811      0.000000
  B      -0.360049     -0.873257     -0.000000
  B       1.217953     -0.708424      0.000000
  B      -1.217964      0.708417      0.000000
  B       0.360043      0.873266     -0.000000
  B       1.940800      0.628809      0.000000
6
Coordinates from ORCA-job B6_rhombic_planar_d1.80_q0_m3_R2SCAN-3C E -148.743335780837
  B      -1.941096     -0.628922     -0.000000
  B      -0.360319     -0.872984      0.000000
  B       1.217682     -0.707993      0.000000
  B      -1.217682      0.707997     -0.000000
  B       0.360319      0.872991      0.000000
  B       1.941097      0.628911     -0.000000
6
Coordinates from ORCA-job B6_rhombic_planar_d1.80_q0_m3_R2SCAN-3C E -148.743335807896
  B      -1.941162     -0.628947      0.000000
  B      -0.360336     -0.872770     -0.000000
  B       1.217712     -0.707949      0.000000
  B      -1.217710      0.707951      0.000000
  B       0.360339      0.872769     -0.000000
  B       1.941156      0.628945      0.000000
