6
Coordinates from ORCA-job B6_rhombic_planar_d1.80_q0_m3_R2SCAN-3C E -148.743335807896
  B          -1.94116154154923     -0.62894721379252      0.00000000378061
  B          -0.36033552776652     -0.87276959393194     -0.00000000827111
  B           1.21771211384762     -0.70794906671066      0.00000000374180
  B          -1.21771041692818      0.70795098624087      0.00000000634612
  B           0.36033916607810      0.87276946937812     -0.00000001165545
  B           1.94115620631821      0.62894541881613      0.00000000605802
