6
Coordinates from ORCA-job B6_compact_planar_triangle_d3.00_q0_m5_R2SCAN-3C E -147.992357404373
  B      -3.000000     -1.732051      0.000000
  B       0.000000     -1.732051      0.000000
  B       3.000000     -1.732051      0.000000
  B      -1.500000      0.866025      0.000000
  B       1.500000      0.866025      0.000000
  B       0.000000      3.464102      0.000000
6
Coordinates from ORCA-job B6_compact_planar_triangle_d3.00_q0_m5_R2SCAN-3C E -148.007890582430
  B      -2.939299     -1.705485     -0.000000
  B      -0.000000     -1.701094      0.000000
  B       2.939299     -1.705485     -0.000000
  B      -1.481669      0.857997     -0.000000
  B       1.481669      0.857997      0.000000
  B      -0.000000      3.396069      0.000000
6
Coordinates from ORCA-job B6_compact_planar_triangle_d3.00_q0_m5_R2SCAN-3C E -148.024245828705
  B      -2.878676     -1.678808      0.000000
  B      -0.000000     -1.670069      0.000000
  B       2.878674     -1.678809     -0.000000
  B      -1.463693      0.850149     -0.000000
  B       1.463698      0.850151      0.000000
  B      -0.000002      3.327385     -0.000000
6
Coordinates from ORCA-job B6_compact_planar_triangle_d3.00_q0_m5_R2SCAN-3C E -148.050364941433
  B      -2.788642     -1.637898      0.000000
  B      -0.000002     -1.623888     -0.000000
  B       2.788621     -1.637891      0.000000
  B      -1.436665      0.838225     -0.000000
  B       1.436695      0.838241      0.000000
  B      -0.000006      3.223211      0.000000
6
Coordinates from ORCA-job B6_compact_planar_triangle_d3.00_q0_m5_R2SCAN-3C E -148.093255641748
  B      -2.656105     -1.574490      0.000000
  B      -0.000006     -1.555020     -0.000000
  B       2.656014     -1.574444      0.000000
  B      -1.396097      0.820021     -0.000000
  B       1.396204      0.820081      0.000000
  B      -0.000010      3.063850      0.000000
6
Coordinates from ORCA-job B6_compact_planar_triangle_d3.00_q0_m5_R2SCAN-3C E -148.142753672282
  B      -2.522953     -1.506509      0.000000
  B      -0.000012     -1.482468     -0.000000
  B       2.522760     -1.506387      0.000000
  B      -1.355731      0.801868     -0.000000
  B       1.355935      0.801985     -0.000000
  B       0.000001      2.891510      0.000000
6
Coordinates from ORCA-job B6_compact_planar_triangle_d3.00_q0_m5_R2SCAN-3C E -148.197652714029
  B      -2.395916     -1.436402      0.000000
  B      -0.000023     -1.408522     -0.000000
  B       2.395620     -1.436184      0.000000
  B      -1.317199      0.784626     -0.000000
  B       1.317495      0.784791      0.000000
  B       0.000023      2.711691      0.000000
6
Coordinates from ORCA-job B6_compact_planar_triangle_d3.00_q0_m5_R2SCAN-3C E -148.256992345572
  B      -2.276585     -1.365764      0.000000
  B      -0.000037     -1.333787     -0.000000
  B       2.276191     -1.365439      0.000000
  B      -1.280490      0.767468     -0.000000
  B       1.280866      0.767671      0.000000
  B       0.000054      2.529851      0.000000
6
Coordinates from ORCA-job B6_compact_planar_triangle_d3.00_q0_m5_R2SCAN-3C E -148.320223010120
  B      -2.163011     -1.296044      0.000000
  B      -0.000050     -1.256814     -0.000000
  B       2.162505     -1.295588     -0.000000
  B      -1.244423      0.750558     -0.000000
  B       1.244883      0.750797      0.000000
  B       0.000096      2.347090     -0.000000
6
Coordinates from ORCA-job B6_compact_planar_triangle_d3.00_q0_m5_R2SCAN-3C E -148.389532028799
  B      -2.040663     -1.225740      0.000000
  B      -0.000049     -1.189785     -0.000000
  B       2.040044     -1.225173      0.000000
  B      -1.209649      0.736889     -0.000000
  B       1.210180      0.737171      0.000000
  B       0.000138      2.166638      0.000000
6
Coordinates from ORCA-job B6_compact_planar_triangle_d3.00_q0_m5_R2SCAN-3C E -148.441000769156
  B      -1.937913     -1.168409      0.000000
  B      -0.000044     -1.176468     -0.000000
  B       1.937271     -1.167822      0.000000
  B      -1.190554      0.724453     -0.000000
  B       1.191079      0.724752      0.000000
  B       0.000160      2.063494      0.000000
6
Coordinates from ORCA-job B6_compact_planar_triangle_d3.00_q0_m5_R2SCAN-3C E -148.473602464690
  B      -1.866366     -1.127024      0.000000
  B      -0.000050     -1.175944     -0.000000
  B       1.865747     -1.126455      0.000000
  B      -1.181163      0.712361     -0.000000
  B       1.181680      0.712652      0.000000
  B       0.000152      2.004410     -0.000000
6
Coordinates from ORCA-job B6_compact_planar_triangle_d3.00_q0_m5_R2SCAN-3C E -148.514876850147
  B      -1.760278     -1.061598      0.000000
  B      -0.000070     -1.177930      0.000000
  B       1.759749     -1.061100     -0.000000
  B      -1.168774      0.687190     -0.000000
  B       1.169242      0.687462      0.000000
  B       0.000131      1.925975      0.000000
6
Coordinates from ORCA-job B6_compact_planar_triangle_d3.00_q0_m5_R2SCAN-3C E -148.632155960313
  B      -1.628381     -0.966281      0.000000
  B      -0.000184     -1.184599      0.000000
  B       1.628126     -0.965851     -0.000001
  B      -1.155060      0.647900     -0.000001
  B       1.155380      0.648047      0.000001
  B       0.000120      1.820784     -0.000000
6
Coordinates from ORCA-job B6_compact_planar_triangle_d3.00_q0_m5_R2SCAN-3C E -148.649659439209
  B      -1.565750     -0.871481      0.000000
  B      -0.000359     -1.130274      0.000000
  B       1.565634     -0.870969     -0.000001
  B      -1.116035      0.575970      0.000000
  B       1.116325      0.576183      0.000002
  B       0.000185      1.720570     -0.000001
6
Coordinates from ORCA-job B6_compact_planar_triangle_d3.00_q0_m5_R2SCAN-3C E -148.665946836315
  B      -1.561951     -0.922493      0.000000
  B      -0.000127     -1.050222      0.000000
  B       1.561990     -0.922958     -0.000001
  B      -1.067224      0.557383     -0.000001
  B       1.067641      0.557888      0.000001
  B      -0.000329      1.780402     -0.000001
6
Coordinates from ORCA-job B6_compact_planar_triangle_d3.00_q0_m5_R2SCAN-3C E -148.674815282556
  B      -1.627379     -0.921183      0.000001
  B      -0.000090     -1.015574      0.000000
  B       1.627021     -0.920892     -0.000001
  B      -1.043497      0.539281     -0.000001
  B       1.043870      0.539606      0.000001
  B       0.000075      1.778762     -0.000000
6
Coordinates from ORCA-job B6_compact_planar_triangle_d3.00_q0_m5_R2SCAN-3C E -148.680896380462
  B      -1.617074     -0.925487      0.000001
  B      -0.000205     -0.936922     -0.000000
  B       1.617299     -0.925783     -0.000000
  B      -0.985405      0.501899     -0.000001
  B       0.985511      0.502255      0.000000
  B      -0.000126      1.784038      0.000000
6
Coordinates from ORCA-job B6_compact_planar_triangle_d3.00_q0_m5_R2SCAN-3C E -148.681392724338
  B      -1.626008     -0.919162      0.000001
  B       0.001118     -0.955350      0.000000
  B       1.622961     -0.915970     -0.000001
  B      -0.955370      0.502360     -0.000001
  B       0.956463      0.501030      0.000001
  B       0.000834      1.787091     -0.000000
6
Coordinates from ORCA-job B6_compact_planar_triangle_d3.00_q0_m5_R2SCAN-3C E -148.680431359626
  B      -1.610299     -0.896248      0.000001
  B      -0.011087     -0.969162      0.000000
  B       1.641985     -0.929462     -0.000001
  B      -0.949231      0.494129     -0.000001
  B       0.938493      0.507370      0.000001
  B      -0.009861      1.793372     -0.000000
6
Coordinates from ORCA-job B6_compact_planar_triangle_d3.00_q0_m5_R2SCAN-3C E -148.681489247226
  B      -1.623833     -0.914467      0.000001
  B      -0.001099     -0.968825      0.000000
  B       1.624368     -0.913479     -0.000001
  B      -0.948786      0.499931     -0.000001
  B       0.948107      0.500756      0.000001
  B       0.001243      1.796084      0.000000
6
Coordinates from ORCA-job B6_compact_planar_triangle_d3.00_q0_m5_R2SCAN-3C E -148.681488032720
  B      -1.624031     -0.911294      0.000001
  B       0.002155     -0.968917      0.000000
  B       1.623490     -0.915826     -0.000001
  B      -0.946109      0.499595     -0.000001
  B       0.949290      0.498182      0.000001
  B      -0.004795      1.798260      0.000000
6
Coordinates from ORCA-job B6_compact_planar_triangle_d3.00_q0_m5_R2SCAN-3C E -148.681499656306
  B      -1.624041     -0.913739      0.000001
  B       0.000233     -0.969803      0.000000
  B       1.623112     -0.912426     -0.000001
  B      -0.947087      0.497553     -0.000001
  B       0.946480      0.498060      0.000001
  B       0.001303      1.800355      0.000000
6
Coordinates from ORCA-job B6_compact_planar_triangle_d3.00_q0_m5_R2SCAN-3C E -148.681501849200
  B      -1.623686     -0.913328      0.000001
  B      -0.000747     -0.970926      0.000000
  B       1.624257     -0.912760     -0.000001
  B      -0.947057      0.498993     -0.000001
  B       0.947108      0.498443      0.000001
  B       0.000125      1.799577     -0.000000
6
Coordinates from ORCA-job B6_compact_planar_triangle_d3.00_q0_m5_R2SCAN-3C E -148.681502122911
  B      -1.624128     -0.912783      0.000001
  B       0.000442     -0.970671      0.000000
  B       1.623813     -0.913353     -0.000001
  B      -0.947090      0.498367     -0.000001
  B       0.947053      0.498946      0.000001
  B      -0.000090      1.799495     -0.000000
6
Coordinates from ORCA-job B6_compact_planar_triangle_d3.00_q0_m5_R2SCAN-3C E -148.681502429720
  B      -1.623922     -0.913098      0.000001
  B      -0.000026     -0.970390      0.000000
  B       1.623860     -0.913050     -0.000001
  B      -0.946953      0.498443     -0.000001
  B       0.947033      0.498446      0.000001
  B       0.000007      1.799648     -0.000000
6
Coordinates from ORCA-job B6_compact_planar_triangle_d3.00_q0_m5_R2SCAN-3C E -148.681502451516
  B      -1.623911     -0.913039      0.000001
  B       0.000021     -0.970554      0.000000
  B       1.623921     -0.913082     -0.000001
  B      -0.947050      0.498551     -0.000001
  B       0.947028      0.498511      0.000001
  B      -0.000009      1.799613     -0.000000
