6
Coordinates from ORCA-job B6_compact_planar_triangle_d3.00_q0_m5_R2SCAN-3C E -148.681502451516
  B          -1.62391148105761     -0.91303906501916      0.00000105580057
  B           0.00002090063286     -0.97055378768264      0.00000003934700
  B           1.62392103192088     -0.91308222802800     -0.00000102392670
  B          -0.94705006272038      0.49855124359431     -0.00000144395033
  B           0.94702842986651      0.49851071955695      0.00000142315795
  B          -0.00000881864225      1.79961310757854     -0.00000005042848
