6
Coordinates from ORCA-job B6_random_3d_seed1002_d3.50_q0_m3_R2SCAN-3C E -148.743339893109
  B           0.32037904037355      0.42457776624719     -0.78009652617733
  B           1.82934335467989      0.80522400583381     -0.41070874482986
  B          -1.17567116632750     -0.10373452228505     -0.76878502133928
  B          -0.32032658406489     -0.42468901927766      0.78005183417015
  B           1.17573380682967      0.10358872291176      0.76875108977163
  B          -1.82945844149072     -0.80496696343006      0.41078736840468
