6
Coordinates from ORCA-job B6_random_3d_seed1002_d3.50_q0_m3_R2SCAN-3C E -147.907753973680
  B       0.958479     -1.000388     -2.212112
  B       1.694359      2.109046     -0.618768
  B      -1.712172      1.152362     -1.672728
  B       0.312316     -2.507986      0.859582
  B       0.992382      0.376084      2.445912
  B      -2.245364     -0.129119      1.198113
6
Coordinates from ORCA-job B6_random_3d_seed1002_d3.50_q0_m3_R2SCAN-3C E -147.917376987271
  B       0.943896     -0.992214     -2.165899
  B       1.683792      2.095728     -0.606990
  B      -1.701627      1.126486     -1.633406
  B       0.317004     -2.476074      0.848124
  B       0.978464      0.358431      2.394513
  B      -2.221528     -0.112358      1.163658
6
Coordinates from ORCA-job B6_random_3d_seed1002_d3.50_q0_m3_R2SCAN-3C E -147.927704823841
  B       0.929560     -0.982403     -2.118241
  B       1.674822      2.083590     -0.596637
  B      -1.691531      1.100122     -1.592762
  B       0.320614     -2.445892      0.837591
  B       0.964818      0.340867      2.341937
  B      -2.198283     -0.096284      1.128112
6
Coordinates from ORCA-job B6_random_3d_seed1002_d3.50_q0_m3_R2SCAN-3C E -147.944665644432
  B       0.908022     -0.965772     -2.047104
  B       1.662286      2.064033     -0.581761
  B      -1.677185      1.059390     -1.530801
  B       0.325224     -2.400513      0.821920
  B       0.945053      0.315421      2.264523
  B      -2.163400     -0.072558      1.073223
6
Coordinates from ORCA-job B6_random_3d_seed1002_d3.50_q0_m3_R2SCAN-3C E -147.971142682971
  B       0.876059     -0.938213     -1.943345
  B       1.644948      2.031496     -0.560743
  B      -1.654274      1.005678     -1.456107
  B       0.331744     -2.331921      0.799032
  B       0.917792      0.279046      2.153921
  B      -2.116269     -0.046086      1.007242
6
Coordinates from ORCA-job B6_random_3d_seed1002_d3.50_q0_m3_R2SCAN-3C E -148.002068238346
  B       0.844378     -0.908031     -1.834825
  B       1.629264      1.996945     -0.540737
  B      -1.632509      0.952461     -1.380191
  B       0.337558     -2.261858      0.776146
  B       0.892091      0.242670      2.040131
  B      -2.070781     -0.022188      0.939476
6
Coordinates from ORCA-job B6_random_3d_seed1002_d3.50_q0_m3_R2SCAN-3C E -148.028395973067
  B       0.824758     -0.888068     -1.758675
  B       1.619899      1.975868     -0.528483
  B      -1.622772      0.910666     -1.307849
  B       0.339578     -2.217316      0.761498
  B       0.876577      0.219102      1.960661
  B      -2.038040     -0.000251      0.872848
6
Coordinates from ORCA-job B6_random_3d_seed1002_d3.50_q0_m3_R2SCAN-3C E -148.047547820671
  B       0.812851     -0.875345     -1.707802
  B       1.613668      1.962694     -0.520845
  B      -1.617538      0.883245     -1.257334
  B       0.340021     -2.188660      0.752273
  B       0.867727      0.203702      1.907946
  B      -2.016729      0.014362      0.825762
6
Coordinates from ORCA-job B6_random_3d_seed1002_d3.50_q0_m3_R2SCAN-3C E -148.077800833018
  B       0.795510     -0.857532     -1.634865
  B       1.602631      1.940148     -0.508036
  B      -1.610317      0.842387     -1.183383
  B       0.340907     -2.143032      0.737319
  B       0.855615      0.181577      1.832860
  B      -1.984347      0.036452      0.756105
6
Coordinates from ORCA-job B6_random_3d_seed1002_d3.50_q0_m3_R2SCAN-3C E -148.118908674137
  B       0.770227     -0.831553     -1.533023
  B       1.584791      1.900475     -0.486997
  B      -1.595651      0.793629     -1.106915
  B       0.344031     -2.068676      0.714214
  B       0.839160      0.148722      1.728398
  B      -1.942558      0.057403      0.684323
6
Coordinates from ORCA-job B6_random_3d_seed1002_d3.50_q0_m3_R2SCAN-3C E -148.162950882951
  B       0.743241     -0.804267     -1.430185
  B       1.565705      1.855905     -0.464077
  B      -1.579780      0.743466     -1.031416
  B       0.348076     -1.985331      0.690714
  B       0.820916      0.112863      1.621471
  B      -1.898158      0.077364      0.613493
6
Coordinates from ORCA-job B6_random_3d_seed1002_d3.50_q0_m3_R2SCAN-3C E -148.199164806980
  B       0.723170     -0.784637     -1.354589
  B       1.551880      1.823521     -0.447351
  B      -1.567977      0.707561     -0.976566
  B       0.351675     -1.921252      0.674887
  B       0.805485      0.083741      1.541187
  B      -1.864232      0.091066      0.562433
6
Coordinates from ORCA-job B6_random_3d_seed1002_d3.50_q0_m3_R2SCAN-3C E -148.222005489470
  B       0.714264     -0.775246     -1.299475
  B       1.544969      1.803042     -0.436698
  B      -1.562304      0.684445     -0.936194
  B       0.354738     -1.879720      0.659753
  B       0.795809      0.066400      1.484541
  B      -1.847477      0.101078      0.528073
6
Coordinates from ORCA-job B6_random_3d_seed1002_d3.50_q0_m3_R2SCAN-3C E -148.256151117915
  B       0.700332     -0.757506     -1.205533
  B       1.537369      1.769629     -0.419593
  B      -1.547284      0.662084     -0.911817
  B       0.361902     -1.810382      0.636072
  B       0.780264      0.034612      1.387463
  B      -1.832582      0.101563      0.513409
6
Coordinates from ORCA-job B6_random_3d_seed1002_d3.50_q0_m3_R2SCAN-3C E -148.305589163622
  B       0.678846     -0.726693     -1.083055
  B       1.524586      1.719735     -0.393344
  B      -1.520882      0.634280     -0.892653
  B       0.368011     -1.720184      0.608278
  B       0.758999     -0.002986      1.253599
  B      -1.809560      0.095847      0.507176
6
Coordinates from ORCA-job B6_random_3d_seed1002_d3.50_q0_m3_R2SCAN-3C E -148.356271770497
  B       0.652432     -0.698811     -0.966652
  B       1.507090      1.665040     -0.363241
  B      -1.489669      0.610035     -0.885784
  B       0.376066     -1.626261      0.578764
  B       0.738656     -0.036873      1.125883
  B      -1.784575      0.086870      0.511029
6
Coordinates from ORCA-job B6_random_3d_seed1002_d3.50_q0_m3_R2SCAN-3C E -148.399441738473
  B       0.624294     -0.693928     -0.880658
  B       1.491249      1.626077     -0.334722
  B      -1.457801      0.598026     -0.899248
  B       0.383374     -1.563542      0.541527
  B       0.725444     -0.041915      1.040387
  B      -1.766559      0.075282      0.532715
6
Coordinates from ORCA-job B6_random_3d_seed1002_d3.50_q0_m3_R2SCAN-3C E -148.419297483467
  B       0.608536     -0.675283     -0.856472
  B       1.477062      1.578886     -0.317578
  B      -1.431092      0.585469     -0.914528
  B       0.386669     -1.507351      0.524673
  B       0.713041     -0.044978      1.007217
  B      -1.754216      0.063257      0.556689
6
Coordinates from ORCA-job B6_random_3d_seed1002_d3.50_q0_m3_R2SCAN-3C E -148.446842790651
  B       0.578353     -0.639164     -0.819599
  B       1.450533      1.506047     -0.288258
  B      -1.382366      0.554046     -0.915493
  B       0.377354     -1.450034      0.495545
  B       0.700774     -0.020274      0.954421
  B      -1.724648      0.049379      0.573383
6
Coordinates from ORCA-job B6_random_3d_seed1002_d3.50_q0_m3_R2SCAN-3C E -148.483824177617
  B       0.536481     -0.577281     -0.793019
  B       1.406176      1.406937     -0.251172
  B      -1.305641      0.513263     -0.925295
  B       0.360525     -1.388713      0.473119
  B       0.680088      0.015535      0.891448
  B      -1.677629      0.030259      0.604918
6
Coordinates from ORCA-job B6_random_3d_seed1002_d3.50_q0_m3_R2SCAN-3C E -148.519933176706
  B       0.493184     -0.517027     -0.780131
  B       1.354351      1.307076     -0.213670
  B      -1.226328      0.469738     -0.927543
  B       0.338212     -1.332968      0.452338
  B       0.661758      0.058930      0.840646
  B      -1.621178      0.014250      0.628359
6
Coordinates from ORCA-job B6_random_3d_seed1002_d3.50_q0_m3_R2SCAN-3C E -148.549102472736
  B       0.457234     -0.466049     -0.793532
  B       1.316913      1.243307     -0.190535
  B      -1.165854      0.437173     -0.934433
  B       0.311899     -1.310836      0.449758
  B       0.654004      0.096076      0.822392
  B      -1.574197      0.000328      0.646350
6
Coordinates from ORCA-job B6_random_3d_seed1002_d3.50_q0_m3_R2SCAN-3C E -148.568498155203
  B       0.432515     -0.430423     -0.820586
  B       1.300220      1.205186     -0.173483
  B      -1.142237      0.406871     -0.931246
  B       0.288945     -1.306736      0.451618
  B       0.664088      0.129573      0.831084
  B      -1.543529     -0.004472      0.642613
6
Coordinates from ORCA-job B6_random_3d_seed1002_d3.50_q0_m3_R2SCAN-3C E -148.589700280394
  B       0.389514     -0.366438     -0.852536
  B       1.275615      1.174722     -0.175011
  B      -1.088809      0.360011     -0.915496
  B       0.245429     -1.295955      0.463789
  B       0.663508      0.141517      0.851907
  B      -1.485256     -0.013857      0.627347
6
Coordinates from ORCA-job B6_random_3d_seed1002_d3.50_q0_m3_R2SCAN-3C E -148.607376995992
  B       0.384536     -0.306668     -0.877299
  B       1.225998      1.121749     -0.170881
  B      -1.069506      0.305518     -0.892964
  B       0.165251     -1.272236      0.453024
  B       0.675921      0.173849      0.888215
  B      -1.382199     -0.022211      0.599905
6
Coordinates from ORCA-job B6_random_3d_seed1002_d3.50_q0_m3_R2SCAN-3C E -148.624789386322
  B       0.417763     -0.227072     -0.888622
  B       1.204146      1.104978     -0.218618
  B      -1.040988      0.265240     -0.898670
  B       0.062972     -1.261212      0.453689
  B       0.659931      0.173005      0.927506
  B      -1.303824     -0.054940      0.624715
6
Coordinates from ORCA-job B6_random_3d_seed1002_d3.50_q0_m3_R2SCAN-3C E -148.641160263727
  B       0.463012     -0.193076     -0.893015
  B       1.210087      1.092073     -0.228602
  B      -1.057040      0.233089     -0.903212
  B      -0.015651     -1.209047      0.444935
  B       0.659990      0.172907      0.932696
  B      -1.260398     -0.095946      0.647197
6
Coordinates from ORCA-job B6_random_3d_seed1002_d3.50_q0_m3_R2SCAN-3C E -148.651309762914
  B       0.491813     -0.193926     -0.895934
  B       1.244483      1.109047     -0.229747
  B      -1.067442      0.206239     -0.895086
  B      -0.060821     -1.156751      0.429662
  B       0.655500      0.164373      0.919531
  B      -1.263532     -0.128982      0.671574
6
Coordinates from ORCA-job B6_random_3d_seed1002_d3.50_q0_m3_R2SCAN-3C E -148.661764457681
  B       0.544302     -0.165198     -0.878750
  B       1.297653      1.116362     -0.240039
  B      -1.075684      0.140047     -0.864454
  B      -0.123281     -1.097373      0.381736
  B       0.668718      0.164642      0.892631
  B      -1.311708     -0.158481      0.708874
6
Coordinates from ORCA-job B6_random_3d_seed1002_d3.50_q0_m3_R2SCAN-3C E -148.673609201363
  B       0.596856     -0.145592     -0.850030
  B       1.382434      1.130835     -0.242213
  B      -1.076493      0.038347     -0.811230
  B      -0.165425     -1.005522      0.288919
  B       0.683266      0.160829      0.844138
  B      -1.420638     -0.178897      0.770416
6
Coordinates from ORCA-job B6_random_3d_seed1002_d3.50_q0_m3_R2SCAN-3C E -148.672745590971
  B       0.604547     -0.089904     -0.839366
  B       1.462179      1.134233     -0.245538
  B      -1.048575     -0.053126     -0.768127
  B      -0.268096     -0.948853      0.251899
  B       0.747610      0.187432      0.813836
  B      -1.497665     -0.229782      0.787296
6
Coordinates from ORCA-job B6_random_3d_seed1002_d3.50_q0_m3_R2SCAN-3C E -148.679955009545
  B       0.615531     -0.083623     -0.865676
  B       1.482982      1.135531     -0.251757
  B      -1.109884     -0.020142     -0.799934
  B      -0.220285     -0.989194      0.299871
  B       0.779479      0.194442      0.840681
  B      -1.547822     -0.237014      0.776815
6
Coordinates from ORCA-job B6_random_3d_seed1002_d3.50_q0_m3_R2SCAN-3C E -148.684788299165
  B       0.561869     -0.071265     -0.835875
  B       1.482944      1.098338     -0.244922
  B      -1.087624      0.003194     -0.815611
  B      -0.184282     -0.957273      0.336606
  B       0.782928      0.196309      0.801598
  B      -1.555835     -0.269303      0.758205
6
Coordinates from ORCA-job B6_random_3d_seed1002_d3.50_q0_m3_R2SCAN-3C E -148.692613909191
  B       0.547841     -0.046204     -0.843736
  B       1.538151      1.091291     -0.272950
  B      -1.078787      0.002118     -0.767563
  B      -0.180710     -0.920058      0.364084
  B       0.805890      0.196811      0.799116
  B      -1.632385     -0.323958      0.721049
6
Coordinates from ORCA-job B6_random_3d_seed1002_d3.50_q0_m3_R2SCAN-3C E -148.699977022201
  B       0.506377     -0.004074     -0.861623
  B       1.584537      1.086413     -0.299589
  B      -1.058862     -0.009615     -0.750468
  B      -0.194690     -0.896347      0.407342
  B       0.856393      0.193099      0.819313
  B      -1.693755     -0.369476      0.685025
6
Coordinates from ORCA-job B6_random_3d_seed1002_d3.50_q0_m3_R2SCAN-3C E -148.705842946274
  B       0.502932      0.047886     -0.852188
  B       1.630349      1.067479     -0.328815
  B      -1.069727     -0.025045     -0.727798
  B      -0.195963     -0.855211      0.442772
  B       0.906980      0.187821      0.815592
  B      -1.774571     -0.422931      0.650437
6
Coordinates from ORCA-job B6_random_3d_seed1002_d3.50_q0_m3_R2SCAN-3C E -148.713579132139
  B       0.453624      0.117489     -0.837207
  B       1.697697      1.024321     -0.358409
  B      -1.097614     -0.038538     -0.716660
  B      -0.191190     -0.789143      0.507440
  B       0.982711      0.189276      0.821112
  B      -1.845227     -0.503403      0.583724
6
Coordinates from ORCA-job B6_random_3d_seed1002_d3.50_q0_m3_R2SCAN-3C E -148.722795350657
  B       0.414189      0.204061     -0.804814
  B       1.745981      0.966497     -0.390925
  B      -1.146739     -0.063504     -0.732500
  B      -0.196647     -0.720207      0.566462
  B       1.072064      0.189412      0.839149
  B      -1.888849     -0.576260      0.522628
6
Coordinates from ORCA-job B6_random_3d_seed1002_d3.50_q0_m3_R2SCAN-3C E -148.728434062559
  B       0.385476      0.257796     -0.769704
  B       1.755599      0.918868     -0.399623
  B      -1.188587     -0.082351     -0.765348
  B      -0.203757     -0.670973      0.599001
  B       1.137466      0.190127      0.846684
  B      -1.886197     -0.613467      0.488990
6
Coordinates from ORCA-job B6_random_3d_seed1002_d3.50_q0_m3_R2SCAN-3C E -148.731598117899
  B       0.344795      0.306775     -0.718002
  B       1.807525      0.880121     -0.410490
  B      -1.206567     -0.094579     -0.797295
  B      -0.228209     -0.594784      0.625047
  B       1.188032      0.185763      0.828033
  B      -1.905576     -0.683296      0.472707
6
Coordinates from ORCA-job B6_random_3d_seed1002_d3.50_q0_m3_R2SCAN-3C E -148.733478350019
  B       0.328450      0.311710     -0.706301
  B       1.779462      0.856899     -0.399574
  B      -1.205358     -0.092196     -0.811211
  B      -0.238127     -0.579110      0.634161
  B       1.179331      0.179097      0.816941
  B      -1.843757     -0.676401      0.465985
6
Coordinates from ORCA-job B6_random_3d_seed1002_d3.50_q0_m3_R2SCAN-3C E -148.734441686145
  B       0.326479      0.320570     -0.702299
  B       1.791346      0.859078     -0.437834
  B      -1.183429     -0.087977     -0.771759
  B      -0.254856     -0.545218      0.649715
  B       1.168019      0.157110      0.829182
  B      -1.847559     -0.703563      0.432996
6
Coordinates from ORCA-job B6_random_3d_seed1002_d3.50_q0_m3_R2SCAN-3C E -148.736369646364
  B       0.331632      0.313714     -0.718337
  B       1.801924      0.878439     -0.411470
  B      -1.189746     -0.094683     -0.792096
  B      -0.261860     -0.555642      0.655451
  B       1.160549      0.149113      0.806424
  B      -1.842499     -0.690942      0.460028
6
Coordinates from ORCA-job B6_random_3d_seed1002_d3.50_q0_m3_R2SCAN-3C E -148.737735521638
  B       0.334886      0.306347     -0.735239
  B       1.802314      0.893860     -0.389287
  B      -1.200061     -0.102921     -0.799507
  B      -0.272418     -0.541266      0.665218
  B       1.178901      0.133859      0.792550
  B      -1.843620     -0.689879      0.466264
6
Coordinates from ORCA-job B6_random_3d_seed1002_d3.50_q0_m3_R2SCAN-3C E -148.738990061235
  B       0.347218      0.296248     -0.764524
  B       1.795884      0.913021     -0.367806
  B      -1.198024     -0.106896     -0.791956
  B      -0.279617     -0.518652      0.678012
  B       1.182308      0.108782      0.775446
  B      -1.847770     -0.692503      0.470827
6
Coordinates from ORCA-job B6_random_3d_seed1002_d3.50_q0_m3_R2SCAN-3C E -148.739761980935
  B       0.356439      0.295620     -0.784915
  B       1.787944      0.915978     -0.362901
  B      -1.193049     -0.104747     -0.777336
  B      -0.288038     -0.488656      0.685212
  B       1.190403      0.091118      0.774060
  B      -1.853699     -0.709312      0.465879
6
Coordinates from ORCA-job B6_random_3d_seed1002_d3.50_q0_m3_R2SCAN-3C E -148.740192301097
  B       0.359394      0.299234     -0.796084
  B       1.778879      0.908453     -0.364918
  B      -1.189914     -0.098862     -0.769967
  B      -0.286417     -0.475935      0.692463
  B       1.189143      0.086219      0.779218
  B      -1.851084     -0.719110      0.459289
6
Coordinates from ORCA-job B6_random_3d_seed1002_d3.50_q0_m3_R2SCAN-3C E -148.740707634430
  B       0.357725      0.308776     -0.800353
  B       1.778864      0.890636     -0.374456
  B      -1.188890     -0.087948     -0.762739
  B      -0.287370     -0.467053      0.701783
  B       1.187138      0.092645      0.787336
  B      -1.847467     -0.737056      0.448429
6
Coordinates from ORCA-job B6_random_3d_seed1002_d3.50_q0_m3_R2SCAN-3C E -148.741486687922
  B       0.351427      0.324966     -0.800497
  B       1.789269      0.862048     -0.389013
  B      -1.190420     -0.071186     -0.756950
  B      -0.288486     -0.467298      0.722705
  B       1.177399      0.111851      0.792024
  B      -1.839189     -0.760382      0.431731
6
Coordinates from ORCA-job B6_random_3d_seed1002_d3.50_q0_m3_R2SCAN-3C E -148.742169891438
  B       0.343748      0.344291     -0.795465
  B       1.810166      0.834875     -0.403551
  B      -1.192052     -0.056150     -0.754218
  B      -0.299092     -0.465872      0.747713
  B       1.168693      0.131092      0.788445
  B      -1.831464     -0.788236      0.417076
6
Coordinates from ORCA-job B6_random_3d_seed1002_d3.50_q0_m3_R2SCAN-3C E -148.742502841488
  B       0.339128      0.358266     -0.798637
  B       1.821248      0.823276     -0.405297
  B      -1.193454     -0.053040     -0.755854
  B      -0.306888     -0.459763      0.769799
  B       1.164870      0.133156      0.779983
  B      -1.824904     -0.801894      0.410006
6
Coordinates from ORCA-job B6_random_3d_seed1002_d3.50_q0_m3_R2SCAN-3C E -148.742732479836
  B       0.336321      0.371221     -0.800933
  B       1.827108      0.819309     -0.406892
  B      -1.191379     -0.056345     -0.758529
  B      -0.316063     -0.446663      0.781716
  B       1.166624      0.124778      0.775944
  B      -1.822611     -0.812299      0.408693
6
Coordinates from ORCA-job B6_random_3d_seed1002_d3.50_q0_m3_R2SCAN-3C E -148.742949083635
  B       0.334799      0.382669     -0.803110
  B       1.826494      0.821367     -0.403926
  B      -1.188022     -0.067637     -0.760858
  B      -0.321753     -0.433212      0.791774
  B       1.171101      0.110220      0.768631
  B      -1.822619     -0.813408      0.407489
6
Coordinates from ORCA-job B6_random_3d_seed1002_d3.50_q0_m3_R2SCAN-3C E -148.743102108251
  B       0.333195      0.390510     -0.795994
  B       1.822982      0.826498     -0.404792
  B      -1.181761     -0.080620     -0.764087
  B      -0.325628     -0.420392      0.792336
  B       1.176529      0.094824      0.764275
  B      -1.825317     -0.810821      0.408261
6
Coordinates from ORCA-job B6_random_3d_seed1002_d3.50_q0_m3_R2SCAN-3C E -148.743145813406
  B       0.331934      0.392214     -0.791605
  B       1.820675      0.829219     -0.402470
  B      -1.179927     -0.088479     -0.763300
  B      -0.325331     -0.413943      0.787202
  B       1.180860      0.088783      0.761659
  B      -1.828211     -0.807794      0.408514
6
Coordinates from ORCA-job B6_random_3d_seed1002_d3.50_q0_m3_R2SCAN-3C E -148.743159423572
  B       0.330140      0.392808     -0.786675
  B       1.821104      0.827743     -0.403858
  B      -1.180738     -0.089266     -0.764675
  B      -0.324461     -0.411261      0.785040
  B       1.181897      0.088724      0.762327
  B      -1.827941     -0.808748      0.407841
6
Coordinates from ORCA-job B6_random_3d_seed1002_d3.50_q0_m3_R2SCAN-3C E -148.743168678653
  B       0.328629      0.393723     -0.784211
  B       1.822887      0.824522     -0.404581
  B      -1.182426     -0.088335     -0.764420
  B      -0.324284     -0.409026      0.782621
  B       1.181899      0.090642      0.763389
  B      -1.826705     -0.811527      0.407202
6
Coordinates from ORCA-job B6_random_3d_seed1002_d3.50_q0_m3_R2SCAN-3C E -148.743175583252
  B       0.327518      0.395254     -0.783448
  B       1.824276      0.821218     -0.405213
  B      -1.183782     -0.087124     -0.764363
  B      -0.324061     -0.407458      0.782083
  B       1.181622      0.092443      0.764453
  B      -1.825573     -0.814333      0.406488
6
Coordinates from ORCA-job B6_random_3d_seed1002_d3.50_q0_m3_R2SCAN-3C E -148.743186226052
  B       0.326403      0.398016     -0.783374
  B       1.825817      0.817145     -0.405967
  B      -1.184830     -0.086149     -0.764044
  B      -0.324239     -0.405982      0.781816
  B       1.180901      0.094358      0.765705
  B      -1.824051     -0.817389      0.405863
6
Coordinates from ORCA-job B6_random_3d_seed1002_d3.50_q0_m3_R2SCAN-3C E -148.743209056695
  B       0.324700      0.403644     -0.783654
  B       1.827698      0.810867     -0.407224
  B      -1.185497     -0.085903     -0.763841
  B      -0.324174     -0.404849      0.781925
  B       1.179777      0.097178      0.767634
  B      -1.822504     -0.820937      0.405159
6
Coordinates from ORCA-job B6_random_3d_seed1002_d3.50_q0_m3_R2SCAN-3C E -148.743249912468
  B       0.322478      0.412976     -0.783866
  B       1.829744      0.803080     -0.409145
  B      -1.184651     -0.088015     -0.764052
  B      -0.323892     -0.406068      0.782009
  B       1.177885      0.100901      0.769928
  B      -1.821564     -0.822875      0.405125
6
Coordinates from ORCA-job B6_random_3d_seed1002_d3.50_q0_m3_R2SCAN-3C E -148.743300564943
  B       0.320342      0.423418     -0.783166
  B       1.830817      0.797682     -0.411149
  B      -1.181244     -0.093885     -0.765420
  B      -0.322734     -0.411891      0.781787
  B       1.176003      0.104279      0.771412
  B      -1.823184     -0.819604      0.406535
6
Coordinates from ORCA-job B6_random_3d_seed1002_d3.50_q0_m3_R2SCAN-3C E -148.743331334174
  B       0.319533      0.428092     -0.781513
  B       1.830463      0.798865     -0.411914
  B      -1.177155     -0.100497     -0.767273
  B      -0.321385     -0.419720      0.780923
  B       1.175108      0.105201      0.770872
  B      -1.826564     -0.811941      0.408905
6
Coordinates from ORCA-job B6_random_3d_seed1002_d3.50_q0_m3_R2SCAN-3C E -148.743339156931
  B       0.319920      0.426504     -0.780373
  B       1.829638      0.803010     -0.411303
  B      -1.175608     -0.103436     -0.768452
  B      -0.320461     -0.423976      0.780285
  B       1.175374      0.104342      0.769500
  B      -1.828863     -0.806444      0.410342
6
Coordinates from ORCA-job B6_random_3d_seed1002_d3.50_q0_m3_R2SCAN-3C E -148.743339880931
  B       0.320333      0.424779     -0.780081
  B       1.829351      0.805016     -0.410809
  B      -1.175629     -0.103731     -0.768756
  B      -0.320340     -0.424672      0.780103
  B       1.175699      0.103672      0.768824
  B      -1.829414     -0.805064      0.410719
6
Coordinates from ORCA-job B6_random_3d_seed1002_d3.50_q0_m3_R2SCAN-3C E -148.743339893109
  B       0.320379      0.424578     -0.780097
  B       1.829343      0.805224     -0.410709
  B      -1.175671     -0.103735     -0.768785
  B      -0.320327     -0.424689      0.780052
  B       1.175734      0.103589      0.768751
  B      -1.829458     -0.804967      0.410787
