6
Coordinates from ORCA-job B6_random_3d_seed1001_d1.60_q0_m3_R2SCAN-3C E -148.696209147405
  B           0.10312404208501     -1.10946319906840     -0.39699468506821
  B          -0.10302997276158      1.10905194679225      0.39793556534138
  B           0.33993329219398      0.41005951970677     -1.05622033181104
  B          -0.34035969825332     -0.40942049800269      1.05645016257544
  B           1.12859412275853     -0.02226123419185      0.35399262818252
  B          -1.12826177602262      0.02203347476392     -0.35516334922008
