6
Coordinates from ORCA-job B6_random_3d_seed1001_d1.60_q0_m3_R2SCAN-3C E -148.673521465942
  B       0.106540     -1.141240     -0.325201
  B      -0.048844      1.046092      0.354406
  B       0.285121      0.401549     -1.012848
  B      -0.327721     -0.508552      1.050305
  B       1.087642      0.076935      0.339142
  B      -1.102738      0.125216     -0.405805
6
Coordinates from ORCA-job B6_random_3d_seed1001_d1.60_q0_m3_R2SCAN-3C E -148.684540855647
  B       0.113605     -1.142874     -0.340977
  B      -0.062945      1.060599      0.372918
  B       0.298723      0.393180     -1.027676
  B      -0.336984     -0.493547      1.056920
  B       1.102648      0.064903      0.336542
  B      -1.115045      0.117739     -0.397727
6
Coordinates from ORCA-job B6_random_3d_seed1001_d1.60_q0_m3_R2SCAN-3C E -148.692848143427
  B       0.121886     -1.140466     -0.364197
  B      -0.083088      1.081549      0.401010
  B       0.318388      0.380737     -1.048863
  B      -0.350167     -0.467182      1.060969
  B       1.123184      0.044628      0.333944
  B      -1.130203      0.100733     -0.382863
6
Coordinates from ORCA-job B6_random_3d_seed1001_d1.60_q0_m3_R2SCAN-3C E -148.694606489522
  B       0.123266     -1.134444     -0.376481
  B      -0.093237      1.092430      0.415598
  B       0.328419      0.375706     -1.059523
  B      -0.355829     -0.449028      1.058328
  B       1.131695      0.030459      0.334354
  B      -1.134314      0.084877     -0.372276
6
Coordinates from ORCA-job B6_random_3d_seed1001_d1.60_q0_m3_R2SCAN-3C E -148.695231267227
  B       0.120449     -1.127445     -0.382633
  B      -0.098189      1.098840      0.422054
  B       0.333408      0.375971     -1.065096
  B      -0.356680     -0.436615      1.053716
  B       1.134094      0.019292      0.336965
  B      -1.133082      0.069957     -0.365006
6
Coordinates from ORCA-job B6_random_3d_seed1001_d1.60_q0_m3_R2SCAN-3C E -148.695683256429
  B       0.114048     -1.118779     -0.386115
  B      -0.101070      1.104415      0.423869
  B       0.336396      0.380741     -1.068778
  B      -0.353994     -0.425897      1.048028
  B       1.133333      0.007094      0.341963
  B      -1.128713      0.052427     -0.358968
6
Coordinates from ORCA-job B6_random_3d_seed1001_d1.60_q0_m3_R2SCAN-3C E -148.695927328109
  B       0.107235     -1.112349     -0.386266
  B      -0.101393      1.107623      0.420317
  B       0.336781      0.388350     -1.069392
  B      -0.348962     -0.420835      1.044691
  B       1.130616     -0.002135      0.347338
  B      -1.124278      0.039346     -0.356688
6
Coordinates from ORCA-job B6_random_3d_seed1001_d1.60_q0_m3_R2SCAN-3C E -148.696026833610
  B       0.103973     -1.110472     -0.385084
  B      -0.100493      1.108227      0.414990
  B       0.335847      0.394469     -1.067848
  B      -0.345090     -0.420830      1.045051
  B       1.128682     -0.006208      0.350436
  B      -1.122919      0.034814     -0.357544
6
Coordinates from ORCA-job B6_random_3d_seed1001_d1.60_q0_m3_R2SCAN-3C E -148.696079278253
  B       0.103108     -1.110507     -0.384768
  B      -0.099962      1.108108      0.410218
  B       0.335272      0.398990     -1.065833
  B      -0.342855     -0.421304      1.047107
  B       1.128061     -0.008739      0.351986
  B      -1.123625      0.033452     -0.358709
6
Coordinates from ORCA-job B6_random_3d_seed1001_d1.60_q0_m3_R2SCAN-3C E -148.696124515102
  B       0.103030     -1.110589     -0.386072
  B      -0.100258      1.108254      0.405697
  B       0.335610      0.403421     -1.063607
  B      -0.341369     -0.420055      1.049911
  B       1.128289     -0.012416      0.353129
  B      -1.125302      0.031386     -0.359059
6
Coordinates from ORCA-job B6_random_3d_seed1001_d1.60_q0_m3_R2SCAN-3C E -148.696170807204
  B       0.103371     -1.110290     -0.389528
  B      -0.101481      1.108719      0.400958
  B       0.337063      0.408293     -1.060711
  B      -0.340360     -0.416281      1.053505
  B       1.129141     -0.017997      0.354068
  B      -1.127734      0.027557     -0.358293
6
Coordinates from ORCA-job B6_random_3d_seed1001_d1.60_q0_m3_R2SCAN-3C E -148.696195796634
  B       0.103656     -1.109649     -0.393148
  B      -0.102776      1.109117      0.398788
  B       0.338720      0.410602     -1.058645
  B      -0.340297     -0.412167      1.055564
  B       1.129775     -0.021972      0.354255
  B      -1.129078      0.024069     -0.356814
6
Coordinates from ORCA-job B6_random_3d_seed1001_d1.60_q0_m3_R2SCAN-3C E -148.696204948693
  B       0.103614     -1.109133     -0.395498
  B      -0.103438      1.109235      0.398368
  B       0.339745      0.410892     -1.057462
  B      -0.340512     -0.409610      1.056159
  B       1.129768     -0.023468      0.354075
  B      -1.129177      0.022084     -0.355643
6
Coordinates from ORCA-job B6_random_3d_seed1001_d1.60_q0_m3_R2SCAN-3C E -148.696207640112
  B       0.103460     -1.109070     -0.396416
  B      -0.103447      1.109099      0.398324
  B       0.340008      0.410527     -1.056798
  B      -0.340587     -0.408937      1.056239
  B       1.129393     -0.023299      0.353890
  B      -1.128827      0.021679     -0.355239
6
Coordinates from ORCA-job B6_random_3d_seed1001_d1.60_q0_m3_R2SCAN-3C E -148.696208743929
  B       0.103252     -1.109194     -0.396727
  B      -0.103233      1.109002      0.398268
  B       0.339980      0.410167     -1.056444
  B      -0.340518     -0.409050      1.056221
  B       1.128944     -0.022715      0.353847
  B      -1.128425      0.021790     -0.355165
6
Coordinates from ORCA-job B6_random_3d_seed1001_d1.60_q0_m3_R2SCAN-3C E -148.696209062747
  B       0.103162     -1.109417     -0.396941
  B      -0.103056      1.108964      0.398034
  B       0.339931      0.410035     -1.056185
  B      -0.340423     -0.409305      1.056389
  B       1.128657     -0.022291      0.353888
  B      -1.128271      0.022015     -0.355185
6
Coordinates from ORCA-job B6_random_3d_seed1001_d1.60_q0_m3_R2SCAN-3C E -148.696209147405
  B       0.103124     -1.109463     -0.396995
  B      -0.103030      1.109052      0.397936
  B       0.339933      0.410060     -1.056220
  B      -0.340360     -0.409420      1.056450
  B       1.128594     -0.022261      0.353993
  B      -1.128262      0.022033     -0.355163
