6
Coordinates from ORCA-job B6_random_3d_seed1003_d2.00_q0_m3_R2SCAN-3C E -148.696202471532
  B           0.14436150862511      0.71995490233601     -0.92740178320782
  B          -0.14522668771100     -0.71985608299958      0.92723238477281
  B          -1.17078973919878      0.16074083775853     -0.05744931052123
  B           1.17077108702948     -0.16108498245748      0.05806704046965
  B           0.09120362954299      0.92483716820270      0.73189609697330
  B          -0.09031981828780     -0.92459184284018     -0.73234441848670
