6
Coordinates from ORCA-job B6_random_3d_seed1003_d2.00_q0_m3_R2SCAN-3C E -148.473020754096
  B       0.200857      0.904655     -1.231426
  B      -0.149765     -0.863318      1.084150
  B      -1.466854      0.195498     -0.056692
  B       1.584622     -0.127427      0.152616
  B       0.078070      1.022107      0.923472
  B      -0.246930     -1.131515     -0.872119
6
Coordinates from ORCA-job B6_random_3d_seed1003_d2.00_q0_m3_R2SCAN-3C E -148.506335942685
  B       0.200632      0.888087     -1.214307
  B      -0.147595     -0.849877      1.067528
  B      -1.439128      0.185736     -0.057713
  B       1.546186     -0.126024      0.146141
  B       0.078177      0.991923      0.899782
  B      -0.238273     -1.089844     -0.841431
6
Coordinates from ORCA-job B6_random_3d_seed1003_d2.00_q0_m3_R2SCAN-3C E -148.538347322182
  B       0.200589      0.870816     -1.198288
  B      -0.144691     -0.836348      1.050594
  B      -1.411508      0.176886     -0.057448
  B       1.506619     -0.126012      0.139342
  B       0.076807      0.962087      0.876718
  B      -0.227816     -1.047429     -0.810918
6
Coordinates from ORCA-job B6_random_3d_seed1003_d2.00_q0_m3_R2SCAN-3C E -148.585162448738
  B       0.199585      0.841040     -1.168941
  B      -0.139531     -0.815186      1.023783
  B      -1.367401      0.165776     -0.055599
  B       1.444700     -0.125323      0.129171
  B       0.074282      0.921672      0.842618
  B      -0.211635     -0.987978     -0.771033
6
Coordinates from ORCA-job B6_random_3d_seed1003_d2.00_q0_m3_R2SCAN-3C E -148.644732035361
  B       0.197502      0.794406     -1.122555
  B      -0.131444     -0.779413      0.979088
  B      -1.301173      0.149594     -0.052561
  B       1.353927     -0.124387      0.113904
  B       0.069491      0.861824      0.794444
  B      -0.188303     -0.902024     -0.712320
6
Coordinates from ORCA-job B6_random_3d_seed1003_d2.00_q0_m3_R2SCAN-3C E -148.676727093369
  B       0.188477      0.762660     -1.061360
  B      -0.127972     -0.764068      0.944048
  B      -1.211407      0.145036     -0.049439
  B       1.240818     -0.125617      0.091034
  B       0.063710      0.821324      0.731465
  B      -0.153626     -0.839335     -0.655747
6
Coordinates from ORCA-job B6_random_3d_seed1003_d2.00_q0_m3_R2SCAN-3C E -148.680056776571
  B       0.191821      0.779478     -1.034175
  B      -0.128809     -0.782122      0.962631
  B      -1.176509      0.150456     -0.047845
  B       1.160738     -0.121990      0.074913
  B       0.077989      0.828639      0.698603
  B      -0.125229     -0.854461     -0.654126
6
Coordinates from ORCA-job B6_random_3d_seed1003_d2.00_q0_m3_R2SCAN-3C E -148.683753950824
  B       0.185687      0.800157     -1.032795
  B      -0.134424     -0.768077      0.958388
  B      -1.184356      0.145496     -0.051393
  B       1.171441     -0.136195      0.070652
  B       0.081728      0.840281      0.711657
  B      -0.120076     -0.881661     -0.656508
6
Coordinates from ORCA-job B6_random_3d_seed1003_d2.00_q0_m3_R2SCAN-3C E -148.687632993771
  B       0.165684      0.824084     -1.012097
  B      -0.144215     -0.742038      0.960373
  B      -1.177977      0.136051     -0.064215
  B       1.167217     -0.161022      0.059829
  B       0.093575      0.860702      0.725258
  B      -0.104285     -0.917776     -0.669147
6
Coordinates from ORCA-job B6_random_3d_seed1003_d2.00_q0_m3_R2SCAN-3C E -148.690544311656
  B       0.138489      0.835885     -0.975260
  B      -0.157533     -0.708328      0.956118
  B      -1.162230      0.126494     -0.080415
  B       1.162592     -0.185119      0.045122
  B       0.105901      0.880116      0.736161
  B      -0.087218     -0.949048     -0.681726
6
Coordinates from ORCA-job B6_random_3d_seed1003_d2.00_q0_m3_R2SCAN-3C E -148.692333045332
  B       0.118787      0.825183     -0.939912
  B      -0.167573     -0.685985      0.953906
  B      -1.154055      0.122904     -0.093732
  B       1.168335     -0.193119      0.035530
  B       0.115136      0.893665      0.741662
  B      -0.080631     -0.962647     -0.697454
6
Coordinates from ORCA-job B6_random_3d_seed1003_d2.00_q0_m3_R2SCAN-3C E -148.693915052197
  B       0.105139      0.791456     -0.897446
  B      -0.178490     -0.667283      0.953814
  B      -1.156934      0.122539     -0.105670
  B       1.177642     -0.195757      0.019451
  B       0.123166      0.907847      0.745300
  B      -0.070523     -0.958801     -0.715448
6
Coordinates from ORCA-job B6_random_3d_seed1003_d2.00_q0_m3_R2SCAN-3C E -148.694855303591
  B       0.116552      0.765660     -0.899000
  B      -0.175787     -0.677336      0.958643
  B      -1.168531      0.126606     -0.100361
  B       1.180230     -0.184810      0.020312
  B       0.121023      0.909904      0.743348
  B      -0.073487     -0.940023     -0.722943
6
Coordinates from ORCA-job B6_random_3d_seed1003_d2.00_q0_m3_R2SCAN-3C E -148.695470028375
  B       0.130326      0.744764     -0.910266
  B      -0.165732     -0.695109      0.955821
  B      -1.176870      0.136074     -0.087905
  B       1.172705     -0.176075      0.028434
  B       0.114047      0.911045      0.737074
  B      -0.074476     -0.920699     -0.723157
6
Coordinates from ORCA-job B6_random_3d_seed1003_d2.00_q0_m3_R2SCAN-3C E -148.695814249448
  B       0.137752      0.734192     -0.918069
  B      -0.155404     -0.708626      0.948096
  B      -1.177897      0.145048     -0.078036
  B       1.169798     -0.167081      0.042512
  B       0.108371      0.914538      0.731980
  B      -0.082620     -0.918071     -0.726483
6
Coordinates from ORCA-job B6_random_3d_seed1003_d2.00_q0_m3_R2SCAN-3C E -148.696122495506
  B       0.144235      0.723839     -0.925281
  B      -0.145054     -0.719726      0.932680
  B      -1.174881      0.157114     -0.062787
  B       1.165799     -0.162092      0.055829
  B       0.097282      0.920837      0.728256
  B      -0.087381     -0.919972     -0.728697
6
Coordinates from ORCA-job B6_random_3d_seed1003_d2.00_q0_m3_R2SCAN-3C E -148.696196228517
  B       0.144970      0.719284     -0.927133
  B      -0.143905     -0.721078      0.927245
  B      -1.172189      0.160884     -0.057296
  B       1.169276     -0.160115      0.059824
  B       0.092461      0.924618      0.730109
  B      -0.090614     -0.923593     -0.732749
6
Coordinates from ORCA-job B6_random_3d_seed1003_d2.00_q0_m3_R2SCAN-3C E -148.696201990036
  B       0.144642      0.719891     -0.927677
  B      -0.144963     -0.720233      0.926885
  B      -1.171158      0.160864     -0.056815
  B       1.170541     -0.160776      0.058895
  B       0.091383      0.924888      0.731351
  B      -0.090445     -0.924633     -0.732639
6
Coordinates from ORCA-job B6_random_3d_seed1003_d2.00_q0_m3_R2SCAN-3C E -148.696202374932
  B       0.144346      0.719748     -0.927411
  B      -0.145221     -0.719895      0.927124
  B      -1.170935      0.160778     -0.057209
  B       1.170788     -0.161048      0.058325
  B       0.091282      0.924924      0.731754
  B      -0.090261     -0.924507     -0.732582
6
Coordinates from ORCA-job B6_random_3d_seed1003_d2.00_q0_m3_R2SCAN-3C E -148.696202471532
  B       0.144362      0.719955     -0.927402
  B      -0.145227     -0.719856      0.927232
  B      -1.170790      0.160741     -0.057449
  B       1.170771     -0.161085      0.058067
  B       0.091204      0.924837      0.731896
  B      -0.090320     -0.924592     -0.732344
