6
Coordinates from ORCA-job B6_linear_chain_d3.00_q0_m5_R2SCAN-3C E -148.613020722235
  B          -3.86278632713466     -0.00052509862385     -0.00015953835996
  B          -2.32350262883296     -0.00038844984942      0.00025011700811
  B          -0.76940328857478      0.00122178337554      0.00062443247646
  B           0.76947419180360      0.00040431368439     -0.00130205289237
  B           2.32349615088622     -0.00044878595041      0.00011121659796
  B           3.86272190185258     -0.00026376263624      0.00047582516980
