6
Coordinates from ORCA-job B6_linear_chain_d3.00_q0_m5_R2SCAN-3C E -147.919728316689
  B      -7.500000      0.000000      0.000000
  B      -4.500000      0.000000      0.000000
  B      -1.500000      0.000000      0.000000
  B       1.500000      0.000000      0.000000
  B       4.500000      0.000000      0.000000
  B       7.500000      0.000000      0.000000
6
Coordinates from ORCA-job B6_linear_chain_d3.00_q0_m5_R2SCAN-3C E -147.934295938524
  B      -7.324957     -0.000000      0.000000
  B      -4.405863     -0.000000      0.000000
  B      -1.461605      0.000000     -0.000000
  B       1.461606      0.000000     -0.000000
  B       4.405863     -0.000000      0.000000
  B       7.324957     -0.000000      0.000000
6
Coordinates from ORCA-job B6_linear_chain_d3.00_q0_m5_R2SCAN-3C E -147.949941461858
  B      -7.149655     -0.000000      0.000000
  B      -4.311302     -0.000000     -0.000000
  B      -1.423737      0.000000     -0.000000
  B       1.423738      0.000000     -0.000000
  B       4.311302     -0.000000      0.000000
  B       7.149654     -0.000000      0.000000
6
Coordinates from ORCA-job B6_linear_chain_d3.00_q0_m5_R2SCAN-3C E -147.975576295101
  B      -6.886293     -0.000000      0.000000
  B      -4.168769     -0.000000      0.000000
  B      -1.367870      0.000000     -0.000000
  B       1.367870      0.000000     -0.000000
  B       4.168769      0.000000     -0.000000
  B       6.886292     -0.000000      0.000000
6
Coordinates from ORCA-job B6_linear_chain_d3.00_q0_m5_R2SCAN-3C E -148.016197364907
  B      -6.514302     -0.000000      0.000000
  B      -3.955531     -0.000000      0.000000
  B      -1.288493      0.000000     -0.000000
  B       1.288493      0.000000     -0.000000
  B       3.955531      0.000000     -0.000000
  B       6.514302     -0.000000      0.000000
6
Coordinates from ORCA-job B6_linear_chain_d3.00_q0_m5_R2SCAN-3C E -148.064404103619
  B      -6.128771      0.000000      0.000000
  B      -3.728754     -0.000000      0.000000
  B      -1.209117      0.000000     -0.000000
  B       1.209117      0.000000     -0.000000
  B       3.728754     -0.000000     -0.000000
  B       6.128771      0.000000      0.000000
6
Coordinates from ORCA-job B6_linear_chain_d3.00_q0_m5_R2SCAN-3C E -148.120127200301
  B      -5.731889     -0.000000      0.000000
  B      -3.490624      0.000000     -0.000000
  B      -1.129740      0.000000     -0.000000
  B       1.129741     -0.000000     -0.000000
  B       3.490624     -0.000000     -0.000000
  B       5.731888      0.000000      0.000000
6
Coordinates from ORCA-job B6_linear_chain_d3.00_q0_m5_R2SCAN-3C E -148.177706415677
  B      -5.336137     -0.000000      0.000000
  B      -3.253626      0.000000     -0.000000
  B      -1.051495      0.000000     -0.000000
  B       1.051495     -0.000000     -0.000000
  B       3.253626     -0.000000     -0.000000
  B       5.336136      0.000000      0.000000
6
Coordinates from ORCA-job B6_linear_chain_d3.00_q0_m5_R2SCAN-3C E -148.325910415194
  B      -4.967358     -0.000000      0.000000
  B      -3.022128      0.000000     -0.000000
  B      -0.978750      0.000000     -0.000000
  B       0.978751      0.000000     -0.000000
  B       3.022129     -0.000000     -0.000000
  B       4.967356     -0.000000      0.000000
6
Coordinates from ORCA-job B6_linear_chain_d3.00_q0_m5_R2SCAN-3C E -148.421919113488
  B      -4.614690     -0.003387      0.000089
  B      -2.783988     -0.000029      0.001085
  B      -0.899369      0.004586      0.001585
  B       0.899368      0.002045     -0.004402
  B       2.783986     -0.000797     -0.000734
  B       4.614693     -0.002417      0.002378
6
Coordinates from ORCA-job B6_linear_chain_d3.00_q0_m5_R2SCAN-3C E -148.535970391326
  B      -4.343342     -0.002707     -0.000137
  B      -2.599033     -0.001069      0.000823
  B      -0.846293      0.005307      0.002928
  B       0.846295      0.001591     -0.005834
  B       2.599030     -0.001325      0.000202
  B       4.343342     -0.001797      0.002018
6
Coordinates from ORCA-job B6_linear_chain_d3.00_q0_m5_R2SCAN-3C E -148.609188415929
  B      -3.950014     -0.002261     -0.000248
  B      -2.364458     -0.001514      0.000654
  B      -0.769374      0.005396      0.003420
  B       0.769378      0.001303     -0.006231
  B       2.364455     -0.001509      0.000642
  B       3.950014     -0.001415      0.001763
6
Coordinates from ORCA-job B6_linear_chain_d3.00_q0_m5_R2SCAN-3C E -148.596966799049
  B      -3.815737     -0.005154     -0.000180
  B      -2.332782     -0.000529      0.001858
  B      -0.839028      0.008066      0.003945
  B       0.839005      0.002772     -0.008534
  B       2.332795     -0.001694     -0.000909
  B       3.815747     -0.003461      0.003821
6
Coordinates from ORCA-job B6_linear_chain_d3.00_q0_m5_R2SCAN-3C E -148.611031207574
  B      -3.823085     -0.003303     -0.000176
  B      -2.321577     -0.001184      0.001051
  B      -0.759617      0.006236      0.003254
  B       0.759680      0.002004     -0.006726
  B       2.321558     -0.001566      0.000126
  B       3.823040     -0.002186      0.002471
6
Coordinates from ORCA-job B6_linear_chain_d3.00_q0_m5_R2SCAN-3C E -148.607296406049
  B      -3.918681      0.000383     -0.000354
  B      -2.305469     -0.001390     -0.000099
  B      -0.771470      0.001607      0.001874
  B       0.771392     -0.000215     -0.002431
  B       2.305477     -0.000884      0.001078
  B       3.918750      0.000499     -0.000068
6
Coordinates from ORCA-job B6_linear_chain_d3.00_q0_m5_R2SCAN-3C E -148.612314266476
  B      -3.900676     -0.003318     -0.000168
  B      -2.351559     -0.000820      0.001113
  B      -0.781525      0.005697      0.002735
  B       0.781670      0.001999     -0.005984
  B       2.351513     -0.001360     -0.000179
  B       3.900578     -0.002198      0.002484
6
Coordinates from ORCA-job B6_linear_chain_d3.00_q0_m5_R2SCAN-3C E -148.608012492359
  B      -3.765091      0.001133     -0.000346
  B      -2.259866     -0.001344     -0.000343
  B      -0.739790      0.000467      0.001292
  B       0.737508     -0.000590     -0.001207
  B       2.260476     -0.000679      0.001216
  B       3.766764      0.001013     -0.000611
6
Coordinates from ORCA-job B6_linear_chain_d3.00_q0_m5_R2SCAN-3C E -148.612995617897
  B      -3.866076     -0.001435     -0.000233
  B      -2.324633     -0.000906      0.000511
  B      -0.766542      0.003264      0.001892
  B       0.773659      0.000917     -0.003632
  B       2.323175     -0.000986      0.000296
  B       3.860416     -0.000853      0.001166
6
Coordinates from ORCA-job B6_linear_chain_d3.00_q0_m5_R2SCAN-3C E -148.601016902980
  B      -3.806175     -0.001524     -0.000145
  B      -2.320190     -0.000646      0.000580
  B      -0.855682      0.003125      0.001602
  B       0.691601      0.001005     -0.003582
  B       2.344579     -0.000986      0.000205
  B       3.945868     -0.000974      0.001340
6
Coordinates from ORCA-job B6_linear_chain_d3.00_q0_m5_R2SCAN-3C E -148.612861643925
  B      -3.864470     -0.001313     -0.000205
  B      -2.321250     -0.000758      0.000490
  B      -0.777048      0.002876      0.001585
  B       0.762131      0.000865     -0.003177
  B       2.331406     -0.000887      0.000233
  B       3.869232     -0.000783      0.001074
6
Coordinates from ORCA-job B6_linear_chain_d3.00_q0_m5_R2SCAN-3C E -148.601602400387
  B      -3.829184     -0.001016     -0.000212
  B      -2.370972     -0.000765      0.000375
  B      -0.749110      0.002434      0.001391
  B       0.788618      0.000692     -0.002595
  B       2.271483     -0.000755      0.000184
  B       3.889164     -0.000589      0.000857
6
Coordinates from ORCA-job B6_linear_chain_d3.00_q0_m5_R2SCAN-3C E -148.612967481839
  B      -3.863213     -0.000983     -0.000201
  B      -2.326737     -0.000683      0.000389
  B      -0.766942      0.002293      0.001285
  B       0.771627      0.000676     -0.002520
  B       2.320026     -0.000747      0.000221
  B       3.865240     -0.000556      0.000826
6
Coordinates from ORCA-job B6_linear_chain_d3.00_q0_m5_R2SCAN-3C E -148.613018006353
  B      -3.861794     -0.000913     -0.000186
  B      -2.323336     -0.000584      0.000375
  B      -0.769565      0.002048      0.001100
  B       0.769874      0.000638     -0.002224
  B       2.323623     -0.000673      0.000167
  B       3.861198     -0.000516      0.000769
6
Coordinates from ORCA-job B6_linear_chain_d3.00_q0_m5_R2SCAN-3C E -148.613020330755
  B      -3.862650     -0.000755     -0.000179
  B      -2.323484     -0.000526      0.000325
  B      -0.769538      0.001744      0.000934
  B       0.769153      0.000546     -0.001891
  B       2.323510     -0.000597      0.000159
  B       3.863009     -0.000411      0.000652
6
Coordinates from ORCA-job B6_linear_chain_d3.00_q0_m5_R2SCAN-3C E -148.613020567263
  B      -3.862733     -0.000653     -0.000172
  B      -2.323445     -0.000468      0.000293
  B      -0.769396      0.001516      0.000800
  B       0.769424      0.000484     -0.001635
  B       2.323428     -0.000534      0.000139
  B       3.862720     -0.000345      0.000574
6
Coordinates from ORCA-job B6_linear_chain_d3.00_q0_m5_R2SCAN-3C E -148.613020722235
  B      -3.862786     -0.000525     -0.000160
  B      -2.323503     -0.000388      0.000250
  B      -0.769403      0.001222      0.000624
  B       0.769474      0.000404     -0.001302
  B       2.323496     -0.000449      0.000111
  B       3.862722     -0.000264      0.000476
