6
Coordinates from ORCA-job B6_random_3d_seed1004_d1.60_q0_m5_R2SCAN-3C E -148.559822482638
  B      -0.483843     -0.437589      0.975711
  B       0.749165      0.681756      0.742002
  B       0.825772     -0.859279      0.339506
  B      -1.110507      0.087165     -0.369428
  B       0.009715      1.088585     -0.666679
  B       0.009698     -0.560638     -1.021112
6
Coordinates from ORCA-job B6_random_3d_seed1004_d1.60_q0_m5_R2SCAN-3C E -148.586016543570
  B      -0.489704     -0.460719      0.985407
  B       0.752081      0.685227      0.748086
  B       0.872798     -0.872959      0.357520
  B      -1.154371      0.120987     -0.383165
  B       0.012437      1.107669     -0.681442
  B       0.006759     -0.580206     -1.026405
6
Coordinates from ORCA-job B6_random_3d_seed1004_d1.60_q0_m5_R2SCAN-3C E -148.604716952502
  B      -0.493566     -0.480899      0.983591
  B       0.758422      0.687936      0.741522
  B       0.921062     -0.894627      0.381582
  B      -1.205605      0.152789     -0.400641
  B       0.011826      1.130635     -0.687116
  B       0.007862     -0.595834     -1.018938
6
Coordinates from ORCA-job B6_random_3d_seed1004_d1.60_q0_m5_R2SCAN-3C E -148.618032185243
  B      -0.494640     -0.497859      0.967812
  B       0.762691      0.690476      0.726964
  B       0.967528     -0.916382      0.405493
  B      -1.254230      0.182923     -0.418232
  B       0.011234      1.149597     -0.683770
  B       0.007416     -0.608754     -0.998268
6
Coordinates from ORCA-job B6_random_3d_seed1004_d1.60_q0_m5_R2SCAN-3C E -148.631866240323
  B      -0.494067     -0.519879      0.926689
  B       0.766223      0.692964      0.699962
  B       1.031623     -0.941890      0.437106
  B      -1.316964      0.225819     -0.442007
  B       0.010741      1.169350     -0.669849
  B       0.002443     -0.626364     -0.951900
6
Coordinates from ORCA-job B6_random_3d_seed1004_d1.60_q0_m5_R2SCAN-3C E -148.641263523654
  B      -0.492620     -0.545705      0.862146
  B       0.767423      0.693523      0.670590
  B       1.093540     -0.953532      0.464685
  B      -1.368441      0.272209     -0.462157
  B       0.011756      1.180995     -0.650542
  B      -0.011658     -0.647490     -0.884721
6
Coordinates from ORCA-job B6_random_3d_seed1004_d1.60_q0_m5_R2SCAN-3C E -148.645445112362
  B      -0.493523     -0.563478      0.810143
  B       0.770248      0.690978      0.657410
  B       1.119012     -0.942981      0.474015
  B      -1.379797      0.297065     -0.467282
  B       0.011234      1.181048     -0.639447
  B      -0.027175     -0.662633     -0.834839
6
Coordinates from ORCA-job B6_random_3d_seed1004_d1.60_q0_m5_R2SCAN-3C E -148.647951409785
  B      -0.498596     -0.571228      0.777781
  B       0.778300      0.686297      0.655122
  B       1.115839     -0.921742      0.471720
  B      -1.363820      0.301754     -0.462550
  B       0.006392      1.176052     -0.634059
  B      -0.038116     -0.671133     -0.808014
6
Coordinates from ORCA-job B6_random_3d_seed1004_d1.60_q0_m5_R2SCAN-3C E -148.649029423363
  B      -0.506178     -0.566818      0.772664
  B       0.790378      0.682161      0.656157
  B       1.096812     -0.906938      0.466218
  B      -1.340535      0.290149     -0.455623
  B      -0.002359      1.172299     -0.630697
  B      -0.038117     -0.670853     -0.808719
6
Coordinates from ORCA-job B6_random_3d_seed1004_d1.60_q0_m5_R2SCAN-3C E -148.649280356570
  B      -0.510086     -0.561186      0.772961
  B       0.800610      0.680950      0.651243
  B       1.091501     -0.909974      0.469189
  B      -1.339267      0.283260     -0.456994
  B      -0.009909      1.175298     -0.625270
  B      -0.032848     -0.668349     -0.811129
6
Coordinates from ORCA-job B6_random_3d_seed1004_d1.60_q0_m5_R2SCAN-3C E -148.650148112659
  B      -0.527450     -0.536292      0.765756
  B       0.849406      0.674402      0.620177
  B       1.076481     -0.928721      0.489493
  B      -1.345049      0.257441     -0.468308
  B      -0.045941      1.191023     -0.593813
  B      -0.007447     -0.657853     -0.813305
6
Coordinates from ORCA-job B6_random_3d_seed1004_d1.60_q0_m5_R2SCAN-3C E -148.650818286614
  B      -0.543085     -0.513104      0.754386
  B       0.895666      0.666333      0.582042
  B       1.068109     -0.948076      0.514163
  B      -1.359000      0.237703     -0.483139
  B      -0.080184      1.204825     -0.556764
  B       0.018493     -0.647681     -0.810688
6
Coordinates from ORCA-job B6_random_3d_seed1004_d1.60_q0_m5_R2SCAN-3C E -148.651498442560
  B      -0.555535     -0.495845      0.740829
  B       0.935100      0.657974      0.540522
  B       1.065253     -0.963123      0.541030
  B      -1.378391      0.226320     -0.499611
  B      -0.108168      1.213667     -0.517364
  B       0.041741     -0.638994     -0.805406
6
Coordinates from ORCA-job B6_random_3d_seed1004_d1.60_q0_m5_R2SCAN-3C E -148.652426165262
  B      -0.568262     -0.482543      0.723300
  B       0.976617      0.647111      0.486862
  B       1.062595     -0.972251      0.575357
  B      -1.403492      0.220294     -0.518601
  B      -0.135192      1.216772     -0.467505
  B       0.067734     -0.629383     -0.799413
6
Coordinates from ORCA-job B6_random_3d_seed1004_d1.60_q0_m5_R2SCAN-3C E -148.653809042720
  B      -0.579060     -0.478484      0.706562
  B       1.013036      0.635620      0.429090
  B       1.056592     -0.971292      0.613026
  B      -1.429110      0.221396     -0.534119
  B      -0.155700      1.211716     -0.416777
  B       0.094242     -0.618955     -0.797782
6
Coordinates from ORCA-job B6_random_3d_seed1004_d1.60_q0_m5_R2SCAN-3C E -148.655947261682
  B      -0.582995     -0.498657      0.692613
  B       1.039328      0.626224      0.370995
  B       1.043833     -0.952938      0.657881
  B      -1.455989      0.238650     -0.540605
  B      -0.163316      1.195442     -0.373914
  B       0.119139     -0.608722     -0.806971
6
Coordinates from ORCA-job B6_random_3d_seed1004_d1.60_q0_m5_R2SCAN-3C E -148.657930225525
  B      -0.587389     -0.510728      0.675781
  B       1.069776      0.610230      0.315501
  B       1.027057     -0.934552      0.699796
  B      -1.478485      0.249635     -0.543432
  B      -0.177651      1.179470     -0.333337
  B       0.146692     -0.594054     -0.814308
6
Coordinates from ORCA-job B6_random_3d_seed1004_d1.60_q0_m5_R2SCAN-3C E -148.660110771076
  B      -0.572659     -0.564504      0.667047
  B       1.088716      0.598164      0.286292
  B       0.987586     -0.894074      0.747738
  B      -1.485942      0.279900     -0.516628
  B      -0.183287      1.159733     -0.335681
  B       0.165587     -0.579219     -0.848768
6
Coordinates from ORCA-job B6_random_3d_seed1004_d1.60_q0_m5_R2SCAN-3C E -148.662791379160
  B      -0.591734     -0.535299      0.649456
  B       1.134122      0.563196      0.206999
  B       0.965658     -0.893029      0.790611
  B      -1.510172      0.259902     -0.522357
  B      -0.215065      1.148376     -0.274831
  B       0.217191     -0.543146     -0.849879
6
Coordinates from ORCA-job B6_random_3d_seed1004_d1.60_q0_m5_R2SCAN-3C E -148.665478875409
  B      -0.602449     -0.515897      0.653727
  B       1.141520      0.566944      0.231065
  B       0.961727     -0.921051      0.786932
  B      -1.489237      0.228601     -0.496989
  B      -0.224228      1.171623     -0.309190
  B       0.212667     -0.530220     -0.865546
6
Coordinates from ORCA-job B6_random_3d_seed1004_d1.60_q0_m5_R2SCAN-3C E -148.667172772918
  B      -0.604792     -0.529076      0.656883
  B       1.150608      0.554201      0.198903
  B       0.928150     -0.922998      0.825261
  B      -1.492167      0.217814     -0.466633
  B      -0.227061      1.171141     -0.317576
  B       0.245262     -0.491082     -0.896837
6
Coordinates from ORCA-job B6_random_3d_seed1004_d1.60_q0_m5_R2SCAN-3C E -148.667995016045
  B      -0.602285     -0.537661      0.667697
  B       1.132323      0.558709      0.215534
  B       0.925668     -0.936716      0.829138
  B      -1.486620      0.212572     -0.445929
  B      -0.213771      1.177987     -0.353846
  B       0.244685     -0.474891     -0.912594
6
Coordinates from ORCA-job B6_random_3d_seed1004_d1.60_q0_m5_R2SCAN-3C E -148.668653036852
  B      -0.602110     -0.540170      0.670681
  B       1.115449      0.550983      0.214842
  B       0.927039     -0.943441      0.837276
  B      -1.487939      0.210849     -0.432426
  B      -0.205401      1.175430     -0.372751
  B       0.252963     -0.453651     -0.917623
6
Coordinates from ORCA-job B6_random_3d_seed1004_d1.60_q0_m5_R2SCAN-3C E -148.669163610477
  B      -0.598111     -0.540684      0.671888
  B       1.093913      0.543567      0.231456
  B       0.939040     -0.948130      0.835814
  B      -1.488157      0.215069     -0.422944
  B      -0.196988      1.170704     -0.398272
  B       0.250302     -0.440525     -0.917942
6
Coordinates from ORCA-job B6_random_3d_seed1004_d1.60_q0_m5_R2SCAN-3C E -148.669387488523
  B      -0.594661     -0.538357      0.669384
  B       1.088457      0.534822      0.238170
  B       0.944849     -0.947574      0.837898
  B      -1.491907      0.218273     -0.419447
  B      -0.197612      1.165313     -0.407385
  B       0.250874     -0.432478     -0.918620
6
Coordinates from ORCA-job B6_random_3d_seed1004_d1.60_q0_m5_R2SCAN-3C E -148.669519532578
  B      -0.591206     -0.533828      0.667596
  B       1.089395      0.529301      0.243371
  B       0.948454     -0.947805      0.840334
  B      -1.497558      0.219680     -0.419304
  B      -0.200332      1.161464     -0.410467
  B       0.251247     -0.428811     -0.921529
6
Coordinates from ORCA-job B6_random_3d_seed1004_d1.60_q0_m5_R2SCAN-3C E -148.669619447589
  B      -0.587856     -0.527651      0.666237
  B       1.093477      0.524498      0.244206
  B       0.948406     -0.949035      0.846090
  B      -1.505057      0.218867     -0.418693
  B      -0.203719      1.157033     -0.409819
  B       0.254749     -0.423712     -0.928021
6
Coordinates from ORCA-job B6_random_3d_seed1004_d1.60_q0_m5_R2SCAN-3C E -148.669690354762
  B      -0.584301     -0.521104      0.665840
  B       1.095966      0.522844      0.246659
  B       0.947324     -0.951112      0.850608
  B      -1.511003      0.217160     -0.417372
  B      -0.205043      1.152700     -0.409277
  B       0.257056     -0.420489     -0.936457
6
Coordinates from ORCA-job B6_random_3d_seed1004_d1.60_q0_m5_R2SCAN-3C E -148.669730130368
  B      -0.581896     -0.515771      0.665355
  B       1.096552      0.522366      0.246876
  B       0.945222     -0.952270      0.853867
  B      -1.514181      0.215452     -0.415800
  B      -0.205182      1.148702     -0.407124
  B       0.259485     -0.418479     -0.943174
6
Coordinates from ORCA-job B6_random_3d_seed1004_d1.60_q0_m5_R2SCAN-3C E -148.669746799865
  B      -0.580501     -0.512768      0.665293
  B       1.094572      0.523192      0.248366
  B       0.944544     -0.952901      0.853795
  B      -1.513976      0.214768     -0.414877
  B      -0.204338      1.146830     -0.406303
  B       0.259699     -0.419122     -0.946275
6
Coordinates from ORCA-job B6_random_3d_seed1004_d1.60_q0_m5_R2SCAN-3C E -148.669752661490
  B      -0.580015     -0.511599      0.665170
  B       1.092988      0.523181      0.248153
  B       0.944189     -0.952899      0.853353
  B      -1.513016      0.214714     -0.414636
  B      -0.204319      1.146433     -0.405390
  B       0.260174     -0.419830     -0.946651
6
Coordinates from ORCA-job B6_random_3d_seed1004_d1.60_q0_m5_R2SCAN-3C E -148.669756304134
  B      -0.579602     -0.511018      0.665323
  B       1.091396      0.522956      0.248275
  B       0.944343     -0.953136      0.852571
  B      -1.511915      0.214906     -0.414666
  B      -0.204650      1.146995     -0.405294
  B       0.260428     -0.420703     -0.946208
6
Coordinates from ORCA-job B6_random_3d_seed1004_d1.60_q0_m5_R2SCAN-3C E -148.669758962562
  B      -0.578989     -0.510148      0.665589
  B       1.090120      0.522221      0.247937
  B       0.944401     -0.953664      0.852248
  B      -1.511322      0.215033     -0.414795
  B      -0.205551      1.147855     -0.405067
  B       0.261341     -0.421296     -0.945913
6
Coordinates from ORCA-job B6_random_3d_seed1004_d1.60_q0_m5_R2SCAN-3C E -148.669759961601
  B      -0.578586     -0.509678      0.665834
  B       1.089725      0.521707      0.247857
  B       0.944384     -0.954175      0.852384
  B      -1.511428      0.214999     -0.414708
  B      -0.206138      1.148447     -0.405294
  B       0.262042     -0.421301     -0.946073
6
Coordinates from ORCA-job B6_random_3d_seed1004_d1.60_q0_m5_R2SCAN-3C E -148.669760264521
  B      -0.578427     -0.509479      0.665915
  B       1.089780      0.521441      0.247698
  B       0.944299     -0.954408      0.852643
  B      -1.511804      0.214967     -0.414603
  B      -0.206410      1.148649     -0.405355
  B       0.262563     -0.421169     -0.946297
6
Coordinates from ORCA-job B6_random_3d_seed1004_d1.60_q0_m5_R2SCAN-3C E -148.669760422034
  B      -0.578447     -0.509522      0.665879
  B       1.089869      0.521469      0.247753
  B       0.944275     -0.954428      0.852675
  B      -1.512004      0.214994     -0.414484
  B      -0.206402      1.148681     -0.405454
  B       0.262709     -0.421193     -0.946369
6
Coordinates from ORCA-job B6_random_3d_seed1004_d1.60_q0_m5_R2SCAN-3C E -148.669760890233
  B      -0.578577     -0.509732      0.665635
  B       1.090026      0.521585      0.247839
  B       0.944201     -0.954374      0.852659
  B      -1.512656      0.215239     -0.414003
  B      -0.206347      1.148686     -0.405700
  B       0.263352     -0.421403     -0.946431
6
Coordinates from ORCA-job B6_random_3d_seed1004_d1.60_q0_m5_R2SCAN-3C E -148.669761422326
  B      -0.578811     -0.509953      0.665316
  B       1.090004      0.521904      0.248061
  B       0.944233     -0.954303      0.852308
  B      -1.513086      0.215614     -0.413519
  B      -0.206267      1.148680     -0.405944
  B       0.263926     -0.421942     -0.946222
6
Coordinates from ORCA-job B6_random_3d_seed1004_d1.60_q0_m5_R2SCAN-3C E -148.669762724739
  B      -0.579577     -0.510664      0.664117
  B       1.089709      0.522853      0.248521
  B       0.944190     -0.954048      0.851100
  B      -1.514357      0.217098     -0.411676
  B      -0.206239      1.148415     -0.406748
  B       0.266275     -0.423654     -0.945312
6
Coordinates from ORCA-job B6_random_3d_seed1004_d1.60_q0_m5_R2SCAN-3C E -148.669763532005
  B      -0.579962     -0.510952      0.663528
  B       1.089214      0.523592      0.248957
  B       0.944366     -0.954076      0.849990
  B      -1.514888      0.218225     -0.410788
  B      -0.206354      1.148154     -0.407253
  B       0.267624     -0.424943     -0.944434
6
Coordinates from ORCA-job B6_random_3d_seed1004_d1.60_q0_m5_R2SCAN-3C E -148.669764576406
  B      -0.580330     -0.510902      0.663154
  B       1.088681      0.524244      0.249101
  B       0.944465     -0.954395      0.848843
  B      -1.515144      0.219265     -0.410078
  B      -0.206778      1.147690     -0.407660
  B       0.269105     -0.425902     -0.943360
6
Coordinates from ORCA-job B6_random_3d_seed1004_d1.60_q0_m5_R2SCAN-3C E -148.669765326649
  B      -0.580610     -0.510674      0.663075
  B       1.088296      0.524854      0.249278
  B       0.944438     -0.954919      0.847720
  B      -1.515448      0.220115     -0.409463
  B      -0.207283      1.147176     -0.408190
  B       0.270606     -0.426550     -0.942420
6
Coordinates from ORCA-job B6_random_3d_seed1004_d1.60_q0_m5_R2SCAN-3C E -148.669765867960
  B      -0.580955     -0.510251      0.663110
  B       1.088082      0.525504      0.249544
  B       0.944256     -0.955570      0.846439
  B      -1.515980      0.220807     -0.408714
  B      -0.207788      1.146579     -0.408870
  B       0.272385     -0.427070     -0.941509
6
Coordinates from ORCA-job B6_random_3d_seed1004_d1.60_q0_m5_R2SCAN-3C E -148.669766377895
  B      -0.581057     -0.509764      0.663502
  B       1.088232      0.525686      0.249608
  B       0.944009     -0.955968      0.845809
  B      -1.516276      0.220716     -0.408667
  B      -0.208000      1.146308     -0.409060
  B       0.273093     -0.426978     -0.941192
6
Coordinates from ORCA-job B6_random_3d_seed1004_d1.60_q0_m5_R2SCAN-3C E -148.669767037258
  B      -0.581355     -0.508810      0.664260
  B       1.088398      0.526126      0.250063
  B       0.943510     -0.956648      0.844214
  B      -1.516907      0.220460     -0.408364
  B      -0.208169      1.145841     -0.409667
  B       0.274523     -0.426969     -0.940506
6
Coordinates from ORCA-job B6_random_3d_seed1004_d1.60_q0_m5_R2SCAN-3C E -148.669767222482
  B      -0.581388     -0.508600      0.664471
  B       1.088477      0.526066      0.250085
  B       0.943356     -0.956572      0.843915
  B      -1.516957      0.220182     -0.408487
  B      -0.208053      1.145861     -0.409554
  B       0.274564     -0.426936     -0.940430
6
Coordinates from ORCA-job B6_random_3d_seed1004_d1.60_q0_m5_R2SCAN-3C E -148.669767294273
  B      -0.581518     -0.508460      0.664523
  B       1.088319      0.526195      0.250311
  B       0.943278     -0.956537      0.843284
  B      -1.517076      0.220209     -0.408297
  B      -0.207952      1.145809     -0.409707
  B       0.274949     -0.427215     -0.940114
6
Coordinates from ORCA-job B6_random_3d_seed1004_d1.60_q0_m5_R2SCAN-3C E -148.669766728292
  B      -0.582169     -0.507894      0.664585
  B       1.087765      0.527047      0.251057
  B       0.942984     -0.956793      0.840617
  B      -1.517887      0.220858     -0.407282
  B      -0.208000      1.145386     -0.410461
  B       0.277307     -0.428604     -0.938516
6
Coordinates from ORCA-job B6_random_3d_seed1004_d1.60_q0_m5_R2SCAN-3C E -148.669767293688
  B      -0.581687     -0.508371      0.664460
  B       1.088147      0.526433      0.250482
  B       0.943240     -0.956614      0.842659
  B      -1.517283      0.220472     -0.407985
  B      -0.208003      1.145686     -0.409920
  B       0.275587     -0.427607     -0.939696
6
Coordinates from ORCA-job B6_random_3d_seed1004_d1.60_q0_m5_R2SCAN-3C E -148.669767311050
  B      -0.581562     -0.508487      0.664439
  B       1.088235      0.526264      0.250351
  B       0.943315     -0.956554      0.843177
  B      -1.517107      0.220346     -0.408185
  B      -0.207977      1.145764     -0.409780
  B       0.275096     -0.427333     -0.940002
