6
Coordinates from ORCA-job B6_random_3d_seed1004_d1.60_q0_m5_R2SCAN-3C E -148.669767311050
  B          -0.58156184337150     -0.50848687583077      0.66443892977739
  B           1.08823522801323      0.52626388220027      0.25035084961019
  B           0.94331495250449     -0.95655445092738      0.84317677383851
  B          -1.51710724829785      0.22034646327464     -0.40818511651922
  B          -0.20797729996253      1.14576434382568     -0.40977990525393
  B           0.27509621111415     -0.42733337254244     -0.94000153145294
