6
Coordinates from ORCA-job B6_rectangular_planar_d3.50_q0_m5_R2SCAN-3C E -148.695228132250
  B          -1.57988567192676     -1.01313718101038      0.00001495729245
  B          -0.00138947530569     -0.41728033794340     -0.00001692439801
  B           1.57320444571490     -1.02349935048825      0.00001075821565
  B          -1.37443303294442      0.58087593298430      0.00000080606496
  B           0.00428869193668      1.30125828662628     -0.00000735035935
  B           1.37821504252529      0.57178264983145     -0.00000224681570
