6
Coordinates from ORCA-job B6_rectangular_planar_d3.50_q0_m5_R2SCAN-3C E -147.864232595437
  B      -3.500000     -1.750000      0.000000
  B       0.000000     -1.750000      0.000000
  B       3.500000     -1.750000      0.000000
  B      -3.500000      1.750000      0.000000
  B       0.000000      1.750000      0.000000
  B       3.500000      1.750000      0.000000
6
Coordinates from ORCA-job B6_rectangular_planar_d3.50_q0_m5_R2SCAN-3C E -147.874616582673
  B      -3.436109     -1.718799      0.000000
  B       0.000000     -1.733716     -0.000000
  B       3.436109     -1.718800      0.000000
  B      -3.436109      1.718800      0.000000
  B      -0.000000      1.733716     -0.000000
  B       3.436109      1.718800      0.000000
6
Coordinates from ORCA-job B6_rectangular_planar_d3.50_q0_m5_R2SCAN-3C E -147.885629101021
  B      -3.371831     -1.687864      0.000000
  B       0.000000     -1.717703     -0.000000
  B       3.371831     -1.687864      0.000000
  B      -3.371831      1.687864      0.000000
  B      -0.000000      1.717703     -0.000000
  B       3.371831      1.687864      0.000000
6
Coordinates from ORCA-job B6_rectangular_planar_d3.50_q0_m5_R2SCAN-3C E -147.903419518488
  B      -3.274725     -1.642057      0.000000
  B       0.000000     -1.693686     -0.000000
  B       3.274725     -1.642057      0.000000
  B      -3.274725      1.642058      0.000000
  B      -0.000000      1.693684     -0.000000
  B       3.274725      1.642058      0.000000
6
Coordinates from ORCA-job B6_rectangular_planar_d3.50_q0_m5_R2SCAN-3C E -147.933233987553
  B      -3.127561     -1.574660      0.000000
  B       0.000000     -1.657728     -0.000000
  B       3.127561     -1.574660      0.000000
  B      -3.127558      1.574661      0.000000
  B       0.000000      1.657725     -0.000000
  B       3.127558      1.574661      0.000000
6
Coordinates from ORCA-job B6_rectangular_planar_d3.50_q0_m5_R2SCAN-3C E -147.968566253025
  B      -2.972731     -1.506537      0.000000
  B       0.000000     -1.621539     -0.000000
  B       2.972731     -1.506537      0.000000
  B      -2.972721      1.506542      0.000000
  B       0.000000      1.621530     -0.000000
  B       2.972721      1.506542      0.000000
6
Coordinates from ORCA-job B6_rectangular_planar_d3.50_q0_m5_R2SCAN-3C E -148.009011401122
  B      -2.815495     -1.440471      0.000000
  B       0.000000     -1.586435     -0.000000
  B       2.815494     -1.440471      0.000000
  B      -2.815467      1.440480      0.000000
  B       0.000000      1.586418     -0.000000
  B       2.815467      1.440480      0.000000
6
Coordinates from ORCA-job B6_rectangular_planar_d3.50_q0_m5_R2SCAN-3C E -148.055249563293
  B      -2.655851     -1.376460      0.000000
  B       0.000000     -1.552616     -0.000000
  B       2.655851     -1.376459      0.000000
  B      -2.655817      1.376470      0.000000
  B       0.000000      1.552595     -0.000000
  B       2.655817      1.376470      0.000000
6
Coordinates from ORCA-job B6_rectangular_planar_d3.50_q0_m5_R2SCAN-3C E -148.107652580776
  B      -2.494512     -1.313936      0.000000
  B       0.000000     -1.520282     -0.000000
  B       2.494512     -1.313935      0.000000
  B      -2.494478      1.313949      0.000000
  B       0.000000      1.520258     -0.000000
  B       2.494478      1.313947      0.000000
6
Coordinates from ORCA-job B6_rectangular_planar_d3.50_q0_m5_R2SCAN-3C E -148.165889178702
  B      -2.332416     -1.252349      0.000000
  B       0.000000     -1.489569     -0.000000
  B       2.332416     -1.252347      0.000000
  B      -2.332382      1.252362      0.000000
  B       0.000000      1.489543     -0.000000
  B       2.332382      1.252360      0.000000
6
Coordinates from ORCA-job B6_rectangular_planar_d3.50_q0_m5_R2SCAN-3C E -148.228483680389
  B      -2.169338     -1.190816      0.000000
  B       0.000000     -1.460049     -0.000000
  B       2.169337     -1.190814      0.000000
  B      -2.169304      1.190830      0.000000
  B       0.000000      1.460023     -0.000000
  B       2.169304      1.190827      0.000000
6
Coordinates from ORCA-job B6_rectangular_planar_d3.50_q0_m5_R2SCAN-3C E -148.327358098859
  B      -2.005361     -1.127682      0.000000
  B       0.000000     -1.430272     -0.000000
  B       2.005361     -1.127680      0.000000
  B      -2.005317      1.127692      0.000000
  B       0.000000      1.430252     -0.000000
  B       2.005316      1.127690      0.000000
6
Coordinates from ORCA-job B6_rectangular_planar_d3.50_q0_m5_R2SCAN-3C E -148.430898086968
  B      -1.838826     -1.066010      0.000008
  B       0.000000     -1.407302     -0.000014
  B       1.838826     -1.066008      0.000008
  B      -1.838872      1.066490      0.000004
  B       0.000000      1.406344     -0.000009
  B       1.838872      1.066487      0.000004
6
Coordinates from ORCA-job B6_rectangular_planar_d3.50_q0_m5_R2SCAN-3C E -148.490327815278
  B      -1.730287     -1.018369      0.000003
  B      -0.000000     -1.389825     -0.000006
  B       1.730287     -1.018367      0.000003
  B      -1.731550      1.019941      0.000003
  B      -0.000000      1.386681     -0.000006
  B       1.731550      1.019939      0.000003
6
Coordinates from ORCA-job B6_rectangular_planar_d3.50_q0_m5_R2SCAN-3C E -148.546344169139
  B      -1.598148     -0.938188      0.000000
  B       0.000001     -1.342263     -0.000002
  B       1.598148     -0.938186      0.000000
  B      -1.601524      0.940255      0.000003
  B       0.000001      1.338129     -0.000004
  B       1.601522      0.940253      0.000003
6
Coordinates from ORCA-job B6_rectangular_planar_d3.50_q0_m5_R2SCAN-3C E -148.599915041958
  B      -1.588091     -0.856671     -0.000096
  B       0.000000     -1.267170      0.000133
  B       1.588091     -0.856669     -0.000096
  B      -1.586047      0.857560      0.000101
  B       0.000000      1.265392     -0.000143
  B       1.586046      0.857558      0.000101
6
Coordinates from ORCA-job B6_rectangular_planar_d3.50_q0_m5_R2SCAN-3C E -148.614201053962
  B      -1.591152     -0.776288     -0.000108
  B      -0.000005     -1.225037      0.000155
  B       1.591155     -0.776283     -0.000109
  B      -1.590806      0.775052      0.000122
  B      -0.000000      1.227506     -0.000184
  B       1.590808      0.775051      0.000124
6
Coordinates from ORCA-job B6_rectangular_planar_d3.50_q0_m5_R2SCAN-3C E -148.616657542112
  B      -1.572498     -0.790455     -0.000096
  B       0.000015     -1.151976      0.000104
  B       1.572478     -0.790457     -0.000099
  B      -1.569150      0.789798      0.000176
  B       0.000010      1.153286     -0.000264
  B       1.569144      0.789803      0.000179
6
Coordinates from ORCA-job B6_rectangular_planar_d3.50_q0_m5_R2SCAN-3C E -148.618597371389
  B      -1.603338     -0.789053     -0.000016
  B      -0.000148     -1.088138     -0.000011
  B       1.603486     -0.789072     -0.000018
  B      -1.609422      0.783676      0.000084
  B      -0.000111      1.098885     -0.000125
  B       1.609533      0.783702      0.000086
6
Coordinates from ORCA-job B6_rectangular_planar_d3.50_q0_m5_R2SCAN-3C E -148.615808567378
  B      -1.685286     -0.757648      0.000061
  B       0.002518     -1.056644     -0.000134
  B       1.682807     -0.757538      0.000060
  B      -1.591354      0.800299      0.000019
  B       0.001994      0.971466     -0.000027
  B       1.589320      0.800064      0.000020
6
Coordinates from ORCA-job B6_rectangular_planar_d3.50_q0_m5_R2SCAN-3C E -148.618922328969
  B      -1.637018     -0.783456      0.000057
  B      -0.000713     -0.997345     -0.000120
  B       1.637780     -0.783396      0.000056
  B      -1.628666      0.778715      0.000019
  B      -0.002893      1.007091     -0.000031
  B       1.631511      0.778391      0.000019
6
Coordinates from ORCA-job B6_rectangular_planar_d3.50_q0_m5_R2SCAN-3C E -148.617325596657
  B      -1.625862     -0.794084     -0.000023
  B       0.015609     -1.039217      0.000030
  B       1.611892     -0.797169     -0.000026
  B      -1.636034      0.777957     -0.000006
  B       0.032321      1.070350      0.000031
  B       1.602074      0.782162     -0.000005
6
Coordinates from ORCA-job B6_rectangular_planar_d3.50_q0_m5_R2SCAN-3C E -148.618530658379
  B      -1.613085     -0.798660     -0.000057
  B      -0.011909     -1.063207      0.000097
  B       1.625552     -0.799588     -0.000063
  B      -1.604161      0.783474     -0.000022
  B      -0.005309      1.094248      0.000069
  B       1.608912      0.783733     -0.000023
6
Coordinates from ORCA-job B6_rectangular_planar_d3.50_q0_m5_R2SCAN-3C E -148.617231066590
  B      -1.660897     -0.790924      0.000015
  B       0.025572     -1.007648     -0.000040
  B       1.625754     -0.781348      0.000010
  B      -1.599223      0.776344      0.000013
  B      -0.020895      1.036613     -0.000009
  B       1.629689      0.766962      0.000012
6
Coordinates from ORCA-job B6_rectangular_planar_d3.50_q0_m5_R2SCAN-3C E -148.618277379510
  B      -1.657466     -0.775143      0.000061
  B      -0.006341     -0.958347     -0.000130
  B       1.664205     -0.789754      0.000059
  B      -1.624775      0.754122      0.000031
  B       0.009246      1.000950     -0.000051
  B       1.615130      0.768173      0.000029
6
Coordinates from ORCA-job B6_rectangular_planar_d3.50_q0_m5_R2SCAN-3C E -148.619642626289
  B      -1.650335     -0.825057      0.000032
  B      -0.012347     -0.960530     -0.000064
  B       1.664659     -0.800514      0.000028
  B      -1.612343      0.778230     -0.000002
  B       0.013131      1.056287      0.000007
  B       1.597235      0.751584     -0.000001
6
Coordinates from ORCA-job B6_rectangular_planar_d3.50_q0_m5_R2SCAN-3C E -148.621956428694
  B      -1.661694     -0.835748      0.000029
  B      -0.006583     -0.930246     -0.000056
  B       1.665653     -0.828569      0.000026
  B      -1.587078      0.756285     -0.000007
  B       0.002555      1.088210      0.000015
  B       1.587146      0.750068     -0.000007
6
Coordinates from ORCA-job B6_rectangular_planar_d3.50_q0_m5_R2SCAN-3C E -148.625149357996
  B      -1.674113     -0.843898      0.000028
  B      -0.001843     -0.892923     -0.000054
  B       1.665054     -0.845883      0.000026
  B      -1.558548      0.726986     -0.000007
  B      -0.005352      1.118791      0.000015
  B       1.574803      0.736927     -0.000009
6
Coordinates from ORCA-job B6_rectangular_planar_d3.50_q0_m5_R2SCAN-3C E -148.632105726620
  B      -1.691852     -0.862123      0.000028
  B       0.004019     -0.831659     -0.000053
  B       1.666969     -0.879661      0.000027
  B      -1.516692      0.688435     -0.000008
  B      -0.013666      1.162141      0.000017
  B       1.551221      0.722867     -0.000011
6
Coordinates from ORCA-job B6_rectangular_planar_d3.50_q0_m5_R2SCAN-3C E -148.652797351393
  B      -1.706163     -0.890884      0.000027
  B       0.015873     -0.732227     -0.000044
  B       1.646774     -0.933508      0.000025
  B      -1.451108      0.626672     -0.000012
  B      -0.017941      1.219780      0.000019
  B       1.512565      0.710167     -0.000015
6
Coordinates from ORCA-job B6_rectangular_planar_d3.50_q0_m5_R2SCAN-3C E -148.674783974508
  B      -1.683198     -0.940137      0.000024
  B       0.019457     -0.620819     -0.000035
  B       1.598265     -0.990925      0.000023
  B      -1.374141      0.578565     -0.000014
  B      -0.020983      1.283052      0.000020
  B       1.460601      0.690264     -0.000018
6
Coordinates from ORCA-job B6_rectangular_planar_d3.50_q0_m5_R2SCAN-3C E -148.688910499555
  B      -1.620200     -1.006933      0.000023
  B       0.015247     -0.494028     -0.000029
  B       1.524311     -1.032983      0.000022
  B      -1.322085      0.545221     -0.000015
  B       0.000408      1.338396      0.000019
  B       1.402319      0.650327     -0.000020
6
Coordinates from ORCA-job B6_rectangular_planar_d3.50_q0_m5_R2SCAN-3C E -148.686707327015
  B      -1.596966     -1.007087      0.000029
  B       0.060825     -0.360502     -0.000033
  B       1.531514     -1.077321      0.000032
  B      -1.327059      0.545124     -0.000031
  B      -0.060051      1.305564      0.000043
  B       1.391737      0.594221     -0.000040
6
Coordinates from ORCA-job B6_rectangular_planar_d3.50_q0_m5_R2SCAN-3C E -148.689095077915
  B      -1.529365     -1.040274      0.000025
  B       0.033269     -0.346841     -0.000026
  B       1.492420     -1.058480      0.000016
  B      -1.427246      0.583542     -0.000012
  B       0.022140      1.259002      0.000002
  B       1.408781      0.603051     -0.000006
6
Coordinates from ORCA-job B6_rectangular_planar_d3.50_q0_m5_R2SCAN-3C E -148.693668349507
  B      -1.579020     -1.021649      0.000023
  B       0.014684     -0.424646     -0.000030
  B       1.537863     -1.041625      0.000015
  B      -1.385189      0.570935     -0.000001
  B       0.017602      1.309129     -0.000010
  B       1.394061      0.607855      0.000004
6
Coordinates from ORCA-job B6_rectangular_planar_d3.50_q0_m5_R2SCAN-3C E -148.694259601140
  B      -1.587577     -1.005232      0.000011
  B       0.010952     -0.413165      0.000014
  B       1.553197     -1.033492      0.000001
  B      -1.354127      0.564710     -0.000015
  B      -0.017746      1.299873     -0.000004
  B       1.395300      0.587306     -0.000008
6
Coordinates from ORCA-job B6_rectangular_planar_d3.50_q0_m5_R2SCAN-3C E -148.694657998801
  B      -1.564231     -1.016138     -0.000008
  B       0.018731     -0.412733      0.000034
  B       1.559169     -1.039066     -0.000012
  B      -1.369130      0.582206      0.000018
  B      -0.001810      1.318198     -0.000049
  B       1.357271      0.567533      0.000017
6
Coordinates from ORCA-job B6_rectangular_planar_d3.50_q0_m5_R2SCAN-3C E -148.694972022991
  B      -1.587296     -1.014194      0.000002
  B       0.000963     -0.422202      0.000055
  B       1.565177     -1.025885      0.000009
  B      -1.377115      0.575461     -0.000050
  B       0.011909      1.298754      0.000048
  B       1.386361      0.588066     -0.000064
6
Coordinates from ORCA-job B6_rectangular_planar_d3.50_q0_m5_R2SCAN-3C E -148.695200643255
  B      -1.581610     -1.012580      0.000036
  B       0.002660     -0.418390     -0.000196
  B       1.566572     -1.025067      0.000036
  B      -1.372124      0.577650      0.000147
  B       0.002749      1.301419     -0.000164
  B       1.381754      0.576968      0.000141
6
Coordinates from ORCA-job B6_rectangular_planar_d3.50_q0_m5_R2SCAN-3C E -148.695221614623
  B      -1.579936     -1.012955     -0.000135
  B       0.000684     -0.416987      0.001040
  B       1.570675     -1.025394     -0.000129
  B      -1.372579      0.579430     -0.000777
  B       0.003390      1.302156      0.000791
  B       1.377767      0.573749     -0.000789
6
Coordinates from ORCA-job B6_rectangular_planar_d3.50_q0_m5_R2SCAN-3C E -148.695218966874
  B      -1.579314     -1.013157      0.000762
  B      -0.000936     -0.417183     -0.005540
  B       1.573195     -1.023732      0.000753
  B      -1.374409      0.581163      0.004162
  B       0.004257      1.301584     -0.004307
  B       1.377207      0.571325      0.004170
6
Coordinates from ORCA-job B6_rectangular_planar_d3.50_q0_m5_R2SCAN-3C E -148.695222582507
  B      -1.579423     -1.013223     -0.000308
  B      -0.002058     -0.417708      0.002440
  B       1.574450     -1.022082     -0.000336
  B      -1.375981      0.582139     -0.001852
  B       0.004844      1.300757      0.001884
  B       1.378168      0.570118     -0.001827
6
Coordinates from ORCA-job B6_rectangular_planar_d3.50_q0_m5_R2SCAN-3C E -148.695227568209
  B      -1.580202     -1.013039     -0.000068
  B      -0.001122     -0.417047      0.000545
  B       1.572749     -1.024001     -0.000064
  B      -1.373997      0.580272     -0.000408
  B       0.004083      1.301356      0.000416
  B       1.378489      0.572459     -0.000421
6
Coordinates from ORCA-job B6_rectangular_planar_d3.50_q0_m5_R2SCAN-3C E -148.695228110314
  B      -1.579852     -1.013114      0.000041
  B      -0.001344     -0.417338     -0.000246
  B       1.573151     -1.023481      0.000039
  B      -1.374386      0.580896      0.000186
  B       0.004286      1.301240     -0.000201
  B       1.378145      0.571798      0.000180
6
Coordinates from ORCA-job B6_rectangular_planar_d3.50_q0_m5_R2SCAN-3C E -148.695228132250
  B      -1.579886     -1.013137      0.000015
  B      -0.001389     -0.417280     -0.000017
  B       1.573204     -1.023499      0.000011
  B      -1.374433      0.580876      0.000001
  B       0.004289      1.301258     -0.000007
  B       1.378215      0.571783     -0.000002
