6
Coordinates from ORCA-job B6_rhombic_planar_d2.00_q0_m1_R2SCAN-3C E -148.479341547739
  B      -2.500000     -0.866025      0.000000
  B      -0.500000     -0.866025      0.000000
  B       1.500000     -0.866025      0.000000
  B      -1.500000      0.866025      0.000000
  B       0.500000      0.866025      0.000000
  B       2.500000      0.866025      0.000000
6
Coordinates from ORCA-job B6_rhombic_planar_d2.00_q0_m1_R2SCAN-3C E -148.523654231548
  B      -2.422568     -0.836230      0.000000
  B      -0.472793     -0.863419      0.000000
  B       1.455848     -0.850419     -0.000000
  B      -1.455848      0.850419      0.000000
  B       0.472793      0.863420     -0.000000
  B       2.422570      0.836230      0.000000
6
Coordinates from ORCA-job B6_rhombic_planar_d2.00_q0_m1_R2SCAN-3C E -148.567161207621
  B      -2.344407     -0.806690     -0.000000
  B      -0.445577     -0.861078      0.000000
  B       1.411347     -0.835544     -0.000000
  B      -1.411348      0.835544      0.000000
  B       0.445577      0.861079     -0.000000
  B       2.344408      0.806689      0.000000
6
Coordinates from ORCA-job B6_rhombic_planar_d2.00_q0_m1_R2SCAN-3C E -148.627187669167
  B      -2.225669     -0.761235     -0.000000
  B      -0.404790     -0.861952      0.000000
  B       1.345224     -0.813922      0.000000
  B      -1.345224      0.813921      0.000000
  B       0.404789      0.861952     -0.000000
  B       2.225669      0.761235     -0.000000
6
Coordinates from ORCA-job B6_rhombic_planar_d2.00_q0_m1_R2SCAN-3C E -148.690211131201
  B      -2.047856     -0.690523      0.000000
  B      -0.351031     -0.865595     -0.000000
  B       1.249813     -0.775362     -0.000000
  B      -1.249811      0.775366     -0.000000
  B       0.351033      0.865590     -0.000000
  B       2.047852      0.690524      0.000000
6
Coordinates from ORCA-job B6_rhombic_planar_d2.00_q0_m1_R2SCAN-3C E -148.701952895228
  B      -1.920687     -0.631304      0.000000
  B      -0.340892     -0.874289     -0.000000
  B       1.201072     -0.727819     -0.000000
  B      -1.201073      0.727820     -0.000000
  B       0.340892      0.874286     -0.000000
  B       1.920688      0.631305      0.000000
6
Coordinates from ORCA-job B6_rhombic_planar_d2.00_q0_m1_R2SCAN-3C E -148.704364843963
  B      -1.951795     -0.652824      0.000000
  B      -0.358119     -0.883192     -0.000000
  B       1.197268     -0.733563     -0.000000
  B      -1.197269      0.733564      0.000000
  B       0.358118      0.883190     -0.000000
  B       1.951796      0.652824      0.000000
6
Coordinates from ORCA-job B6_rhombic_planar_d2.00_q0_m1_R2SCAN-3C E -148.705500520586
  B      -1.961677     -0.653669      0.000000
  B      -0.370921     -0.898627     -0.000000
  B       1.191066     -0.720924      0.000000
  B      -1.191066      0.720925      0.000000
  B       0.370921      0.898626     -0.000000
  B       1.961677      0.653669      0.000000
6
Coordinates from ORCA-job B6_rhombic_planar_d2.00_q0_m1_R2SCAN-3C E -148.707743163689
  B      -1.968529     -0.654150     -0.000000
  B      -0.398309     -0.951934      0.000000
  B       1.147708     -0.687643      0.000000
  B      -1.147706      0.687649     -0.000000
  B       0.398316      0.951932      0.000000
  B       1.968521      0.654146     -0.000000
6
Coordinates from ORCA-job B6_rhombic_planar_d2.00_q0_m1_R2SCAN-3C E -148.709128920667
  B      -1.965567     -0.649497     -0.000000
  B      -0.418782     -1.005912      0.000000
  B       1.118210     -0.665443     -0.000000
  B      -1.118213      0.665439      0.000000
  B       0.418778      1.005911      0.000000
  B       1.965575      0.649501     -0.000000
6
Coordinates from ORCA-job B6_rhombic_planar_d2.00_q0_m1_R2SCAN-3C E -148.710393856006
  B      -1.953603     -0.645679      0.000000
  B      -0.444630     -1.086880     -0.000000
  B       1.064791     -0.640939     -0.000000
  B      -1.064784      0.640952     -0.000000
  B       0.444645      1.086878      0.000000
  B       1.953581      0.645669      0.000000
6
Coordinates from ORCA-job B6_rhombic_planar_d2.00_q0_m1_R2SCAN-3C E -148.710616446880
  B      -1.954172     -0.645966     -0.000000
  B      -0.458532     -1.129660      0.000000
  B       1.038356     -0.628892     -0.000000
  B      -1.038356      0.628902     -0.000000
  B       0.458540      1.129650      0.000000
  B       1.954164      0.645966     -0.000000
6
Coordinates from ORCA-job B6_rhombic_planar_d2.00_q0_m1_R2SCAN-3C E -148.710630327435
  B      -1.956923     -0.647563      0.000000
  B      -0.457356     -1.124243      0.000000
  B       1.042116     -0.631369     -0.000000
  B      -1.042124      0.631366     -0.000000
  B       0.457344      1.124241      0.000000
  B       1.956944      0.647568      0.000000
6
Coordinates from ORCA-job B6_rhombic_planar_d2.00_q0_m1_R2SCAN-3C E -148.710630761644
  B      -1.956896     -0.647970     -0.000000
  B      -0.458210     -1.124949      0.000000
  B       1.041383     -0.631079     -0.000000
  B      -1.041381      0.631084     -0.000000
  B       0.458218      1.124946      0.000000
  B       1.956886      0.647968     -0.000000
6
Coordinates from ORCA-job B6_rhombic_planar_d2.00_q0_m1_R2SCAN-3C E -148.710630885679
  B      -1.957023     -0.647893      0.000000
  B      -0.458178     -1.125147     -0.000000
  B       1.041231     -0.630910     -0.000000
  B      -1.041239      0.630898     -0.000000
  B       0.458161      1.125152     -0.000000
  B       1.957049      0.647900      0.000000
6
Coordinates from ORCA-job B6_rhombic_planar_d2.00_q0_m1_R2SCAN-3C E -148.710630904461
  B      -1.957096     -0.647884     -0.000000
  B      -0.458153     -1.125127      0.000000
  B       1.041179     -0.630803     -0.000000
  B      -1.041169      0.630810     -0.000000
  B       0.458171      1.125126      0.000000
  B       1.957068      0.647878     -0.000000
