6
Coordinates from ORCA-job B6_rhombic_planar_d2.00_q0_m1_R2SCAN-3C E -148.710630904461
  B          -1.95709637447016     -0.64788393093396     -0.00000003213613
  B          -0.45815253861852     -1.12512739136110      0.00000003659012
  B           1.04117892738885     -0.63080324995382     -0.00000000419393
  B          -1.04116941136489      0.63081004937452     -0.00000000566582
  B           0.45817123064850      1.12512626500509      0.00000003886623
  B           1.95706816641623      0.64787825786927     -0.00000003346048
