6
Coordinates from ORCA-job B6_linear_chain_d1.80_q0_m1_R2SCAN-3C E -148.501913864498
  B          -4.06090686771749      0.00000001252962     -0.00000001933325
  B          -2.30770866183302      0.00000001814412     -0.00000000791017
  B          -0.75715779615158     -0.00000001527184      0.00000001304841
  B           0.75716070214944     -0.00000003309118      0.00000003478377
  B           2.30770470643490     -0.00000002322185      0.00000001960425
  B           4.06090791711776      0.00000004091113     -0.00000004019302
