6
Coordinates from ORCA-job B6_linear_chain_d1.80_q0_m1_R2SCAN-3C E -148.422580903277
  B      -4.500000      0.000000      0.000000
  B      -2.700000      0.000000      0.000000
  B      -0.900000      0.000000      0.000000
  B       0.900000      0.000000      0.000000
  B       2.700000      0.000000      0.000000
  B       4.500000      0.000000      0.000000
6
Coordinates from ORCA-job B6_linear_chain_d1.80_q0_m1_R2SCAN-3C E -148.463222385204
  B      -4.351488      0.000000     -0.000000
  B      -2.563679      0.000000     -0.000000
  B      -0.849950     -0.000000      0.000000
  B       0.849950     -0.000000      0.000000
  B       2.563679     -0.000000      0.000000
  B       4.351488      0.000000     -0.000000
6
Coordinates from ORCA-job B6_linear_chain_d1.80_q0_m1_R2SCAN-3C E -148.492134971015
  B      -4.204161      0.000000     -0.000000
  B      -2.427432      0.000000     -0.000000
  B      -0.798676     -0.000000      0.000000
  B       0.798676     -0.000000      0.000000
  B       2.427432     -0.000000      0.000000
  B       4.204161      0.000000     -0.000000
6
Coordinates from ORCA-job B6_linear_chain_d1.80_q0_m1_R2SCAN-3C E -148.500509116019
  B      -4.024722      0.000000     -0.000000
  B      -2.266465      0.000000     -0.000000
  B      -0.740041     -0.000000      0.000000
  B       0.740041     -0.000000      0.000000
  B       2.266465     -0.000000      0.000000
  B       4.024723      0.000000     -0.000000
6
Coordinates from ORCA-job B6_linear_chain_d1.80_q0_m1_R2SCAN-3C E -148.501854445710
  B      -4.071348      0.000000     -0.000000
  B      -2.314802      0.000000     -0.000000
  B      -0.761505     -0.000000      0.000000
  B       0.761505     -0.000000      0.000000
  B       2.314802     -0.000000      0.000000
  B       4.071348      0.000000     -0.000000
6
Coordinates from ORCA-job B6_linear_chain_d1.80_q0_m1_R2SCAN-3C E -148.501910320638
  B      -4.062923      0.000000     -0.000000
  B      -2.308807      0.000000     -0.000000
  B      -0.756716     -0.000000      0.000000
  B       0.756709     -0.000000      0.000000
  B       2.308807     -0.000000      0.000000
  B       4.062929      0.000000     -0.000000
6
Coordinates from ORCA-job B6_linear_chain_d1.80_q0_m1_R2SCAN-3C E -148.501912848331
  B      -4.060140      0.000000     -0.000000
  B      -2.306853      0.000000     -0.000000
  B      -0.757246     -0.000000      0.000000
  B       0.757246     -0.000000      0.000000
  B       2.306852     -0.000000      0.000000
  B       4.060141      0.000000     -0.000000
6
Coordinates from ORCA-job B6_linear_chain_d1.80_q0_m1_R2SCAN-3C E -148.501913859164
  B      -4.060968      0.000000     -0.000000
  B      -2.307693      0.000000     -0.000000
  B      -0.757162     -0.000000      0.000000
  B       0.757149     -0.000000      0.000000
  B       2.307693     -0.000000      0.000000
  B       4.060981      0.000000     -0.000000
6
Coordinates from ORCA-job B6_linear_chain_d1.80_q0_m1_R2SCAN-3C E -148.501913864498
  B      -4.060907      0.000000     -0.000000
  B      -2.307709      0.000000     -0.000000
  B      -0.757158     -0.000000      0.000000
  B       0.757161     -0.000000      0.000000
  B       2.307705     -0.000000      0.000000
  B       4.060908      0.000000     -0.000000
