6
Coordinates from ORCA-job B6_trigonal_prism_d3.00_q0_m5_R2SCAN-3C E -148.002875459986
  B       1.500000      0.866025     -1.500000
  B      -1.500000      0.866025     -1.500000
  B      -0.000000     -1.732051     -1.500000
  B       1.500000      0.866025      1.500000
  B      -1.500000      0.866025      1.500000
  B      -0.000000     -1.732051      1.500000
6
Coordinates from ORCA-job B6_trigonal_prism_d3.00_q0_m5_R2SCAN-3C E -148.019037507872
  B       1.472597      0.850196     -1.475557
  B      -1.472597      0.850196     -1.475557
  B       0.000000     -1.700393     -1.475548
  B       1.472597      0.850196      1.475557
  B      -1.472597      0.850196      1.475557
  B      -0.000000     -1.700393      1.475548
6
Coordinates from ORCA-job B6_trigonal_prism_d3.00_q0_m5_R2SCAN-3C E -148.036150686286
  B       1.445165      0.834354     -1.451171
  B      -1.445165      0.834354     -1.451169
  B       0.000000     -1.668707     -1.451161
  B       1.445165      0.834354      1.451171
  B      -1.445165      0.834354      1.451169
  B       0.000000     -1.668707      1.451161
6
Coordinates from ORCA-job B6_trigonal_prism_d3.00_q0_m5_R2SCAN-3C E -148.063071422068
  B       1.404328      0.810249     -1.414688
  B      -1.404755      0.810988     -1.412516
  B       0.000427     -1.621236     -1.414700
  B       1.404328      0.810249      1.414688
  B      -1.404755      0.810988      1.412516
  B       0.000427     -1.621236      1.414700
6
Coordinates from ORCA-job B6_trigonal_prism_d3.00_q0_m5_R2SCAN-3C E -148.107609235700
  B       1.342448      0.774433     -1.360343
  B      -1.342917      0.775244     -1.357870
  B       0.000468     -1.549677     -1.360329
  B       1.342448      0.774433      1.360343
  B      -1.342917      0.775244      1.357870
  B       0.000468     -1.549677      1.360329
6
Coordinates from ORCA-job B6_trigonal_prism_d3.00_q0_m5_R2SCAN-3C E -148.159252000433
  B       1.277877      0.737089     -1.304858
  B      -1.278387      0.737974     -1.302054
  B       0.000511     -1.475061     -1.304809
  B       1.277878      0.737088      1.304856
  B      -1.278389      0.737972      1.302053
  B       0.000510     -1.475061      1.304811
6
Coordinates from ORCA-job B6_trigonal_prism_d3.00_q0_m5_R2SCAN-3C E -148.217008263549
  B       1.212663      0.699340     -1.250983
  B      -1.213214      0.700293     -1.247819
  B       0.000551     -1.399631     -1.250887
  B       1.212665      0.699339      1.250981
  B      -1.213215      0.700292      1.247819
  B       0.000550     -1.399632      1.250889
6
Coordinates from ORCA-job B6_trigonal_prism_d3.00_q0_m5_R2SCAN-3C E -148.281071732099
  B       1.146424      0.661055     -1.199551
  B      -1.147009      0.662069     -1.196010
  B       0.000586     -1.323122     -1.199437
  B       1.146425      0.661053      1.199549
  B      -1.147010      0.662067      1.196009
  B       0.000585     -1.323122      1.199440
6
Coordinates from ORCA-job B6_trigonal_prism_d3.00_q0_m5_R2SCAN-3C E -148.349772540996
  B       1.078845      0.622009     -1.151703
  B      -1.079455      0.623067     -1.147784
  B       0.000611     -1.245075     -1.151610
  B       1.078846      0.622008      1.151702
  B      -1.079457      0.623066      1.147784
  B       0.000611     -1.245075      1.151612
6
Coordinates from ORCA-job B6_trigonal_prism_d3.00_q0_m5_R2SCAN-3C E -148.422580765651
  B       1.009801      0.582148     -1.108247
  B      -1.010407      0.583198     -1.103964
  B       0.000606     -1.165344     -1.108177
  B       1.009795      0.582142      1.108246
  B      -1.010401      0.583192      1.103964
  B       0.000606     -1.165335      1.108179
6
Coordinates from ORCA-job B6_trigonal_prism_d3.00_q0_m5_R2SCAN-3C E -148.492072365451
  B       0.939283      0.541495     -1.069696
  B      -0.939851      0.542479     -1.065141
  B       0.000569     -1.083973     -1.069632
  B       0.939276      0.541489      1.069695
  B      -0.939845      0.542473      1.065141
  B       0.000568     -1.083964      1.069634
6
Coordinates from ORCA-job B6_trigonal_prism_d3.00_q0_m5_R2SCAN-3C E -148.544896791848
  B       0.867403      0.500387     -1.036352
  B      -0.867702      0.500904     -1.031477
  B       0.000299     -1.001289     -1.036233
  B       0.867392      0.500377      1.036350
  B      -0.867691      0.500894      1.031476
  B       0.000298     -1.001273      1.036235
6
Coordinates from ORCA-job B6_trigonal_prism_d3.00_q0_m5_R2SCAN-3C E -148.559867819121
  B       0.812355      0.469501     -0.982113
  B      -0.811979      0.468851     -0.976827
  B      -0.000374     -0.938347     -0.981955
  B       0.812369      0.469504      0.982108
  B      -0.811994      0.468853      0.976825
  B      -0.000376     -0.938361      0.981961
6
Coordinates from ORCA-job B6_trigonal_prism_d3.00_q0_m5_R2SCAN-3C E -148.552912998846
  B       0.836603      0.481899     -0.910653
  B      -0.837482      0.483426     -0.905226
  B       0.000883     -0.965313     -0.910425
  B       0.836567      0.481865      0.910641
  B      -0.837448      0.483387      0.905222
  B       0.000878     -0.965263      0.910440
6
Coordinates from ORCA-job B6_trigonal_prism_d3.00_q0_m5_R2SCAN-3C E -148.560561336467
  B       0.827862      0.477577     -0.967355
  B      -0.828186      0.478154     -0.963405
  B       0.000338     -0.955674     -0.967101
  B       0.827872      0.477508      0.967303
  B      -0.828203      0.478064      0.963385
  B       0.000316     -0.955629      0.967173
6
Coordinates from ORCA-job B6_trigonal_prism_d3.00_q0_m5_R2SCAN-3C E -148.562208527393
  B       0.819306      0.475269     -0.969045
  B      -0.817908      0.472960     -0.965759
  B      -0.001290     -0.947807     -0.968325
  B       0.819966      0.474962      0.968640
  B      -0.818575      0.472440      0.965601
  B      -0.001499     -0.947824      0.968887
6
Coordinates from ORCA-job B6_trigonal_prism_d3.00_q0_m5_R2SCAN-3C E -148.547978454662
  B       0.764458      0.506881     -0.957900
  B      -0.728456      0.424648     -0.985439
  B      -0.053213     -0.918723     -0.954243
  B       0.787370      0.461573      0.969595
  B      -0.763239      0.439573      0.956247
  B      -0.006921     -0.913953      0.971740
6
Coordinates from ORCA-job B6_trigonal_prism_d3.00_q0_m5_R2SCAN-3C E -148.563738222606
  B       0.807495      0.494286     -0.958168
  B      -0.795340      0.460463     -0.980835
  B      -0.023095     -0.946412     -0.955101
  B       0.813889      0.465110      0.966211
  B      -0.806206      0.464352      0.960692
  B       0.003258     -0.937798      0.967202
6
Coordinates from ORCA-job B6_trigonal_prism_d3.00_q0_m5_R2SCAN-3C E -148.564411248139
  B       0.790455      0.476649     -0.945245
  B      -0.796658      0.463898     -0.982562
  B      -0.015986     -0.923674     -0.939650
  B       0.843851      0.470073      0.961113
  B      -0.835196      0.478458      0.942613
  B       0.013534     -0.965405      0.963731
6
Coordinates from ORCA-job B6_trigonal_prism_d3.00_q0_m5_R2SCAN-3C E -148.572279932938
  B       0.802838      0.491872     -0.904656
  B      -0.838484      0.493579     -0.997227
  B      -0.026285     -0.938017     -0.888904
  B       0.861726      0.461995      0.947448
  B      -0.826364      0.461299      0.887749
  B       0.026568     -0.970728      0.955590
6
Coordinates from ORCA-job B6_trigonal_prism_d3.00_q0_m5_R2SCAN-3C E -148.584870960992
  B       0.812546      0.516974     -0.868863
  B      -0.856320      0.511177     -1.009683
  B      -0.057384     -0.943023     -0.837327
  B       0.885771      0.450915      0.932817
  B      -0.824777      0.427869      0.828876
  B       0.040163     -0.963912      0.954181
6
Coordinates from ORCA-job B6_trigonal_prism_d3.00_q0_m5_R2SCAN-3C E -148.600373433090
  B       0.830980      0.530536     -0.821975
  B      -0.876740      0.516197     -1.023243
  B      -0.085423     -0.923348     -0.792574
  B       0.909260      0.452881      0.897840
  B      -0.818220      0.389451      0.781499
  B       0.040144     -0.965717      0.958453
6
Coordinates from ORCA-job B6_trigonal_prism_d3.00_q0_m5_R2SCAN-3C E -148.615339550043
  B       0.834757      0.546707     -0.780681
  B      -0.882896      0.522851     -1.039822
  B      -0.115648     -0.895624     -0.746276
  B       0.923259      0.447058      0.861515
  B      -0.808728      0.354702      0.728612
  B       0.049255     -0.975693      0.976652
6
Coordinates from ORCA-job B6_trigonal_prism_d3.00_q0_m5_R2SCAN-3C E -148.633310750577
  B       0.830440      0.572708     -0.745298
  B      -0.884920      0.543583     -1.063671
  B      -0.161669     -0.856893     -0.663135
  B       0.941297      0.431335      0.830337
  B      -0.796956      0.299847      0.638986
  B       0.071808     -0.990579      1.002781
6
Coordinates from ORCA-job B6_trigonal_prism_d3.00_q0_m5_R2SCAN-3C E -148.642348502340
  B       0.814666      0.617285     -0.734676
  B      -0.864624      0.574468     -1.096360
  B      -0.228821     -0.814046     -0.559938
  B       0.958755      0.401737      0.812637
  B      -0.788341      0.225131      0.533653
  B       0.108365     -1.004576      1.044685
6
Coordinates from ORCA-job B6_trigonal_prism_d3.00_q0_m5_R2SCAN-3C E -148.646902539190
  B       0.785596      0.634272     -0.720924
  B      -0.819006      0.595084     -1.132634
  B      -0.237507     -0.836233     -0.592109
  B       0.952268      0.384536      0.775558
  B      -0.812374      0.225398      0.581095
  B       0.131024     -1.003057      1.089014
6
Coordinates from ORCA-job B6_trigonal_prism_d3.00_q0_m5_R2SCAN-3C E -148.648981799415
  B       0.774970      0.669813     -0.760912
  B      -0.806651      0.605297     -1.141393
  B      -0.238346     -0.871963     -0.572409
  B       0.985835      0.350405      0.815052
  B      -0.853557      0.225932      0.585051
  B       0.137748     -0.979484      1.074611
6
Coordinates from ORCA-job B6_trigonal_prism_d3.00_q0_m5_R2SCAN-3C E -148.651006415862
  B       0.765928      0.681160     -0.747247
  B      -0.791905      0.608261     -1.129525
  B      -0.256471     -0.866158     -0.559170
  B       0.982966      0.345109      0.794229
  B      -0.856681      0.224753      0.543504
  B       0.156162     -0.993125      1.098209
6
Coordinates from ORCA-job B6_trigonal_prism_d3.00_q0_m5_R2SCAN-3C E -148.648816284232
  B       0.767613      0.676411     -0.709836
  B      -0.810736      0.646070     -1.153491
  B      -0.247629     -0.893369     -0.508503
  B       0.994241      0.335602      0.772991
  B      -0.874977      0.222809      0.519966
  B       0.171487     -0.987524      1.078873
6
Coordinates from ORCA-job B6_trigonal_prism_d3.00_q0_m5_R2SCAN-3C E -148.651403762091
  B       0.763292      0.694942     -0.738371
  B      -0.790586      0.615599     -1.144136
  B      -0.255808     -0.870186     -0.539299
  B       0.996187      0.339401      0.779570
  B      -0.867840      0.221105      0.540009
  B       0.154755     -1.000862      1.102227
6
Coordinates from ORCA-job B6_trigonal_prism_d3.00_q0_m5_R2SCAN-3C E -148.650917254574
  B       0.772111      0.703862     -0.729968
  B      -0.803359      0.590673     -1.142578
  B      -0.252087     -0.858924     -0.550432
  B       0.995118      0.310638      0.783622
  B      -0.877112      0.238839      0.539726
  B       0.165329     -0.985088      1.099630
6
Coordinates from ORCA-job B6_trigonal_prism_d3.00_q0_m5_R2SCAN-3C E -148.651791582574
  B       0.758087      0.715613     -0.736248
  B      -0.785047      0.594119     -1.148760
  B      -0.248216     -0.857225     -0.534875
  B       0.998570      0.316556      0.767692
  B      -0.874026      0.233164      0.546511
  B       0.150631     -1.002227      1.105681
6
Coordinates from ORCA-job B6_trigonal_prism_d3.00_q0_m5_R2SCAN-3C E -148.652058303094
  B       0.756783      0.731390     -0.731438
  B      -0.786820      0.590404     -1.157911
  B      -0.249856     -0.860622     -0.527123
  B       1.008231      0.310860      0.762465
  B      -0.875859      0.237476      0.543691
  B       0.147521     -1.009508      1.110317
6
Coordinates from ORCA-job B6_trigonal_prism_d3.00_q0_m5_R2SCAN-3C E -148.653280170452
  B       0.733597      0.802146     -0.711665
  B      -0.771082      0.559484     -1.195952
  B      -0.248523     -0.860569     -0.488118
  B       1.029636      0.268267      0.728983
  B      -0.881445      0.265820      0.546359
  B       0.137817     -1.035150      1.120394
6
Coordinates from ORCA-job B6_trigonal_prism_d3.00_q0_m5_R2SCAN-3C E -148.655380636882
  B       0.713625      0.856703     -0.689078
  B      -0.757570      0.518092     -1.231288
  B      -0.252916     -0.852406     -0.463155
  B       1.038275      0.237043      0.707052
  B      -0.876309      0.302215      0.556508
  B       0.134894     -1.061647      1.119962
6
Coordinates from ORCA-job B6_trigonal_prism_d3.00_q0_m5_R2SCAN-3C E -148.658029861543
  B       0.691330      0.885669     -0.668064
  B      -0.747969      0.487605     -1.258652
  B      -0.259959     -0.851704     -0.449128
  B       1.037582      0.221098      0.702713
  B      -0.859579      0.338268      0.563878
  B       0.138596     -1.080937      1.109252
6
Coordinates from ORCA-job B6_trigonal_prism_d3.00_q0_m5_R2SCAN-3C E -148.660419118824
  B       0.671425      0.897366     -0.651069
  B      -0.743548      0.467626     -1.275883
  B      -0.266594     -0.853698     -0.447049
  B       1.032733      0.215022      0.707250
  B      -0.837514      0.366560      0.566619
  B       0.143498     -1.092876      1.100132
6
Coordinates from ORCA-job B6_trigonal_prism_d3.00_q0_m5_R2SCAN-3C E -148.662139685288
  B       0.655334      0.902163     -0.639243
  B      -0.740841      0.456399     -1.285932
  B      -0.270764     -0.857403     -0.447783
  B       1.027441      0.212035      0.712553
  B      -0.818605      0.386415      0.566602
  B       0.147434     -1.099610      1.093804
6
Coordinates from ORCA-job B6_trigonal_prism_d3.00_q0_m5_R2SCAN-3C E -148.663475246919
  B       0.642216      0.902893     -0.631083
  B      -0.738256      0.448881     -1.291832
  B      -0.275189     -0.860882     -0.451610
  B       1.020626      0.210232      0.719370
  B      -0.801961      0.401353      0.566352
  B       0.152563     -1.102478      1.088802
6
Coordinates from ORCA-job B6_trigonal_prism_d3.00_q0_m5_R2SCAN-3C E -148.664658221289
  B       0.629851      0.905103     -0.622513
  B      -0.736080      0.440852     -1.298229
  B      -0.279086     -0.864944     -0.453451
  B       1.014636      0.209283      0.724971
  B      -0.785539      0.416729      0.566167
  B       0.156217     -1.107022      1.083056
6
Coordinates from ORCA-job B6_trigonal_prism_d3.00_q0_m5_R2SCAN-3C E -148.666205834942
  B       0.612655      0.910733     -0.609593
  B      -0.733930      0.427386     -1.308736
  B      -0.283862     -0.870140     -0.454392
  B       1.007394      0.208271      0.731979
  B      -0.761898      0.440106      0.566164
  B       0.159641     -1.116356      1.074578
6
Coordinates from ORCA-job B6_trigonal_prism_d3.00_q0_m5_R2SCAN-3C E -148.667994897948
  B       0.586809      0.922949     -0.591139
  B      -0.730317      0.406383     -1.324886
  B      -0.287980     -0.876675     -0.453111
  B       0.998713      0.203894      0.739086
  B      -0.729742      0.475662      0.566607
  B       0.162517     -1.132214      1.063442
6
Coordinates from ORCA-job B6_trigonal_prism_d3.00_q0_m5_R2SCAN-3C E -148.669366414185
  B       0.550874      0.952003     -0.566048
  B      -0.720050      0.373055     -1.348151
  B      -0.288633     -0.879800     -0.446683
  B       0.993038      0.186932      0.734885
  B      -0.697390      0.523963      0.570321
  B       0.162161     -1.156153      1.055676
6
Coordinates from ORCA-job B6_trigonal_prism_d3.00_q0_m5_R2SCAN-3C E -148.669633161030
  B       0.532294      0.977678     -0.553635
  B      -0.706646      0.359191     -1.363889
  B      -0.286836     -0.880730     -0.438677
  B       0.996722      0.163111      0.716738
  B      -0.698702      0.545216      0.576553
  B       0.163168     -1.164466      1.062910
6
Coordinates from ORCA-job B6_trigonal_prism_d3.00_q0_m5_R2SCAN-3C E -148.669544023133
  B       0.532151      0.971690     -0.553534
  B      -0.709150      0.350396     -1.370738
  B      -0.292625     -0.878165     -0.452902
  B       0.985373      0.165553      0.729558
  B      -0.687964      0.555419      0.587431
  B       0.172215     -1.164893      1.060184
6
Coordinates from ORCA-job B6_trigonal_prism_d3.00_q0_m5_R2SCAN-3C E -148.669705765483
  B       0.535097      0.972666     -0.557264
  B      -0.707633      0.356705     -1.367153
  B      -0.286756     -0.877091     -0.444216
  B       0.991402      0.164651      0.720715
  B      -0.698292      0.547315      0.585922
  B       0.166182     -1.164246      1.061995
6
Coordinates from ORCA-job B6_trigonal_prism_d3.00_q0_m5_R2SCAN-3C E -148.669714486045
  B       0.531024      0.969448     -0.556203
  B      -0.709015      0.360127     -1.368465
  B      -0.283989     -0.879786     -0.444592
  B       0.990814      0.164644      0.722387
  B      -0.694772      0.549402      0.584509
  B       0.165937     -1.163835      1.062363
6
Coordinates from ORCA-job B6_trigonal_prism_d3.00_q0_m5_R2SCAN-3C E -148.669743572676
  B       0.529871      0.968755     -0.557552
  B      -0.708987      0.357166     -1.369888
  B      -0.279910     -0.875603     -0.445083
  B       0.989827      0.164586      0.720919
  B      -0.694076      0.551477      0.589283
  B       0.163275     -1.166382      1.062321
6
Coordinates from ORCA-job B6_trigonal_prism_d3.00_q0_m5_R2SCAN-3C E -148.669759222247
  B       0.529456      0.965556     -0.559935
  B      -0.710832      0.355980     -1.373026
  B      -0.275468     -0.872448     -0.447252
  B       0.988748      0.164435      0.722479
  B      -0.693731      0.553328      0.595634
  B       0.161827     -1.166852      1.062099
6
Coordinates from ORCA-job B6_trigonal_prism_d3.00_q0_m5_R2SCAN-3C E -148.669761661300
  B       0.527750      0.964890     -0.560012
  B      -0.711340      0.355841     -1.373576
  B      -0.273233     -0.872137     -0.448259
  B       0.988228      0.164053      0.722513
  B      -0.692158      0.554691      0.596621
  B       0.160754     -1.167338      1.062713
6
Coordinates from ORCA-job B6_trigonal_prism_d3.00_q0_m5_R2SCAN-3C E -148.669762456727
  B       0.527460      0.964821     -0.559970
  B      -0.711855      0.355859     -1.373543
  B      -0.272419     -0.872470     -0.448650
  B       0.988138      0.163822      0.722750
  B      -0.691617      0.554996      0.596718
  B       0.160292     -1.167029      1.062695
6
Coordinates from ORCA-job B6_trigonal_prism_d3.00_q0_m5_R2SCAN-3C E -148.669763307201
  B       0.527256      0.965141     -0.559962
  B      -0.712621      0.355871     -1.372825
  B      -0.270974     -0.873199     -0.449478
  B       0.988033      0.163421      0.722648
  B      -0.690884      0.555168      0.596647
  B       0.159191     -1.166402      1.062969
6
Coordinates from ORCA-job B6_trigonal_prism_d3.00_q0_m5_R2SCAN-3C E -148.669763563824
  B       0.527539      0.965470     -0.559977
  B      -0.712731      0.355819     -1.372286
  B      -0.270762     -0.873446     -0.449588
  B       0.988034      0.163387      0.722380
  B      -0.690919      0.554936      0.596466
  B       0.158839     -1.166166      1.063005
6
Coordinates from ORCA-job B6_trigonal_prism_d3.00_q0_m5_R2SCAN-3C E -148.669763609922
  B       0.527625      0.965596     -0.559976
  B      -0.712685      0.355684     -1.372185
  B      -0.270743     -0.873428     -0.449586
  B       0.987987      0.163413      0.722241
  B      -0.690930      0.554937      0.596533
  B       0.158746     -1.166202      1.062973
