6
Coordinates from ORCA-job B6_trigonal_prism_d3.00_q0_m5_R2SCAN-3C E -148.669763609922
  B           0.52762481703015      0.96559618547531     -0.55997637049027
  B          -0.71268470469595      0.35568443732236     -1.37218547685319
  B          -0.27074309959008     -0.87342839283476     -0.44958568160230
  B           0.98798667128972      0.16341271705755      0.72224122568524
  B          -0.69092951524233      0.55493704913923      0.59653349209041
  B           0.15874583120849     -1.16620201615969      1.06297281117011
