6
Coordinates from ORCA-job B6_random_3d_seed1004_d2.50_q0_m1_R2SCAN-3C E -148.196929847683
  B      -0.760292     -0.678931      1.533447
  B       1.160800      1.056603      1.167404
  B       1.287683     -1.345482      0.518287
  B      -1.744097      0.127543     -0.575604
  B       0.018389      1.697245     -1.031003
  B       0.037519     -0.856978     -1.612531
6
Coordinates from ORCA-job B6_random_3d_seed1004_d2.50_q0_m1_R2SCAN-3C E -148.227121575854
  B      -0.742165     -0.666440      1.497061
  B       1.139477      1.050138      1.144864
  B       1.247626     -1.324501      0.503187
  B      -1.693458      0.114731     -0.564773
  B       0.018545      1.675319     -1.002984
  B       0.029975     -0.849248     -1.577354
6
Coordinates from ORCA-job B6_random_3d_seed1004_d2.50_q0_m1_R2SCAN-3C E -148.258504427477
  B      -0.723559     -0.653399      1.460394
  B       1.117506      1.043588      1.122588
  B       1.208001     -1.304129      0.487696
  B      -1.642961      0.102826     -0.554013
  B       0.018172      1.653204     -0.974794
  B       0.022842     -0.842089     -1.541871
6
Coordinates from ORCA-job B6_random_3d_seed1004_d2.50_q0_m1_R2SCAN-3C E -148.307326621086
  B      -0.695082     -0.632455      1.404782
  B       1.083049      1.032642      1.088695
  B       1.149782     -1.274157      0.463587
  B      -1.569114      0.087089     -0.537329
  B       0.017052      1.618836     -0.931909
  B       0.014313     -0.831955     -1.487825
6
Coordinates from ORCA-job B6_random_3d_seed1004_d2.50_q0_m1_R2SCAN-3C E -148.383339240665
  B      -0.651960     -0.597608      1.321205
  B       1.028159      1.013311      1.036969
  B       1.066294     -1.230470      0.425380
  B      -1.461606      0.068373     -0.512004
  B       0.013679      1.564117     -0.866221
  B       0.005433     -0.817723     -1.405328
6
Coordinates from ORCA-job B6_random_3d_seed1004_d2.50_q0_m1_R2SCAN-3C E -148.460920009812
  B      -0.603341     -0.557368      1.235648
  B       0.967432      0.988298      0.984222
  B       0.982540     -1.185631      0.383747
  B      -1.355224      0.056605     -0.487206
  B       0.006946      1.504525     -0.797228
  B       0.001647     -0.806429     -1.319183
6
Coordinates from ORCA-job B6_random_3d_seed1004_d2.50_q0_m1_R2SCAN-3C E -148.530983893970
  B      -0.545667     -0.504885      1.158543
  B       0.899918      0.951089      0.935964
  B       0.909343     -1.143248      0.341979
  B      -1.255062      0.065422     -0.472986
  B      -0.012884      1.437938     -0.723304
  B       0.004352     -0.806315     -1.240196
6
Coordinates from ORCA-job B6_random_3d_seed1004_d2.50_q0_m1_R2SCAN-3C E -148.584574977293
  B      -0.488061     -0.444369      1.094595
  B       0.837926      0.897305      0.890287
  B       0.857610     -1.097287      0.308719
  B      -1.176730      0.092230     -0.475672
  B      -0.042545      1.368950     -0.644689
  B       0.011799     -0.816830     -1.173238
6
Coordinates from ORCA-job B6_random_3d_seed1004_d2.50_q0_m1_R2SCAN-3C E -148.625700438730
  B      -0.444507     -0.372529      1.024556
  B       0.791474      0.818843      0.838398
  B       0.844835     -1.037473      0.301101
  B      -1.135265      0.115551     -0.492118
  B      -0.066682      1.314296     -0.550956
  B       0.010145     -0.838688     -1.120981
6
Coordinates from ORCA-job B6_random_3d_seed1004_d2.50_q0_m1_R2SCAN-3C E -148.651379650221
  B      -0.446656     -0.322130      0.953978
  B       0.775737      0.765409      0.795808
  B       0.853919     -0.990195      0.289370
  B      -1.135877      0.118460     -0.487183
  B      -0.065530      1.294268     -0.477785
  B       0.018406     -0.865812     -1.074187
6
Coordinates from ORCA-job B6_random_3d_seed1004_d2.50_q0_m1_R2SCAN-3C E -148.667680753027
  B      -0.464120     -0.299120      0.905996
  B       0.794809      0.729069      0.781101
  B       0.879441     -0.956633      0.294483
  B      -1.157944      0.115920     -0.494718
  B      -0.067308      1.292724     -0.440661
  B       0.015121     -0.881959     -1.046201
6
Coordinates from ORCA-job B6_random_3d_seed1004_d2.50_q0_m1_R2SCAN-3C E -148.687868275202
  B      -0.484059     -0.276671      0.842516
  B       0.841451      0.681798      0.774466
  B       0.921364     -0.911817      0.310930
  B      -1.188690      0.115749     -0.528117
  B      -0.085196      1.298967     -0.393085
  B      -0.004870     -0.908025     -1.006709
6
Coordinates from ORCA-job B6_random_3d_seed1004_d2.50_q0_m1_R2SCAN-3C E -148.707477415980
  B      -0.508678     -0.243359      0.746585
  B       0.893571      0.669382      0.756042
  B       0.966686     -0.887085      0.303206
  B      -1.203264      0.120913     -0.585333
  B      -0.113786      1.313851     -0.287927
  B      -0.034529     -0.973702     -0.932574
6
Coordinates from ORCA-job B6_random_3d_seed1004_d2.50_q0_m1_R2SCAN-3C E -148.717189784651
  B      -0.458079     -0.219717      0.683508
  B       0.941185      0.622678      0.765552
  B       0.995604     -0.848985      0.329326
  B      -1.208881      0.121525     -0.673113
  B      -0.170869      1.337941     -0.223263
  B      -0.098960     -1.013441     -0.882010
6
Coordinates from ORCA-job B6_random_3d_seed1004_d2.50_q0_m1_R2SCAN-3C E -148.727775725719
  B      -0.450173     -0.186657      0.635204
  B       0.958090      0.664375      0.762627
  B       1.014504     -0.895388      0.304868
  B      -1.182396      0.146903     -0.722030
  B      -0.220007      1.351582     -0.146202
  B      -0.120018     -1.080815     -0.834467
6
Coordinates from ORCA-job B6_random_3d_seed1004_d2.50_q0_m1_R2SCAN-3C E -148.733106707265
  B      -0.441501     -0.205494      0.608816
  B       0.957064      0.681155      0.731273
  B       1.013801     -0.875671      0.289211
  B      -1.133719      0.176766     -0.770125
  B      -0.240326      1.339393     -0.081733
  B      -0.155320     -1.116149     -0.777441
6
Coordinates from ORCA-job B6_random_3d_seed1004_d2.50_q0_m1_R2SCAN-3C E -148.735755694276
  B      -0.430415     -0.168222      0.608549
  B       0.971138      0.672895      0.710203
  B       1.028021     -0.879530      0.280390
  B      -1.084222      0.189442     -0.822470
  B      -0.296960      1.333437     -0.025147
  B      -0.187562     -1.148022     -0.751525
6
Coordinates from ORCA-job B6_random_3d_seed1004_d2.50_q0_m1_R2SCAN-3C E -148.735789954149
  B      -0.413708     -0.197937      0.619899
  B       0.973415      0.673796      0.705937
  B       1.025574     -0.880432      0.255830
  B      -1.060976      0.200224     -0.872761
  B      -0.320335      1.375052     -0.000993
  B      -0.203969     -1.170702     -0.707913
6
Coordinates from ORCA-job B6_random_3d_seed1004_d2.50_q0_m1_R2SCAN-3C E -148.736776299245
  B      -0.425608     -0.202440      0.607210
  B       0.969555      0.681763      0.702776
  B       1.050325     -0.871725      0.266874
  B      -1.053950      0.207192     -0.866312
  B      -0.312446      1.348023     -0.001171
  B      -0.227875     -1.162813     -0.709378
6
Coordinates from ORCA-job B6_random_3d_seed1004_d2.50_q0_m1_R2SCAN-3C E -148.736734503835
  B      -0.435717     -0.182105      0.611763
  B       0.980477      0.671408      0.697850
  B       1.032781     -0.870840      0.261414
  B      -1.055724      0.206403     -0.859584
  B      -0.318900      1.332237     -0.001551
  B      -0.202917     -1.157103     -0.709892
6
Coordinates from ORCA-job B6_random_3d_seed1004_d2.50_q0_m1_R2SCAN-3C E -148.736935503608
  B      -0.429338     -0.185678      0.619048
  B       0.974065      0.680495      0.698773
  B       1.034871     -0.871680      0.261884
  B      -1.056410      0.198572     -0.869846
  B      -0.310099      1.342226      0.006711
  B      -0.213090     -1.163934     -0.716571
6
Coordinates from ORCA-job B6_random_3d_seed1004_d2.50_q0_m1_R2SCAN-3C E -148.736908816285
  B      -0.425401     -0.201066      0.607931
  B       0.974906      0.678789      0.703231
  B       1.042514     -0.871532      0.260796
  B      -1.049101      0.208403     -0.868076
  B      -0.320203      1.351773     -0.000017
  B      -0.222715     -1.166367     -0.703865
6
Coordinates from ORCA-job B6_random_3d_seed1004_d2.50_q0_m1_R2SCAN-3C E -148.737096159844
  B      -0.429755     -0.191026      0.613100
  B       0.976171      0.678076      0.700304
  B       1.037510     -0.870941      0.261068
  B      -1.053062      0.204522     -0.867283
  B      -0.315942      1.342784      0.002480
  B      -0.214922     -1.163414     -0.709668
6
Coordinates from ORCA-job B6_random_3d_seed1004_d2.50_q0_m1_R2SCAN-3C E -148.737096813436
  B      -0.429353     -0.191218      0.612966
  B       0.976069      0.678442      0.700420
  B       1.037679     -0.870893      0.260754
  B      -1.052604      0.204348     -0.868129
  B      -0.316034      1.343129      0.003177
  B      -0.215757     -1.163807     -0.709188
6
Coordinates from ORCA-job B6_random_3d_seed1004_d2.50_q0_m1_R2SCAN-3C E -148.737096855554
  B      -0.429447     -0.191340      0.613127
  B       0.976034      0.678452      0.700442
  B       1.037724     -0.870805      0.260689
  B      -1.052568      0.204497     -0.868100
  B      -0.315984      1.343049      0.003034
  B      -0.215759     -1.163854     -0.709192
