6
Coordinates from ORCA-job B6_random_3d_seed1004_d2.50_q0_m1_R2SCAN-3C E -148.737096855554
  B          -0.42944669040745     -0.19133974076540      0.61312690724994
  B           0.97603363131153      0.67845241391650      0.70044218763678
  B           1.03772379850364     -0.87080459217435      0.26068914793882
  B          -1.05256816207806      0.20449741788950     -0.86809996218082
  B          -0.31598353440307      1.34304886495628      0.00303370201019
  B          -0.21575904292660     -1.16385436382253     -0.70919197265491
