6
Coordinates from ORCA-job B6_octahedral_3d_d3.50_q0_m3_R2SCAN-3C E -147.879291446959
  B       2.474874      0.000000      0.000000
  B      -2.474874      0.000000      0.000000
  B       0.000000      2.474874      0.000000
  B       0.000000     -2.474874      0.000000
  B       0.000000      0.000000      2.474874
  B       0.000000      0.000000     -2.474874
6
Coordinates from ORCA-job B6_octahedral_3d_d3.50_q0_m3_R2SCAN-3C E -147.888672142774
  B       2.439381     -0.000109     -0.000016
  B      -2.439320     -0.000009     -0.000036
  B      -0.000058      2.449274     -0.000003
  B       0.000042     -2.449200      0.000014
  B      -0.000012      0.000014      2.439321
  B      -0.000033      0.000030     -2.439280
6
Coordinates from ORCA-job B6_octahedral_3d_d3.50_q0_m3_R2SCAN-3C E -147.938070788579
  B       2.403922     -0.000227     -0.000033
  B      -2.403793     -0.000017     -0.000075
  B      -0.000123      2.423600     -0.000007
  B       0.000086     -2.423447      0.000029
  B      -0.000025      0.000027      2.403800
  B      -0.000067      0.000064     -2.403714
6
Coordinates from ORCA-job B6_octahedral_3d_d3.50_q0_m3_R2SCAN-3C E -147.952074276104
  B       2.358567     -0.000295      0.005334
  B      -2.358600     -0.000113      0.005842
  B      -0.000269      2.376839     -0.017787
  B      -0.000087     -2.376705     -0.017305
  B      -0.000060     -0.000107      2.365614
  B       0.000449      0.000380     -2.341698
6
Coordinates from ORCA-job B6_octahedral_3d_d3.50_q0_m3_R2SCAN-3C E -147.961887556765
  B       2.328717     -0.000342      0.008342
  B      -2.328869     -0.000178      0.009241
  B      -0.000384      2.345320     -0.029080
  B      -0.000220     -2.345200     -0.028270
  B      -0.000072     -0.000209      2.339886
  B       0.000827      0.000609     -2.300120
6
Coordinates from ORCA-job B6_octahedral_3d_d3.50_q0_m3_R2SCAN-3C E -147.977369538956
  B       2.284309     -0.000417      0.012511
  B      -2.284641     -0.000280      0.014014
  B      -0.000568      2.297633     -0.046156
  B      -0.000431     -2.297537     -0.044818
  B      -0.000087     -0.000376      2.301840
  B       0.001418      0.000976     -2.237392
6
Coordinates from ORCA-job B6_octahedral_3d_d3.50_q0_m3_R2SCAN-3C E -148.002473081693
  B       2.218221     -0.000539      0.017963
  B      -2.218826     -0.000440      0.020401
  B      -0.000863      2.225365     -0.071682
  B      -0.000763     -2.225303     -0.069475
  B      -0.000106     -0.000657      2.245595
  B       0.002336      0.001574     -2.142802
6
Coordinates from ORCA-job B6_octahedral_3d_d3.50_q0_m3_R2SCAN-3C E -148.031234520647
  B       2.150690     -0.000674      0.022221
  B      -2.151598     -0.000614      0.025658
  B      -0.001199      2.149066     -0.097085
  B      -0.001140     -2.149042     -0.093823
  B      -0.000099     -0.001017      2.187466
  B       0.003347      0.002281     -2.044437
6
Coordinates from ORCA-job B6_octahedral_3d_d3.50_q0_m3_R2SCAN-3C E -148.063271704207
  B       2.084174     -0.000812      0.025041
  B      -2.085427     -0.000797      0.029486
  B      -0.001553      2.071143     -0.121293
  B      -0.001539     -2.071166     -0.116788
  B      -0.000059     -0.001465      2.129714
  B       0.004404      0.003096     -1.946160
6
Coordinates from ORCA-job B6_octahedral_3d_d3.50_q0_m3_R2SCAN-3C E -148.099159674433
  B       2.018434     -0.000949      0.026719
  B      -2.020098     -0.000987      0.032161
  B      -0.001900      1.991541     -0.144456
  B      -0.001941     -1.991634     -0.138446
  B       0.000017     -0.002034      2.072504
  B       0.005488      0.004062     -1.848483
6
Coordinates from ORCA-job B6_octahedral_3d_d3.50_q0_m3_R2SCAN-3C E -148.139581122274
  B       1.953072     -0.001104      0.027397
  B      -1.955274     -0.001207      0.033821
  B      -0.002213      1.910418     -0.166847
  B      -0.002319     -1.910490     -0.158669
  B       0.000135     -0.002959      2.016102
  B       0.006600      0.005342     -1.751804
6
Coordinates from ORCA-job B6_octahedral_3d_d3.50_q0_m3_R2SCAN-3C E -148.185174742643
  B       1.887447     -0.001439      0.027505
  B      -1.890342     -0.001572      0.034946
  B      -0.002503      1.828374     -0.189689
  B      -0.002644     -1.828090     -0.176679
  B       0.000273     -0.005228      1.960466
  B       0.007769      0.007954     -1.656549
6
Coordinates from ORCA-job B6_octahedral_3d_d3.50_q0_m3_R2SCAN-3C E -148.235950745318
  B       1.820521     -0.001800      0.027357
  B      -1.824333     -0.001952      0.035953
  B      -0.002719      1.745590     -0.212893
  B      -0.002891     -1.745764     -0.193028
  B       0.000373     -0.008175      1.905738
  B       0.009049      0.012101     -1.563127
6
Coordinates from ORCA-job B6_octahedral_3d_d3.50_q0_m3_R2SCAN-3C E -148.291329373949
  B       1.750916     -0.002098      0.027131
  B      -1.755858     -0.002384      0.037163
  B      -0.002758      1.662356     -0.236122
  B      -0.003088     -1.664230     -0.208186
  B       0.000321     -0.011264      1.852615
  B       0.010467      0.017621     -1.472600
6
Coordinates from ORCA-job B6_octahedral_3d_d3.50_q0_m3_R2SCAN-3C E -148.351264289329
  B       1.677903     -0.002397      0.026635
  B      -1.684302     -0.003198      0.038895
  B      -0.002422      1.579276     -0.260091
  B      -0.003319     -1.583916     -0.222180
  B      -0.000147     -0.014751      1.801958
  B       0.012288      0.024986     -1.385217
6
Coordinates from ORCA-job B6_octahedral_3d_d3.50_q0_m3_R2SCAN-3C E -148.411434791156
  B       1.599804     -0.004140      0.029007
  B      -1.606662     -0.004453      0.040806
  B      -0.002840      1.498657     -0.285844
  B      -0.003303     -1.504956     -0.232686
  B       0.000483     -0.020453      1.752830
  B       0.012518      0.035344     -1.304113
6
Coordinates from ORCA-job B6_octahedral_3d_d3.50_q0_m3_R2SCAN-3C E -148.469048035893
  B       1.516620     -0.010442      0.030671
  B      -1.524594     -0.008162      0.046417
  B      -0.004126      1.424718     -0.318173
  B      -0.001885     -1.424384     -0.230561
  B      -0.001174     -0.035404      1.702439
  B       0.015158      0.053674     -1.230791
6
Coordinates from ORCA-job B6_octahedral_3d_d3.50_q0_m3_R2SCAN-3C E -148.523900803752
  B       1.426817     -0.024829      0.014581
  B      -1.436856     -0.011249      0.053345
  B      -0.008979      1.364799     -0.341318
  B       0.005968     -1.337075     -0.213431
  B      -0.013492     -0.056864      1.656914
  B       0.026541      0.065218     -1.170091
6
Coordinates from ORCA-job B6_octahedral_3d_d3.50_q0_m3_R2SCAN-3C E -148.573660345836
  B       1.347124     -0.044505      0.009436
  B      -1.352314     -0.005897      0.063320
  B      -0.023226      1.308612     -0.334243
  B       0.019162     -1.237218     -0.203643
  B      -0.024009     -0.067420      1.598028
  B       0.033262      0.046428     -1.132897
6
Coordinates from ORCA-job B6_octahedral_3d_d3.50_q0_m3_R2SCAN-3C E -148.615578229848
  B       1.259531     -0.059953      0.013284
  B      -1.257852     -0.002881      0.073914
  B      -0.035182      1.264345     -0.318691
  B       0.028100     -1.152262     -0.191180
  B      -0.030739     -0.074337      1.528325
  B       0.036142      0.025088     -1.105651
6
Coordinates from ORCA-job B6_octahedral_3d_d3.50_q0_m3_R2SCAN-3C E -148.655041568279
  B       1.202829     -0.064599      0.033729
  B      -1.181791     -0.000656      0.093689
  B      -0.043070      1.265987     -0.273732
  B       0.030019     -1.136386     -0.142029
  B      -0.038296     -0.077611      1.437227
  B       0.030309      0.013265     -1.148884
6
Coordinates from ORCA-job B6_octahedral_3d_d3.50_q0_m3_R2SCAN-3C E -148.678528798232
  B       1.166686     -0.033448      0.063938
  B      -1.135310      0.003644      0.107104
  B      -0.034867      1.230751     -0.218786
  B       0.010637     -1.122119     -0.093848
  B      -0.030554     -0.079452      1.326676
  B       0.023408      0.000624     -1.185084
6
Coordinates from ORCA-job B6_octahedral_3d_d3.50_q0_m3_R2SCAN-3C E -148.687402423271
  B       1.146305     -0.002634      0.077533
  B      -1.148488      0.015075      0.083754
  B      -0.020761      1.225540     -0.158783
  B       0.005093     -1.141191     -0.080013
  B      -0.000112     -0.065820      1.277870
  B       0.017963     -0.030970     -1.200360
6
Coordinates from ORCA-job B6_octahedral_3d_d3.50_q0_m3_R2SCAN-3C E -148.693077760663
  B       1.158180      0.035262      0.067644
  B      -1.156801      0.025453      0.072758
  B      -0.006578      1.185039     -0.096606
  B      -0.007733     -1.170515     -0.060300
  B      -0.001978     -0.037093      1.207457
  B       0.014910     -0.038146     -1.190952
6
Coordinates from ORCA-job B6_octahedral_3d_d3.50_q0_m3_R2SCAN-3C E -148.694535601696
  B       1.183698      0.025540      0.069777
  B      -1.180556      0.025756      0.036053
  B      -0.011282      1.184369     -0.054606
  B      -0.002447     -1.195105     -0.039163
  B       0.015433     -0.009737      1.170805
  B      -0.004846     -0.030823     -1.182867
6
Coordinates from ORCA-job B6_octahedral_3d_d3.50_q0_m3_R2SCAN-3C E -148.695046602288
  B       1.191013      0.031700      0.045503
  B      -1.183437      0.006858      0.037535
  B       0.005854      1.182900     -0.039542
  B      -0.010363     -1.200753     -0.037971
  B      -0.004285      0.006955      1.181120
  B       0.001218     -0.027660     -1.186644
6
Coordinates from ORCA-job B6_octahedral_3d_d3.50_q0_m3_R2SCAN-3C E -148.695650914274
  B       1.182746      0.019721      0.036616
  B      -1.179470      0.011670      0.028635
  B      -0.000114      1.171203     -0.045006
  B       0.000287     -1.193515     -0.026813
  B      -0.004415      0.004351      1.192655
  B       0.000965     -0.013430     -1.186087
6
Coordinates from ORCA-job B6_octahedral_3d_d3.50_q0_m3_R2SCAN-3C E -148.696002391996
  B       1.181480      0.006437      0.026749
  B      -1.183043      0.000044      0.015699
  B       0.001268      1.177067     -0.034931
  B       0.003290     -1.180791     -0.015373
  B      -0.002533      0.007095      1.182599
  B      -0.000461     -0.009852     -1.174743
6
Coordinates from ORCA-job B6_octahedral_3d_d3.50_q0_m3_R2SCAN-3C E -148.696173525196
  B       1.183723     -0.003699      0.014513
  B      -1.183684     -0.002328      0.007481
  B      -0.002590      1.181798     -0.021826
  B       0.007224     -1.185912     -0.006817
  B      -0.005410      0.015915      1.181972
  B       0.000738     -0.005774     -1.175324
6
Coordinates from ORCA-job B6_octahedral_3d_d3.50_q0_m3_R2SCAN-3C E -148.696248293481
  B       1.184948     -0.004102      0.006160
  B      -1.184340     -0.011885     -0.004354
  B       0.001451      1.182832     -0.012038
  B       0.002136     -1.182904      0.005605
  B      -0.003391      0.017642      1.186125
  B      -0.000804     -0.001583     -1.181498
6
Coordinates from ORCA-job B6_octahedral_3d_d3.50_q0_m3_R2SCAN-3C E -148.696283847232
  B       1.182346     -0.002651      0.004803
  B      -1.184868     -0.008117     -0.000749
  B       0.000205      1.182373     -0.011728
  B       0.003199     -1.183656      0.006786
  B      -0.004217      0.015171      1.183001
  B       0.003335     -0.003119     -1.182112
6
Coordinates from ORCA-job B6_octahedral_3d_d3.50_q0_m3_R2SCAN-3C E -148.696295077648
  B       1.183711     -0.000446      0.004885
  B      -1.181387     -0.004053     -0.001062
  B      -0.002541      1.183281     -0.011616
  B       0.002288     -1.183817      0.007499
  B      -0.004624      0.011361      1.182304
  B       0.002553     -0.006327     -1.182010
6
Coordinates from ORCA-job B6_octahedral_3d_d3.50_q0_m3_R2SCAN-3C E -148.696300369307
  B       1.182778      0.000796      0.004144
  B      -1.182218     -0.003354     -0.002298
  B      -0.002096      1.183115     -0.010201
  B       0.002196     -1.183629      0.008739
  B      -0.003669      0.010469      1.182438
  B       0.003010     -0.007397     -1.182821
6
Coordinates from ORCA-job B6_octahedral_3d_d3.50_q0_m3_R2SCAN-3C E -148.696301928744
  B       1.182611      0.001830      0.003427
  B      -1.182771     -0.002568     -0.003213
  B      -0.002046      1.183111     -0.009332
  B       0.002002     -1.183211      0.009358
  B      -0.003139      0.009477      1.182776
  B       0.003343     -0.008639     -1.183016
6
Coordinates from ORCA-job B6_octahedral_3d_d3.50_q0_m3_R2SCAN-3C E -148.696302141055
  B       1.182811      0.002150      0.003248
  B      -1.182933     -0.002198     -0.003384
  B      -0.002123      1.182958     -0.009111
  B       0.001975     -1.183046      0.009340
  B      -0.003111      0.009245      1.182871
  B       0.003380     -0.009108     -1.182963
