6
Coordinates from ORCA-job B6_octahedral_3d_d3.50_q0_m3_R2SCAN-3C E -148.696302141055
  B           1.18281143102616      0.00214963118557      0.00324786261520
  B          -1.18293293588082     -0.00219758043633     -0.00338445654727
  B          -0.00212312814122      1.18295764473971     -0.00911115908044
  B           0.00197547356614     -1.18304624942942      0.00933953760615
  B          -0.00311111231688      0.00924504318376      1.18287088886109
  B           0.00338027174662     -0.00910848924329     -1.18296267345472
