6
Coordinates from ORCA-job B6_random_3d_seed1003_d2.00_q0_m1_R2SCAN-3C E -148.659859000929
  B           0.14695242679506      0.76174516563593     -0.96686464544462
  B          -0.14634208681906     -0.76170189014974      0.96696510659401
  B          -1.22710948200244      0.16089662025771     -0.05915221682619
  B           1.22707487911559     -0.16104311882433      0.05917677222220
  B           0.07776814753581      0.84329923116589      0.67627701757032
  B          -0.07834390462497     -0.84319600808546     -0.67640202411573
