6
Coordinates from ORCA-job B6_random_3d_seed1003_d2.00_q0_m1_R2SCAN-3C E -148.427704774779
  B       0.200857      0.904655     -1.231426
  B      -0.149765     -0.863318      1.084150
  B      -1.466854      0.195498     -0.056692
  B       1.584622     -0.127427      0.152616
  B       0.078070      1.022107      0.923472
  B      -0.246930     -1.131515     -0.872119
6
Coordinates from ORCA-job B6_random_3d_seed1003_d2.00_q0_m1_R2SCAN-3C E -148.457927013498
  B       0.198507      0.897548     -1.205270
  B      -0.141600     -0.857160      1.052666
  B      -1.435321      0.183225     -0.067370
  B       1.550735     -0.113740      0.161433
  B       0.090739      1.006886      0.901086
  B      -0.263061     -1.116759     -0.842544
6
Coordinates from ORCA-job B6_random_3d_seed1003_d2.00_q0_m1_R2SCAN-3C E -148.490697792228
  B       0.199364      0.885456     -1.175927
  B      -0.137083     -0.846810      1.020809
  B      -1.408026      0.170256     -0.075524
  B       1.520255     -0.099874      0.164350
  B       0.100854      0.987835      0.878243
  B      -0.275363     -1.096863     -0.811951
6
Coordinates from ORCA-job B6_random_3d_seed1003_d2.00_q0_m1_R2SCAN-3C E -148.540057737125
  B       0.198825      0.854794     -1.125210
  B      -0.131437     -0.822941      0.977067
  B      -1.370031      0.155393     -0.084428
  B       1.473619     -0.084236      0.160636
  B       0.110440      0.956784      0.845688
  B      -0.281416     -1.059795     -0.773753
6
Coordinates from ORCA-job B6_random_3d_seed1003_d2.00_q0_m1_R2SCAN-3C E -148.603034481773
  B       0.192455      0.796162     -1.044457
  B      -0.122718     -0.777281      0.917974
  B      -1.316811      0.143654     -0.091353
  B       1.402635     -0.076203      0.143359
  B       0.111108      0.908474      0.799266
  B      -0.266669     -0.994806     -0.724788
6
Coordinates from ORCA-job B6_random_3d_seed1003_d2.00_q0_m1_R2SCAN-3C E -148.643116170616
  B       0.185688      0.728206     -0.951955
  B      -0.110280     -0.732958      0.867788
  B      -1.269210      0.149209     -0.088920
  B       1.326694     -0.082721      0.112290
  B       0.093903      0.865615      0.745723
  B      -0.226796     -0.927351     -0.684926
6
Coordinates from ORCA-job B6_random_3d_seed1003_d2.00_q0_m1_R2SCAN-3C E -148.651855255422
  B       0.183505      0.686036     -0.896187
  B      -0.095983     -0.715057      0.861305
  B      -1.246749      0.165599     -0.076850
  B       1.274224     -0.102601      0.086358
  B       0.067746      0.851281      0.706855
  B      -0.182743     -0.885258     -0.681481
6
Coordinates from ORCA-job B6_random_3d_seed1003_d2.00_q0_m1_R2SCAN-3C E -148.655168701835
  B       0.184294      0.684455     -0.895988
  B      -0.089377     -0.720472      0.876981
  B      -1.255001      0.172927     -0.070750
  B       1.274950     -0.117559      0.082093
  B       0.055324      0.864578      0.705322
  B      -0.170190     -0.883929     -0.697658
6
Coordinates from ORCA-job B6_random_3d_seed1003_d2.00_q0_m1_R2SCAN-3C E -148.657269813507
  B       0.188386      0.687171     -0.897547
  B      -0.079578     -0.724178      0.891035
  B      -1.271162      0.180555     -0.060024
  B       1.275930     -0.150840      0.069666
  B       0.030260      0.880424      0.701332
  B      -0.143837     -0.873132     -0.704462
6
Coordinates from ORCA-job B6_random_3d_seed1003_d2.00_q0_m1_R2SCAN-3C E -148.657521181472
  B       0.194881      0.694990     -0.900386
  B      -0.076086     -0.723666      0.899170
  B      -1.277884      0.178189     -0.058141
  B       1.275861     -0.161156      0.064507
  B       0.023081      0.882046      0.699643
  B      -0.139853     -0.870404     -0.704793
6
Coordinates from ORCA-job B6_random_3d_seed1003_d2.00_q0_m1_R2SCAN-3C E -148.657783064006
  B       0.204959      0.705413     -0.904937
  B      -0.070217     -0.723045      0.911851
  B      -1.283863      0.172053     -0.057633
  B       1.273052     -0.173579      0.058017
  B       0.014057      0.879805      0.694861
  B      -0.137986     -0.860647     -0.702159
6
Coordinates from ORCA-job B6_random_3d_seed1003_d2.00_q0_m1_R2SCAN-3C E -148.658169966835
  B       0.228245      0.730251     -0.916758
  B      -0.058311     -0.726139      0.939200
  B      -1.291089      0.157306     -0.059335
  B       1.264636     -0.191520      0.046991
  B      -0.001045      0.871173      0.682709
  B      -0.142435     -0.841071     -0.692807
6
Coordinates from ORCA-job B6_random_3d_seed1003_d2.00_q0_m1_R2SCAN-3C E -148.658446915013
  B       0.236428      0.735896     -0.922904
  B      -0.053980     -0.730612      0.946594
  B      -1.288815      0.153485     -0.060292
  B       1.258144     -0.188762      0.047891
  B      -0.002326      0.865725      0.678469
  B      -0.149451     -0.835732     -0.689758
6
Coordinates from ORCA-job B6_random_3d_seed1003_d2.00_q0_m1_R2SCAN-3C E -148.658838405807
  B       0.244201      0.737471     -0.935082
  B      -0.049484     -0.746280      0.950821
  B      -1.278227      0.155380     -0.059706
  B       1.241604     -0.171160      0.056682
  B       0.002274      0.855931      0.670945
  B      -0.160368     -0.831342     -0.683660
6
Coordinates from ORCA-job B6_random_3d_seed1003_d2.00_q0_m1_R2SCAN-3C E -148.658945100990
  B       0.239975      0.735969     -0.939827
  B      -0.052006     -0.751850      0.949821
  B      -1.276219      0.159831     -0.058412
  B       1.240231     -0.167864      0.059488
  B       0.004706      0.855393      0.671041
  B      -0.156687     -0.831479     -0.682110
6
Coordinates from ORCA-job B6_random_3d_seed1003_d2.00_q0_m1_R2SCAN-3C E -148.659130770773
  B       0.227402      0.737147     -0.954291
  B      -0.062064     -0.767479      0.953192
  B      -1.270050      0.170341     -0.055680
  B       1.234006     -0.160795      0.064256
  B       0.013480      0.851294      0.669246
  B      -0.142774     -0.830507     -0.676722
6
Coordinates from ORCA-job B6_random_3d_seed1003_d2.00_q0_m1_R2SCAN-3C E -148.659235921725
  B       0.212552      0.736175     -0.958755
  B      -0.074183     -0.771865      0.952517
  B      -1.264325      0.175935     -0.055899
  B       1.232732     -0.155402      0.066824
  B       0.024998      0.850002      0.671857
  B      -0.131774     -0.834844     -0.676544
6
Coordinates from ORCA-job B6_random_3d_seed1003_d2.00_q0_m1_R2SCAN-3C E -148.659468355732
  B       0.177397      0.743109     -0.970784
  B      -0.106058     -0.780052      0.959985
  B      -1.246958      0.183052     -0.058135
  B       1.223894     -0.150168      0.066417
  B       0.052062      0.843090      0.674622
  B      -0.100339     -0.839030     -0.672106
6
Coordinates from ORCA-job B6_random_3d_seed1003_d2.00_q0_m1_R2SCAN-3C E -148.659691882038
  B       0.146345      0.749074     -0.969105
  B      -0.136560     -0.773027      0.961777
  B      -1.232716      0.181294     -0.062965
  B       1.226908     -0.150596      0.061211
  B       0.074113      0.841314      0.681553
  B      -0.078089     -0.848060     -0.672470
6
Coordinates from ORCA-job B6_random_3d_seed1003_d2.00_q0_m1_R2SCAN-3C E -148.659825264817
  B       0.144964      0.757991     -0.966043
  B      -0.145357     -0.764138      0.966731
  B      -1.230121      0.170341     -0.065309
  B       1.231219     -0.155919      0.054220
  B       0.076604      0.840269      0.682684
  B      -0.077310     -0.848543     -0.672283
6
Coordinates from ORCA-job B6_random_3d_seed1003_d2.00_q0_m1_R2SCAN-3C E -148.659846228467
  B       0.142010      0.761941     -0.966530
  B      -0.151500     -0.762699      0.969189
  B      -1.225081      0.166006     -0.065731
  B       1.228447     -0.155546      0.052871
  B       0.081278      0.837531      0.680947
  B      -0.075155     -0.847233     -0.670746
6
Coordinates from ORCA-job B6_random_3d_seed1003_d2.00_q0_m1_R2SCAN-3C E -148.659851890334
  B       0.147467      0.760514     -0.964490
  B      -0.146025     -0.761663      0.967968
  B      -1.227605      0.164793     -0.064935
  B       1.229089     -0.157023      0.053325
  B       0.076683      0.839497      0.680161
  B      -0.079609     -0.846118     -0.672029
6
Coordinates from ORCA-job B6_random_3d_seed1003_d2.00_q0_m1_R2SCAN-3C E -148.659853695109
  B       0.147150      0.760644     -0.965213
  B      -0.145887     -0.762277      0.968123
  B      -1.227444      0.164938     -0.064473
  B       1.228403     -0.157511      0.053919
  B       0.076766      0.839937      0.679899
  B      -0.078988     -0.845731     -0.672254
6
Coordinates from ORCA-job B6_random_3d_seed1003_d2.00_q0_m1_R2SCAN-3C E -148.659855985254
  B       0.146785      0.760845     -0.966252
  B      -0.145670     -0.762899      0.967972
  B      -1.226827      0.164463     -0.063256
  B       1.227418     -0.158104      0.055733
  B       0.077143      0.840927      0.679153
  B      -0.078849     -0.845233     -0.673350
6
Coordinates from ORCA-job B6_random_3d_seed1003_d2.00_q0_m1_R2SCAN-3C E -148.659857575651
  B       0.146963      0.761503     -0.966742
  B      -0.145565     -0.762673      0.967877
  B      -1.226347      0.162907     -0.061611
  B       1.226524     -0.159599      0.057218
  B       0.077146      0.842236      0.677980
  B      -0.078721     -0.844373     -0.674721
6
Coordinates from ORCA-job B6_random_3d_seed1003_d2.00_q0_m1_R2SCAN-3C E -148.659858337476
  B       0.147241      0.761697     -0.966894
  B      -0.145569     -0.762309      0.967570
  B      -1.226462      0.161845     -0.060453
  B       1.226502     -0.160332      0.058254
  B       0.077192      0.842935      0.677205
  B      -0.078904     -0.843836     -0.675682
6
Coordinates from ORCA-job B6_random_3d_seed1003_d2.00_q0_m1_R2SCAN-3C E -148.659858807504
  B       0.147172      0.761835     -0.966909
  B      -0.146012     -0.761834      0.967178
  B      -1.226775      0.160938     -0.059374
  B       1.226737     -0.161023      0.059030
  B       0.077494      0.843397      0.676459
  B      -0.078617     -0.843314     -0.676383
6
Coordinates from ORCA-job B6_random_3d_seed1003_d2.00_q0_m1_R2SCAN-3C E -148.659859000929
  B       0.146952      0.761745     -0.966865
  B      -0.146342     -0.761702      0.966965
  B      -1.227109      0.160897     -0.059152
  B       1.227075     -0.161043      0.059177
  B       0.077768      0.843299      0.676277
  B      -0.078344     -0.843196     -0.676402
