6
Coordinates from ORCA-job B6_random_3d_seed1000_d3.00_q0_m5_R2SCAN-3C E -147.996198037839
  B       0.932351     -0.947138      1.875669
  B       2.333628     -0.223821     -0.702504
  B      -0.037024     -2.185974     -0.793046
  B      -1.044287      1.104845      1.600394
  B      -0.093303      2.218480     -1.016352
  B      -2.091365      0.033609     -0.964161
6
Coordinates from ORCA-job B6_random_3d_seed1000_d3.00_q0_m5_R2SCAN-3C E -148.011316330103
  B       0.912477     -0.920752      1.845204
  B       2.301826     -0.231702     -0.685238
  B      -0.038949     -2.149369     -0.785331
  B      -1.018943      1.077551      1.574403
  B      -0.105932      2.188439     -1.002514
  B      -2.050477      0.035834     -0.946523
6
Coordinates from ORCA-job B6_random_3d_seed1000_d3.00_q0_m5_R2SCAN-3C E -148.027350390399
  B       0.892486     -0.894546      1.814539
  B       2.270037     -0.239603     -0.668057
  B      -0.040447     -2.113186     -0.777275
  B      -0.993499      1.050414      1.547993
  B      -0.118795      2.158439     -0.988308
  B      -2.009782      0.038481     -0.928892
6
Coordinates from ORCA-job B6_random_3d_seed1000_d3.00_q0_m5_R2SCAN-3C E -148.053257935021
  B       0.862430     -0.855681      1.767999
  B       2.222472     -0.251238     -0.642520
  B      -0.041953     -2.059195     -0.764499
  B      -0.955550      1.010131      1.507680
  B      -0.137969      2.112894     -0.966295
  B      -1.949430      0.043088     -0.902366
6
Coordinates from ORCA-job B6_random_3d_seed1000_d3.00_q0_m5_R2SCAN-3C E -148.097004115239
  B       0.817341     -0.798445      1.696766
  B       2.151665     -0.268389     -0.604585
  B      -0.042658     -1.978991     -0.743747
  B      -0.899422      0.950626      1.445570
  B      -0.166617      2.043669     -0.931853
  B      -1.860309      0.051531     -0.862151
6
Coordinates from ORCA-job B6_random_3d_seed1000_d3.00_q0_m5_R2SCAN-3C E -148.148809181700
  B       0.771829     -0.741501      1.620962
  B       2.080669     -0.286258     -0.564467
  B      -0.041775     -1.897763     -0.719249
  B      -0.842448      0.889032      1.377169
  B      -0.197436      1.972927     -0.895126
  B      -1.770838      0.063563     -0.819290
6
Coordinates from ORCA-job B6_random_3d_seed1000_d3.00_q0_m5_R2SCAN-3C E -148.206849491363
  B       0.726091     -0.684712      1.543467
  B       2.011695     -0.305364     -0.523883
  B      -0.039429     -1.818987     -0.694316
  B      -0.785839      0.828828      1.307893
  B      -0.230303      1.902505     -0.857107
  B      -1.682216      0.077731     -0.776053
6
Coordinates from ORCA-job B6_random_3d_seed1000_d3.00_q0_m5_R2SCAN-3C E -148.270912256155
  B       0.681501     -0.628753      1.463889
  B       1.943809     -0.325813     -0.481454
  B      -0.035873     -1.742136     -0.668608
  B      -0.729081      0.770060      1.237225
  B      -0.266476      1.831619     -0.817858
  B      -1.593880      0.095022     -0.733194
6
Coordinates from ORCA-job B6_random_3d_seed1000_d3.00_q0_m5_R2SCAN-3C E -148.340092518842
  B       0.641608     -0.576611      1.381165
  B       1.875972     -0.347118     -0.435418
  B      -0.031599     -1.667259     -0.641084
  B      -0.673711      0.714510      1.164777
  B      -0.306574      1.760369     -0.777792
  B      -1.505696      0.116108     -0.691649
6
Coordinates from ORCA-job B6_random_3d_seed1000_d3.00_q0_m5_R2SCAN-3C E -148.410841759328
  B       0.615439     -0.536222      1.295002
  B       1.807532     -0.368101     -0.382951
  B      -0.029104     -1.591992     -0.610116
  B      -0.625089      0.666481      1.090342
  B      -0.351236      1.688883     -0.739155
  B      -1.417542      0.140951     -0.653123
6
Coordinates from ORCA-job B6_random_3d_seed1000_d3.00_q0_m5_R2SCAN-3C E -148.479120901603
  B       0.599932     -0.502149      1.205993
  B       1.738698     -0.390663     -0.323580
  B      -0.028590     -1.515815     -0.578199
  B      -0.579692      0.622824      1.013260
  B      -0.400487      1.618166     -0.700847
  B      -1.329861      0.167637     -0.616627
6
Coordinates from ORCA-job B6_random_3d_seed1000_d3.00_q0_m5_R2SCAN-3C E -148.535101519068
  B       0.613156     -0.483988      1.120180
  B       1.666566     -0.423660     -0.257871
  B      -0.026434     -1.432517     -0.545681
  B      -0.550687      0.592955      0.938194
  B      -0.449210      1.564941     -0.665996
  B      -1.253390      0.182270     -0.588826
6
Coordinates from ORCA-job B6_random_3d_seed1000_d3.00_q0_m5_R2SCAN-3C E -148.573035962737
  B       0.637342     -0.469029      1.042832
  B       1.585941     -0.471826     -0.201197
  B      -0.019606     -1.319879     -0.507168
  B      -0.530332      0.564459      0.872987
  B      -0.480478      1.541792     -0.633790
  B      -1.192867      0.154485     -0.573663
6
Coordinates from ORCA-job B6_random_3d_seed1000_d3.00_q0_m5_R2SCAN-3C E -148.590884683256
  B       0.653860     -0.477904      1.033124
  B       1.569946     -0.517318     -0.203212
  B      -0.026037     -1.201077     -0.470329
  B      -0.538839      0.546149      0.852075
  B      -0.507331      1.519134     -0.628704
  B      -1.151599      0.131016     -0.582954
6
Coordinates from ORCA-job B6_random_3d_seed1000_d3.00_q0_m5_R2SCAN-3C E -148.601936904400
  B       0.678397     -0.485419      1.033051
  B       1.571676     -0.546106     -0.190259
  B      -0.043790     -1.122419     -0.449060
  B      -0.531559      0.522892      0.841814
  B      -0.527565      1.519370     -0.633499
  B      -1.147160      0.111682     -0.602048
6
Coordinates from ORCA-job B6_random_3d_seed1000_d3.00_q0_m5_R2SCAN-3C E -148.619023699727
  B       0.722970     -0.511864      1.050532
  B       1.591069     -0.595490     -0.176066
  B      -0.055584     -1.008047     -0.411845
  B      -0.526494      0.490410      0.814245
  B      -0.566988      1.516333     -0.644756
  B      -1.164974      0.108658     -0.632110
6
Coordinates from ORCA-job B6_random_3d_seed1000_d3.00_q0_m5_R2SCAN-3C E -148.639821087935
  B       0.785287     -0.550676      1.078668
  B       1.617707     -0.654638     -0.143480
  B      -0.072798     -0.850751     -0.357648
  B      -0.492746      0.426715      0.773114
  B      -0.618982      1.522928     -0.668351
  B      -1.218467      0.106422     -0.682303
6
Coordinates from ORCA-job B6_random_3d_seed1000_d3.00_q0_m5_R2SCAN-3C E -148.649422921239
  B       0.808489     -0.563551      1.121960
  B       1.666367     -0.733568     -0.156524
  B      -0.026084     -0.788569     -0.306773
  B      -0.486239      0.415258      0.739955
  B      -0.673787      1.546602     -0.656717
  B      -1.288747      0.123827     -0.741903
6
Coordinates from ORCA-job B6_random_3d_seed1000_d3.00_q0_m5_R2SCAN-3C E -148.652248782575
  B       0.846541     -0.543119      1.113637
  B       1.720294     -0.823541     -0.099202
  B      -0.060452     -0.750312     -0.323970
  B      -0.449264      0.428536      0.714401
  B      -0.774913      1.530227     -0.617691
  B      -1.282207      0.158209     -0.787175
6
Coordinates from ORCA-job B6_random_3d_seed1000_d3.00_q0_m5_R2SCAN-3C E -148.660758425820
  B       0.818282     -0.506331      1.071776
  B       1.747708     -0.883390     -0.075774
  B      -0.039171     -0.778017     -0.327657
  B      -0.441588      0.457400      0.688140
  B      -0.819544      1.580699     -0.570166
  B      -1.265686      0.129640     -0.786320
6
Coordinates from ORCA-job B6_random_3d_seed1000_d3.00_q0_m5_R2SCAN-3C E -148.664975325570
  B       0.818759     -0.490142      1.064990
  B       1.742231     -0.927990     -0.064826
  B      -0.007242     -0.800912     -0.332848
  B      -0.429850      0.465089      0.689244
  B      -0.879565      1.615260     -0.564378
  B      -1.244333      0.138695     -0.792182
6
Coordinates from ORCA-job B6_random_3d_seed1000_d3.00_q0_m5_R2SCAN-3C E -148.668922931709
  B       0.819166     -0.471856      1.068843
  B       1.749933     -0.978838     -0.055659
  B       0.004311     -0.808382     -0.342633
  B      -0.418140      0.475644      0.672158
  B      -0.940640      1.640187     -0.548500
  B      -1.214630      0.143244     -0.794210
6
Coordinates from ORCA-job B6_random_3d_seed1000_d3.00_q0_m5_R2SCAN-3C E -148.674705415379
  B       0.833394     -0.452999      1.054806
  B       1.751691     -1.055315     -0.020362
  B       0.027827     -0.808486     -0.348414
  B      -0.394173      0.486665      0.638788
  B      -1.038410      1.670217     -0.522645
  B      -1.180330      0.159918     -0.802173
6
Coordinates from ORCA-job B6_random_3d_seed1000_d3.00_q0_m5_R2SCAN-3C E -148.681944764204
  B       0.870107     -0.423224      1.052118
  B       1.740171     -1.158045      0.028784
  B       0.051042     -0.804117     -0.369158
  B      -0.358803      0.514248      0.593573
  B      -1.166281      1.682428     -0.474390
  B      -1.136235      0.188710     -0.830927
6
Coordinates from ORCA-job B6_random_3d_seed1000_d3.00_q0_m5_R2SCAN-3C E -148.687342781368
  B       0.890182     -0.385253      1.025001
  B       1.731778     -1.260696      0.082346
  B       0.077043     -0.785533     -0.377302
  B      -0.322596      0.535071      0.550188
  B      -1.277214      1.678503     -0.419711
  B      -1.099194      0.217908     -0.860522
6
Coordinates from ORCA-job B6_random_3d_seed1000_d3.00_q0_m5_R2SCAN-3C E -148.690196412406
  B       0.920580     -0.363197      1.023797
  B       1.711272     -1.319424      0.113966
  B       0.096270     -0.773888     -0.391912
  B      -0.305696      0.558347      0.527192
  B      -1.336376      1.665875     -0.380158
  B      -1.086051      0.232287     -0.892884
6
Coordinates from ORCA-job B6_random_3d_seed1000_d3.00_q0_m5_R2SCAN-3C E -148.691742696850
  B       0.933976     -0.343524      1.012633
  B       1.689031     -1.352207      0.133719
  B       0.107650     -0.760672     -0.397741
  B      -0.293383      0.564572      0.514066
  B      -1.368860      1.648799     -0.356565
  B      -1.068414      0.243032     -0.906112
6
Coordinates from ORCA-job B6_random_3d_seed1000_d3.00_q0_m5_R2SCAN-3C E -148.693343571504
  B       0.954279     -0.316201      0.996393
  B       1.663585     -1.407924      0.159901
  B       0.134695     -0.748509     -0.405455
  B      -0.289786      0.584480      0.495186
  B      -1.416248      1.631266     -0.321082
  B      -1.046525      0.256887     -0.924943
6
Coordinates from ORCA-job B6_random_3d_seed1000_d3.00_q0_m5_R2SCAN-3C E -148.694492535591
  B       0.992015     -0.283773      0.988503
  B       1.607140     -1.452011      0.185381
  B       0.154012     -0.720451     -0.418407
  B      -0.269109      0.588841      0.488871
  B      -1.464050      1.598380     -0.290283
  B      -1.020007      0.269014     -0.954065
6
Coordinates from ORCA-job B6_random_3d_seed1000_d3.00_q0_m5_R2SCAN-3C E -148.694730854984
  B       1.004578     -0.272946      0.972883
  B       1.595795     -1.478683      0.202616
  B       0.164570     -0.712940     -0.418920
  B      -0.272383      0.596564      0.477914
  B      -1.485781      1.585170     -0.274436
  B      -1.006780      0.282834     -0.960057
6
Coordinates from ORCA-job B6_random_3d_seed1000_d3.00_q0_m5_R2SCAN-3C E -148.694825742029
  B       1.004748     -0.269368      0.969082
  B       1.593972     -1.479417      0.206412
  B       0.163744     -0.714153     -0.421671
  B      -0.271896      0.596970      0.480696
  B      -1.484580      1.582051     -0.270742
  B      -1.005988      0.283918     -0.963777
6
Coordinates from ORCA-job B6_random_3d_seed1000_d3.00_q0_m5_R2SCAN-3C E -148.695086819696
  B       1.007237     -0.264586      0.958377
  B       1.590723     -1.482751      0.217683
  B       0.162696     -0.715359     -0.431266
  B      -0.269327      0.597122      0.489546
  B      -1.488169      1.578091     -0.267838
  B      -1.003159      0.287482     -0.966502
6
Coordinates from ORCA-job B6_random_3d_seed1000_d3.00_q0_m5_R2SCAN-3C E -148.695348487662
  B       1.009729     -0.262631      0.949028
  B       1.587524     -1.490307      0.227866
  B       0.166035     -0.711797     -0.442891
  B      -0.267293      0.601021      0.498384
  B      -1.494815      1.574699     -0.269002
  B      -1.001180      0.289015     -0.963385
6
Coordinates from ORCA-job B6_random_3d_seed1000_d3.00_q0_m5_R2SCAN-3C E -148.695653535875
  B       1.013436     -0.264321      0.942541
  B       1.580831     -1.504987      0.235032
  B       0.177251     -0.697190     -0.451864
  B      -0.263555      0.609634      0.504972
  B      -1.506941      1.570148     -0.273319
  B      -1.001022      0.286717     -0.957362
6
Coordinates from ORCA-job B6_random_3d_seed1000_d3.00_q0_m5_R2SCAN-3C E -148.695858982601
  B       1.012811     -0.271946      0.942158
  B       1.576342     -1.514956      0.234512
  B       0.189474     -0.679926     -0.453748
  B      -0.259665      0.619970      0.506997
  B      -1.513977      1.566746     -0.279949
  B      -1.004984      0.280113     -0.949970
6
Coordinates from ORCA-job B6_random_3d_seed1000_d3.00_q0_m5_R2SCAN-3C E -148.695952955721
  B       1.008621     -0.278371      0.944828
  B       1.577112     -1.515741      0.233561
  B       0.194905     -0.675193     -0.456082
  B      -0.255892      0.626089      0.505186
  B      -1.515582      1.567312     -0.282515
  B      -1.009163      0.275904     -0.944978
6
Coordinates from ORCA-job B6_random_3d_seed1000_d3.00_q0_m5_R2SCAN-3C E -148.696081153809
  B       1.005042     -0.282651      0.950366
  B       1.573475     -1.519535      0.235943
  B       0.202742     -0.669102     -0.460541
  B      -0.246584      0.633271      0.494768
  B      -1.522361      1.564837     -0.277916
  B      -1.012314      0.273180     -0.942620
6
Coordinates from ORCA-job B6_random_3d_seed1000_d3.00_q0_m5_R2SCAN-3C E -148.696175212563
  B       1.001297     -0.283697      0.953752
  B       1.567849     -1.520895      0.243117
  B       0.209965     -0.667907     -0.472096
  B      -0.237029      0.638930      0.485136
  B      -1.527004      1.559650     -0.270947
  B      -1.015078      0.273919     -0.938962
6
Coordinates from ORCA-job B6_random_3d_seed1000_d3.00_q0_m5_R2SCAN-3C E -148.696210337473
  B       1.004481     -0.278806      0.951895
  B       1.558943     -1.530347      0.250497
  B       0.216127     -0.662123     -0.476228
  B      -0.230405      0.642370      0.479736
  B      -1.536225      1.552301     -0.262342
  B      -1.012921      0.276605     -0.943558
6
Coordinates from ORCA-job B6_random_3d_seed1000_d3.00_q0_m5_R2SCAN-3C E -148.696225633348
  B       1.006943     -0.276908      0.948673
  B       1.554348     -1.534185      0.253458
  B       0.217808     -0.659659     -0.478352
  B      -0.228930      0.645519      0.482598
  B      -1.539181      1.547193     -0.261019
  B      -1.010989      0.278040     -0.945358
6
Coordinates from ORCA-job B6_random_3d_seed1000_d3.00_q0_m5_R2SCAN-3C E -148.696229268437
  B       1.007870     -0.276894      0.947663
  B       1.552051     -1.535854      0.254827
  B       0.219144     -0.657475     -0.478736
  B      -0.227765      0.647057      0.482313
  B      -1.540910      1.545311     -0.259741
  B      -1.010390      0.277854     -0.946327
6
Coordinates from ORCA-job B6_random_3d_seed1000_d3.00_q0_m5_R2SCAN-3C E -148.696231433025
  B       1.008010     -0.277349      0.947481
  B       1.551005     -1.536653      0.254935
  B       0.220097     -0.656103     -0.478635
  B      -0.227144      0.648364      0.482217
  B      -1.541702      1.544541     -0.259440
  B      -1.010266      0.277200     -0.946559
6
Coordinates from ORCA-job B6_random_3d_seed1000_d3.00_q0_m5_R2SCAN-3C E -148.696233673064
  B       1.007776     -0.278133      0.947259
  B       1.550201     -1.537746      0.254905
  B       0.221237     -0.654337     -0.478308
  B      -0.226318      0.650304      0.482209
  B      -1.542487      1.543550     -0.259242
  B      -1.010409      0.276361     -0.946822
6
Coordinates from ORCA-job B6_random_3d_seed1000_d3.00_q0_m5_R2SCAN-3C E -148.696236347617
  B       1.007459     -0.278748      0.947545
  B       1.550065     -1.537973      0.254659
  B       0.221713     -0.653759     -0.478133
  B      -0.225844      0.651296      0.481956
  B      -1.542767      1.543299     -0.259204
  B      -1.010627      0.275884     -0.946823
6
Coordinates from ORCA-job B6_random_3d_seed1000_d3.00_q0_m5_R2SCAN-3C E -148.696250536565
  B       1.006010     -0.281048      0.948978
  B       1.549953     -1.538351      0.253447
  B       0.222800     -0.652501     -0.477350
  B      -0.223771      0.654862      0.480699
  B      -1.544014      1.542442     -0.259140
  B      -1.010978      0.274596     -0.946634
6
Coordinates from ORCA-job B6_random_3d_seed1000_d3.00_q0_m5_R2SCAN-3C E -148.696274337932
  B       1.003887     -0.283893      0.950795
  B       1.550217     -1.538567      0.252082
  B       0.223108     -0.652105     -0.476124
  B      -0.220408      0.659711      0.478620
  B      -1.546230      1.540803     -0.258520
  B      -1.010575      0.274053     -0.946854
6
Coordinates from ORCA-job B6_random_3d_seed1000_d3.00_q0_m5_R2SCAN-3C E -148.696310340137
  B       1.001518     -0.286183      0.952749
  B       1.550994     -1.538008      0.251310
  B       0.221461     -0.654105     -0.474814
  B      -0.215939      0.664216      0.475206
  B      -1.549421      1.538548     -0.256566
  B      -1.008612      0.275533     -0.947886
6
Coordinates from ORCA-job B6_random_3d_seed1000_d3.00_q0_m5_R2SCAN-3C E -148.696341614463
  B       1.000992     -0.285432      0.952664
  B       1.551110     -1.537517      0.252791
  B       0.218714     -0.657430     -0.475179
  B      -0.213096      0.664908      0.472954
  B      -1.552084      1.536414     -0.254089
  B      -1.005636      0.279057     -0.949141
6
Coordinates from ORCA-job B6_random_3d_seed1000_d3.00_q0_m5_R2SCAN-3C E -148.696357037600
  B       1.001217     -0.283848      0.951748
  B       1.551404     -1.536793      0.254395
  B       0.214997     -0.661288     -0.475133
  B      -0.211200      0.664216      0.471729
  B      -1.554257      1.534469     -0.251999
  B      -1.002160      0.283244     -0.950741
6
Coordinates from ORCA-job B6_random_3d_seed1000_d3.00_q0_m5_R2SCAN-3C E -148.696358624916
  B       1.001218     -0.283897      0.951784
  B       1.552697     -1.535671      0.253433
  B       0.212885     -0.663050     -0.473566
  B      -0.211722      0.663676      0.472198
  B      -1.553816      1.534836     -0.252412
  B      -1.001263      0.284106     -0.951437
6
Coordinates from ORCA-job B6_random_3d_seed1000_d3.00_q0_m5_R2SCAN-3C E -148.696358775676
  B       1.001194     -0.284056      0.951824
  B       1.553270     -1.535196      0.252826
  B       0.212234     -0.663410     -0.472819
  B      -0.212154      0.663413      0.472673
  B      -1.553323      1.535214     -0.252867
  B      -1.001222      0.284036     -0.951637
6
Coordinates from ORCA-job B6_random_3d_seed1000_d3.00_q0_m5_R2SCAN-3C E -148.696358779841
  B       1.001208     -0.284052      0.951809
  B       1.553371     -1.535076      0.252733
  B       0.212152     -0.663478     -0.472726
  B      -0.212305      0.663257      0.472800
  B      -1.553165      1.535365     -0.252975
  B      -1.001261      0.283984     -0.951641
6
Coordinates from ORCA-job B6_random_3d_seed1000_d3.00_q0_m5_R2SCAN-3C E -148.696358729200
  B       1.001227     -0.284064      0.951750
  B       1.553669     -1.534796      0.252459
  B       0.211921     -0.663625     -0.472483
  B      -0.212733      0.662934      0.473211
  B      -1.552712      1.535707     -0.253323
  B      -1.001373      0.283843     -0.951614
6
Coordinates from ORCA-job B6_random_3d_seed1000_d3.00_q0_m5_R2SCAN-3C E -148.696358780613
  B       1.001222     -0.284042      0.951770
  B       1.553421     -1.535040      0.252691
  B       0.212119     -0.663485     -0.472688
  B      -0.212410      0.663194      0.472914
  B      -1.553062      1.535424     -0.253051
  B      -1.001290      0.283950     -0.951636
6
Coordinates from ORCA-job B6_random_3d_seed1000_d3.00_q0_m5_R2SCAN-3C E -148.696358785867
  B       1.001277     -0.283980      0.951684
  B       1.553140     -1.535346      0.252959
  B       0.212332     -0.663283     -0.472853
  B      -0.212153      0.663448      0.472716
  B      -1.553393      1.535110     -0.252774
  B      -1.001202      0.284051     -0.951732
6
Coordinates from ORCA-job B6_random_3d_seed1000_d3.00_q0_m5_R2SCAN-3C E -148.696358788088
  B       1.001270     -0.283990      0.951706
  B       1.553199     -1.535265      0.252897
  B       0.212280     -0.663333     -0.472818
  B      -0.212218      0.663378      0.472763
  B      -1.553308      1.535186     -0.252836
  B      -1.001223      0.284024     -0.951712
