6
Coordinates from ORCA-job B6_random_3d_seed1000_d3.00_q0_m5_R2SCAN-3C E -148.696358788088
  B           1.00126953523730     -0.28398969303778      0.95170609489306
  B           1.55319869091355     -1.53526479815727      0.25289683512453
  B           0.21227996889305     -0.66333297858008     -0.47281814351196
  B          -0.21221770962216      0.66337752935019      0.47276285351915
  B          -1.55330782467911      1.53518619096945     -0.25283579725218
  B          -1.00122265074263      0.28402374945550     -0.95171182277259
