6
Coordinates from ORCA-job B6_compact_planar_triangle_d1.60_q0_m3_R2SCAN-3C E -148.690985066863
  B          -1.55937685377791     -0.90034256060783     -0.00000003129308
  B           0.00000000111238     -1.17312061656485      0.00000002614319
  B           1.55937685662320     -0.90034256352110     -0.00000003017547
  B          -1.01595567302720      0.58656681309640      0.00000003715937
  B           1.01595567004490      0.58656681021766      0.00000003573061
  B          -0.00000000097537      1.80067212737971     -0.00000003756462
