6
Coordinates from ORCA-job B6_compact_planar_triangle_d1.60_q0_m3_R2SCAN-3C E -148.628351454699
  B      -1.600000     -0.923760      0.000000
  B       0.000000     -0.923760      0.000000
  B       1.600000     -0.923760      0.000000
  B      -0.800000      0.461880      0.000000
  B       0.800000      0.461880      0.000000
  B       0.000000      1.847521      0.000000
6
Coordinates from ORCA-job B6_compact_planar_triangle_d1.60_q0_m3_R2SCAN-3C E -148.651404547860
  B      -1.597699     -0.922419      0.000000
  B      -0.000000     -0.963408      0.000000
  B       1.597699     -0.922419      0.000000
  B      -0.834327      0.481692     -0.000000
  B       0.834327      0.481692     -0.000000
  B       0.000000      1.844861      0.000000
6
Coordinates from ORCA-job B6_compact_planar_triangle_d1.60_q0_m3_R2SCAN-3C E -148.669462661875
  B      -1.590264     -0.918117     -0.000000
  B       0.000000     -1.008701      0.000000
  B       1.590264     -0.918117     -0.000000
  B      -0.873550      0.504347     -0.000000
  B       0.873550      0.504347     -0.000000
  B       0.000000      1.836239      0.000000
6
Coordinates from ORCA-job B6_compact_planar_triangle_d1.60_q0_m3_R2SCAN-3C E -148.677639829706
  B      -1.583753     -0.914363     -0.000000
  B       0.000000     -1.038545      0.000000
  B       1.583753     -0.914363     -0.000000
  B      -0.899410      0.519293     -0.000000
  B       0.899410      0.519293     -0.000000
  B       0.000000      1.828684      0.000000
6
Coordinates from ORCA-job B6_compact_planar_triangle_d1.60_q0_m3_R2SCAN-3C E -148.685669433106
  B      -1.573446     -0.908460     -0.000000
  B       0.000000     -1.083212      0.000000
  B       1.573446     -0.908460     -0.000000
  B      -0.938109      0.541658      0.000000
  B       0.938109      0.541658      0.000000
  B       0.000000      1.816815     -0.000000
6
Coordinates from ORCA-job B6_compact_planar_triangle_d1.60_q0_m3_R2SCAN-3C E -148.690130764543
  B      -1.561958     -0.901919      0.000000
  B       0.000000     -1.135127     -0.000000
  B       1.561958     -0.901919      0.000000
  B      -0.983087      0.567630     -0.000000
  B       0.983087      0.567630     -0.000000
  B      -0.000000      1.803706      0.000000
6
Coordinates from ORCA-job B6_compact_planar_triangle_d1.60_q0_m3_R2SCAN-3C E -148.690899893262
  B      -1.557993     -0.899613     -0.000000
  B       0.000000     -1.161915     -0.000000
  B       1.557993     -0.899613     -0.000000
  B      -1.006287      0.581004      0.000000
  B       1.006287      0.581004      0.000000
  B      -0.000000      1.799132     -0.000000
6
Coordinates from ORCA-job B6_compact_planar_triangle_d1.60_q0_m3_R2SCAN-3C E -148.690979328730
  B      -1.558007     -0.899581      0.000000
  B       0.000000     -1.171754     -0.000000
  B       1.558007     -0.899581      0.000000
  B      -1.014798      0.585900     -0.000000
  B       1.014798      0.585900     -0.000000
  B      -0.000000      1.799115      0.000000
6
Coordinates from ORCA-job B6_compact_planar_triangle_d1.60_q0_m3_R2SCAN-3C E -148.690984315283
  B      -1.558753     -0.899996     -0.000000
  B       0.000000     -1.173311      0.000000
  B       1.558753     -0.899996     -0.000000
  B      -1.016137      0.586668      0.000000
  B       1.016137      0.586668      0.000000
  B      -0.000000      1.799965     -0.000000
6
Coordinates from ORCA-job B6_compact_planar_triangle_d1.60_q0_m3_R2SCAN-3C E -148.690985030747
  B      -1.559265     -0.900281      0.000000
  B       0.000000     -1.173280     -0.000000
  B       1.559265     -0.900281      0.000000
  B      -1.016100      0.586648     -0.000000
  B       1.016100      0.586648     -0.000000
  B       0.000000      1.800545      0.000000
6
Coordinates from ORCA-job B6_compact_planar_triangle_d1.60_q0_m3_R2SCAN-3C E -148.690985066863
  B      -1.559377     -0.900343     -0.000000
  B       0.000000     -1.173121      0.000000
  B       1.559377     -0.900343     -0.000000
  B      -1.015956      0.586567      0.000000
  B       1.015956      0.586567      0.000000
  B      -0.000000      1.800672     -0.000000
