6
Coordinates from ORCA-job B6_trigonal_prism_d3.00_q0_m1_R2SCAN-3C E -148.717723234859
  B           0.74729986258497      0.74707453324652     -0.88117620672900
  B          -0.13100565489554      0.15421420876093     -2.00480116387939
  B          -0.40894048992000     -0.58326894849612     -0.63750359236979
  B           0.28816553618182      0.65241653397135      0.63664914721321
  B          -0.22124538818099      0.04713226856553      2.00222449544283
  B          -0.27427386577027     -1.01756861604820      0.88460732032214
