6
Coordinates from ORCA-job B6_trigonal_prism_d3.00_q0_m1_R2SCAN-3C E -147.972014459950
  B       1.500000      0.866025     -1.500000
  B      -1.500000      0.866025     -1.500000
  B      -0.000000     -1.732051     -1.500000
  B       1.500000      0.866025      1.500000
  B      -1.500000      0.866025      1.500000
  B      -0.000000     -1.732051      1.500000
6
Coordinates from ORCA-job B6_trigonal_prism_d3.00_q0_m1_R2SCAN-3C E -147.989959750856
  B       1.467460      0.858703     -1.469348
  B      -1.467460      0.858703     -1.469348
  B      -0.000000     -1.717407     -1.468297
  B       1.467460      0.858703      1.469348
  B      -1.467460      0.858703      1.469348
  B      -0.000000     -1.717407      1.468297
6
Coordinates from ORCA-job B6_trigonal_prism_d3.00_q0_m1_R2SCAN-3C E -148.008971066754
  B       1.434982      0.851540     -1.438361
  B      -1.434983      0.851539     -1.438361
  B      -0.000000     -1.703079     -1.436575
  B       1.434983      0.851539      1.438361
  B      -1.434982      0.851540      1.438361
  B       0.000000     -1.703079      1.436575
6
Coordinates from ORCA-job B6_trigonal_prism_d3.00_q0_m1_R2SCAN-3C E -148.039641176893
  B       1.386618      0.840827     -1.391321
  B      -1.386618      0.840827     -1.391321
  B      -0.000000     -1.681654     -1.388932
  B       1.386618      0.840827      1.391321
  B      -1.386618      0.840827      1.391321
  B       0.000000     -1.681654      1.388932
6
Coordinates from ORCA-job B6_trigonal_prism_d3.00_q0_m1_R2SCAN-3C E -148.090915784332
  B       1.314858      0.824841     -1.319498
  B      -1.314858      0.824841     -1.319500
  B       0.000000     -1.649683     -1.317393
  B       1.314857      0.824841      1.319498
  B      -1.314858      0.824841      1.319500
  B       0.000000     -1.649682      1.317393
6
Coordinates from ORCA-job B6_trigonal_prism_d3.00_q0_m1_R2SCAN-3C E -148.151221441863
  B       1.241000      0.808743     -1.243336
  B      -1.241000      0.808743     -1.243338
  B       0.000000     -1.617486     -1.243547
  B       1.240999      0.808743      1.243336
  B      -1.240999      0.808743      1.243338
  B       0.000000     -1.617485      1.243547
6
Coordinates from ORCA-job B6_trigonal_prism_d3.00_q0_m1_R2SCAN-3C E -148.218688719467
  B       1.167685      0.792867     -1.165690
  B      -1.167686      0.792868     -1.165694
  B       0.000000     -1.585736     -1.170462
  B       1.167685      0.792867      1.165690
  B      -1.167685      0.792868      1.165694
  B       0.000000     -1.585735      1.170461
6
Coordinates from ORCA-job B6_trigonal_prism_d3.00_q0_m1_R2SCAN-3C E -148.291428555790
  B       1.094859      0.776668     -1.087011
  B      -1.094859      0.776668     -1.087014
  B       0.000000     -1.553336     -1.098835
  B       1.094858      0.776667      1.087011
  B      -1.094859      0.776668      1.087014
  B       0.000000     -1.553335      1.098835
6
Coordinates from ORCA-job B6_trigonal_prism_d3.00_q0_m1_R2SCAN-3C E -148.365673452461
  B       1.022713      0.758625     -1.008897
  B      -1.022713      0.758626     -1.008900
  B       0.000000     -1.517250     -1.028891
  B       1.022717      0.758625      1.008897
  B      -1.022718      0.758626      1.008900
  B       0.000000     -1.517252      1.028892
6
Coordinates from ORCA-job B6_trigonal_prism_d3.00_q0_m1_R2SCAN-3C E -148.433548916007
  B       0.948316      0.737050     -0.933857
  B      -0.948317      0.737051     -0.933860
  B       0.000000     -1.474101     -0.969655
  B       0.948320      0.737051      0.933857
  B      -0.948320      0.737051      0.933860
  B       0.000000     -1.474103      0.969655
6
Coordinates from ORCA-job B6_trigonal_prism_d3.00_q0_m1_R2SCAN-3C E -148.487096474120
  B       0.877257      0.702543     -0.877223
  B      -0.877257      0.702543     -0.877226
  B       0.000000     -1.405085     -0.919991
  B       0.877263      0.702544      0.877223
  B      -0.877263      0.702544      0.877225
  B      -0.000000     -1.405089      0.919992
6
Coordinates from ORCA-job B6_trigonal_prism_d3.00_q0_m1_R2SCAN-3C E -148.527170255719
  B       0.828157      0.651531     -0.854370
  B      -0.828157      0.651531     -0.854372
  B      -0.000000     -1.303063     -0.891818
  B       0.828170      0.651535      0.854370
  B      -0.828170      0.651534      0.854372
  B      -0.000000     -1.303068      0.891817
6
Coordinates from ORCA-job B6_trigonal_prism_d3.00_q0_m1_R2SCAN-3C E -148.561052904325
  B       0.809188      0.596321     -0.847474
  B      -0.809187      0.596320     -0.847475
  B      -0.000000     -1.192651     -0.876084
  B       0.809197      0.596332      0.847478
  B      -0.809197      0.596331      0.847479
  B      -0.000000     -1.192654      0.876076
6
Coordinates from ORCA-job B6_trigonal_prism_d3.00_q0_m1_R2SCAN-3C E -148.587533884309
  B       0.786181      0.541078     -0.871278
  B      -0.786180      0.541077     -0.871279
  B      -0.000000     -1.082196     -0.877232
  B       0.786173      0.541116      0.871297
  B      -0.786173      0.541115      0.871298
  B      -0.000000     -1.082190      0.877194
6
Coordinates from ORCA-job B6_trigonal_prism_d3.00_q0_m1_R2SCAN-3C E -148.582355966987
  B       0.826736      0.481650     -0.864786
  B      -0.826735      0.481646     -0.864789
  B      -0.000002     -0.963414     -0.825369
  B       0.826756      0.481801      0.864844
  B      -0.826754      0.481797      0.864847
  B      -0.000002     -0.963480      0.825253
6
Coordinates from ORCA-job B6_trigonal_prism_d3.00_q0_m1_R2SCAN-3C E -148.593786864387
  B       0.788748      0.503314     -0.907289
  B      -0.788741      0.503302     -0.907295
  B      -0.000007     -1.006856     -0.844284
  B       0.788699      0.503605      0.907419
  B      -0.788692      0.503592      0.907426
  B      -0.000007     -1.006958      0.844025
6
Coordinates from ORCA-job B6_trigonal_prism_d3.00_q0_m1_R2SCAN-3C E -148.593647412357
  B       0.802341      0.515630     -0.897857
  B      -0.802297      0.515549     -0.897919
  B      -0.000043     -1.031807     -0.852515
  B       0.802196      0.516393      0.898228
  B      -0.802153      0.516309      0.898292
  B      -0.000044     -1.032074      0.851771
6
Coordinates from ORCA-job B6_trigonal_prism_d3.00_q0_m1_R2SCAN-3C E -148.594150463777
  B       0.795407      0.508911     -0.907183
  B      -0.795245      0.508601     -0.907395
  B      -0.000161     -1.018814     -0.846765
  B       0.795145      0.510650      0.907943
  B      -0.794983      0.510336      0.908159
  B      -0.000164     -1.019684      0.845241
6
Coordinates from ORCA-job B6_trigonal_prism_d3.00_q0_m1_R2SCAN-3C E -148.594180427467
  B       0.796276      0.507172     -0.906346
  B      -0.794848      0.504415     -0.908316
  B      -0.001421     -1.016043     -0.851772
  B       0.795175      0.513074      0.909014
  B      -0.793734      0.510312      0.910996
  B      -0.001449     -1.018930      0.846425
6
Coordinates from ORCA-job B6_trigonal_prism_d3.00_q0_m1_R2SCAN-3C E -148.589261372457
  B       0.815863      0.463738     -0.882391
  B      -0.785924      0.399799     -0.936618
  B      -0.031719     -0.949040     -0.976577
  B       0.796833      0.576023      0.936334
  B      -0.758841      0.509309      0.986102
  B      -0.036212     -0.999828      0.873149
6
Coordinates from ORCA-job B6_trigonal_prism_d3.00_q0_m1_R2SCAN-3C E -148.594058444075
  B       0.812268      0.489299     -0.887146
  B      -0.804586      0.475104     -0.922990
  B      -0.002282     -1.009390     -0.921829
  B       0.796150      0.545379      0.908652
  B      -0.774143      0.500422      0.957120
  B      -0.027408     -1.000813      0.866194
6
Coordinates from ORCA-job B6_trigonal_prism_d3.00_q0_m1_R2SCAN-3C E -148.595884058019
  B       0.797922      0.515186     -0.896580
  B      -0.770135      0.476543     -0.910087
  B      -0.006260     -0.986159     -0.874481
  B       0.818454      0.530677      0.869662
  B      -0.798078      0.475030      0.932654
  B      -0.041902     -1.011277      0.878833
6
Coordinates from ORCA-job B6_trigonal_prism_d3.00_q0_m1_R2SCAN-3C E -148.600552663855
  B       0.816430      0.548734     -0.908535
  B      -0.747194      0.465223     -0.915916
  B      -0.019665     -0.964309     -0.852215
  B       0.824429      0.532179      0.825451
  B      -0.790858      0.417497      0.941940
  B      -0.083142     -0.999323      0.909275
6
Coordinates from ORCA-job B6_trigonal_prism_d3.00_q0_m1_R2SCAN-3C E -148.604990565832
  B       0.849094      0.572876     -0.925076
  B      -0.739814      0.477519     -0.948855
  B      -0.025424     -0.952478     -0.826680
  B       0.814349      0.535044      0.778602
  B      -0.790755      0.376553      0.981435
  B      -0.107451     -1.009514      0.940574
6
Coordinates from ORCA-job B6_trigonal_prism_d3.00_q0_m1_R2SCAN-3C E -148.610463039923
  B       0.888941      0.586687     -0.948817
  B      -0.738283      0.515701     -1.013882
  B      -0.029803     -0.946432     -0.772668
  B       0.767013      0.525787      0.735164
  B      -0.793751      0.366620      1.046927
  B      -0.094118     -1.048362      0.953276
6
Coordinates from ORCA-job B6_trigonal_prism_d3.00_q0_m1_R2SCAN-3C E -148.617427822502
  B       0.889074      0.597132     -0.947452
  B      -0.682231      0.559936     -1.089621
  B      -0.045057     -0.928893     -0.708504
  B       0.737744      0.519636      0.644205
  B      -0.813414      0.316841      1.126358
  B      -0.086115     -1.064654      0.975014
6
Coordinates from ORCA-job B6_trigonal_prism_d3.00_q0_m1_R2SCAN-3C E -148.627466358960
  B       0.891464      0.596879     -0.938263
  B      -0.644740      0.564677     -1.179616
  B      -0.071429     -0.914528     -0.663304
  B       0.692542      0.513520      0.621485
  B      -0.804906      0.304519      1.218627
  B      -0.062930     -1.065067      0.941072
6
Coordinates from ORCA-job B6_trigonal_prism_d3.00_q0_m1_R2SCAN-3C E -148.640876471325
  B       0.880617      0.595825     -0.920289
  B      -0.617397      0.521938     -1.252628
  B      -0.099088     -0.905972     -0.673881
  B       0.669121      0.531075      0.654914
  B      -0.775882      0.320555      1.303083
  B      -0.057372     -1.063420      0.888800
6
Coordinates from ORCA-job B6_trigonal_prism_d3.00_q0_m1_R2SCAN-3C E -148.651680347928
  B       0.879022      0.607824     -0.903521
  B      -0.605307      0.476345     -1.299211
  B      -0.124224     -0.899734     -0.699544
  B       0.666925      0.554895      0.683713
  B      -0.744606      0.322624      1.350492
  B      -0.071810     -1.061954      0.868071
6
Coordinates from ORCA-job B6_trigonal_prism_d3.00_q0_m1_R2SCAN-3C E -148.665623583837
  B       0.872081      0.633412     -0.886807
  B      -0.584923      0.438469     -1.388215
  B      -0.152413     -0.904727     -0.718217
  B       0.669326      0.584751      0.708371
  B      -0.701155      0.304219      1.424426
  B      -0.102917     -1.056125      0.860442
6
Coordinates from ORCA-job B6_trigonal_prism_d3.00_q0_m1_R2SCAN-3C E -148.678108223442
  B       0.848255      0.662284     -0.843095
  B      -0.547218      0.397460     -1.490224
  B      -0.180861     -0.898786     -0.713822
  B       0.656132      0.605685      0.701573
  B      -0.638449      0.284738      1.503316
  B      -0.137858     -1.051381      0.842252
6
Coordinates from ORCA-job B6_trigonal_prism_d3.00_q0_m1_R2SCAN-3C E -148.687246705576
  B       0.820967      0.694975     -0.861316
  B      -0.494202      0.375594     -1.580740
  B      -0.204165     -0.916285     -0.706424
  B       0.660023      0.649483      0.721156
  B      -0.590209      0.243426      1.591970
  B      -0.192414     -1.047194      0.835353
6
Coordinates from ORCA-job B6_trigonal_prism_d3.00_q0_m1_R2SCAN-3C E -148.694108122652
  B       0.808601      0.704586     -0.836151
  B      -0.468273      0.346443     -1.651157
  B      -0.220499     -0.908826     -0.732901
  B       0.637529      0.662096      0.722537
  B      -0.548373      0.243837      1.668650
  B      -0.208985     -1.048137      0.829020
6
Coordinates from ORCA-job B6_trigonal_prism_d3.00_q0_m1_R2SCAN-3C E -148.698066625494
  B       0.798814      0.714452     -0.832062
  B      -0.447987      0.323128     -1.705617
  B      -0.230274     -0.896291     -0.736899
  B       0.624190      0.668880      0.730769
  B      -0.516708      0.225595      1.715897
  B      -0.228035     -1.035764      0.827912
6
Coordinates from ORCA-job B6_trigonal_prism_d3.00_q0_m1_R2SCAN-3C E -148.701703227439
  B       0.781453      0.715660     -0.836465
  B      -0.420126      0.307598     -1.755606
  B      -0.234399     -0.878014     -0.740022
  B       0.605100      0.668196      0.731072
  B      -0.489235      0.208348      1.770637
  B      -0.242794     -1.021787      0.830384
6
Coordinates from ORCA-job B6_trigonal_prism_d3.00_q0_m1_R2SCAN-3C E -148.706234861866
  B       0.758072      0.725946     -0.842554
  B      -0.376270      0.278481     -1.831688
  B      -0.246072     -0.836827     -0.730983
  B       0.571884      0.661260      0.730449
  B      -0.441841      0.175886      1.831696
  B      -0.265771     -1.004746      0.843080
6
Coordinates from ORCA-job B6_trigonal_prism_d3.00_q0_m1_R2SCAN-3C E -148.710420844190
  B       0.748224      0.740571     -0.868616
  B      -0.313869      0.249704     -1.898307
  B      -0.263853     -0.763698     -0.687023
  B       0.497867      0.629889      0.694896
  B      -0.389478      0.146119      1.911109
  B      -0.278892     -1.002585      0.847941
6
Coordinates from ORCA-job B6_trigonal_prism_d3.00_q0_m1_R2SCAN-3C E -148.714403739666
  B       0.720007      0.776008     -0.885211
  B      -0.236819      0.205288     -1.955883
  B      -0.282425     -0.684869     -0.662344
  B       0.440353      0.613833      0.656718
  B      -0.317507      0.101053      1.956509
  B      -0.323610     -1.011313      0.890211
6
Coordinates from ORCA-job B6_trigonal_prism_d3.00_q0_m1_R2SCAN-3C E -148.714784177214
  B       0.745618      0.805631     -0.922374
  B      -0.205432      0.183862     -1.997037
  B      -0.291679     -0.606910     -0.611074
  B       0.367545      0.568935      0.617930
  B      -0.285825      0.083293      1.993984
  B      -0.330227     -1.034810      0.918571
6
Coordinates from ORCA-job B6_trigonal_prism_d3.00_q0_m1_R2SCAN-3C E -148.715758658923
  B       0.739491      0.791485     -0.908797
  B      -0.217585      0.199757     -1.971478
  B      -0.295468     -0.647574     -0.632657
  B       0.397993      0.597077      0.635684
  B      -0.300035      0.092306      1.965151
  B      -0.324396     -1.033051      0.912098
6
Coordinates from ORCA-job B6_trigonal_prism_d3.00_q0_m1_R2SCAN-3C E -148.715949888363
  B       0.740813      0.787328     -0.908542
  B      -0.214052      0.201844     -1.966206
  B      -0.298192     -0.641628     -0.629368
  B       0.389374      0.594889      0.629782
  B      -0.297591      0.093353      1.961119
  B      -0.320352     -1.035785      0.913215
6
Coordinates from ORCA-job B6_trigonal_prism_d3.00_q0_m1_R2SCAN-3C E -148.716287024732
  B       0.751453      0.777897     -0.910011
  B      -0.210326      0.208000     -1.962638
  B      -0.310087     -0.634212     -0.627281
  B       0.370636      0.593401      0.623701
  B      -0.296680      0.095072      1.958987
  B      -0.304996     -1.040158      0.917242
6
Coordinates from ORCA-job B6_trigonal_prism_d3.00_q0_m1_R2SCAN-3C E -148.716618080457
  B       0.757298      0.768259     -0.907115
  B      -0.203671      0.207247     -1.964432
  B      -0.325586     -0.626453     -0.628271
  B       0.355722      0.597345      0.622657
  B      -0.293094      0.092173      1.961363
  B      -0.290668     -1.038572      0.915797
6
Coordinates from ORCA-job B6_trigonal_prism_d3.00_q0_m1_R2SCAN-3C E -148.717106364221
  B       0.759195      0.757012     -0.901078
  B      -0.188961      0.198047     -1.974247
  B      -0.350031     -0.615122     -0.631837
  B       0.338837      0.610919      0.626008
  B      -0.282697      0.082116      1.972258
  B      -0.276344     -1.032972      0.908896
6
Coordinates from ORCA-job B6_trigonal_prism_d3.00_q0_m1_R2SCAN-3C E -148.717496230678
  B       0.755844      0.752154     -0.893245
  B      -0.169592      0.179580     -1.988556
  B      -0.373059     -0.601050     -0.633344
  B       0.322866      0.628499      0.631864
  B      -0.263630      0.067175      1.984893
  B      -0.272429     -1.026359      0.898388
6
Coordinates from ORCA-job B6_trigonal_prism_d3.00_q0_m1_R2SCAN-3C E -148.717673780491
  B       0.750841      0.749077     -0.887587
  B      -0.147311      0.163216     -2.000345
  B      -0.395044     -0.588113     -0.634852
  B       0.304949      0.643653      0.634978
  B      -0.241876      0.054319      1.998221
  B      -0.271558     -1.022152      0.889585
6
Coordinates from ORCA-job B6_trigonal_prism_d3.00_q0_m1_R2SCAN-3C E -148.717709783235
  B       0.747782      0.749489     -0.883385
  B      -0.135994      0.154097     -2.004418
  B      -0.405286     -0.581266     -0.634301
  B       0.295585      0.649384      0.636699
  B      -0.229222      0.048475      1.999638
  B      -0.272864     -1.020179      0.885768
6
Coordinates from ORCA-job B6_trigonal_prism_d3.00_q0_m1_R2SCAN-3C E -148.717716376577
  B       0.745795      0.749011     -0.882862
  B      -0.131411      0.152393     -2.005153
  B      -0.408896     -0.580178     -0.635429
  B       0.292873      0.651140      0.637184
  B      -0.225178      0.047174      2.001369
  B      -0.273183     -1.019541      0.884889
6
Coordinates from ORCA-job B6_trigonal_prism_d3.00_q0_m1_R2SCAN-3C E -148.717717418431
  B       0.745513      0.748791     -0.882444
  B      -0.130957      0.152385     -2.005006
  B      -0.409628     -0.580735     -0.635925
  B       0.292777      0.651352      0.637643
  B      -0.224785      0.047193      2.001156
  B      -0.272920     -1.018986      0.884577
6
Coordinates from ORCA-job B6_trigonal_prism_d3.00_q0_m1_R2SCAN-3C E -148.717717945181
  B       0.745588      0.748496     -0.882198
  B      -0.130927      0.152575     -2.004976
  B      -0.410055     -0.581180     -0.636343
  B       0.292675      0.651358      0.637865
  B      -0.224798      0.047283      2.001238
  B      -0.272483     -1.018533      0.884414
6
Coordinates from ORCA-job B6_trigonal_prism_d3.00_q0_m1_R2SCAN-3C E -148.717718458961
  B       0.745729      0.748182     -0.881868
  B      -0.130752      0.152607     -2.005046
  B      -0.410596     -0.581453     -0.636788
  B       0.292257      0.651515      0.637998
  B      -0.224526      0.047259      2.001505
  B      -0.272112     -1.018110      0.884199
6
Coordinates from ORCA-job B6_trigonal_prism_d3.00_q0_m1_R2SCAN-3C E -148.717719261556
  B       0.746064      0.747451     -0.881158
  B      -0.130131      0.152589     -2.005277
  B      -0.411809     -0.581867     -0.637635
  B       0.290934      0.652154      0.638136
  B      -0.223514      0.046997      2.002142
  B      -0.271545     -1.017324      0.883791
6
Coordinates from ORCA-job B6_trigonal_prism_d3.00_q0_m1_R2SCAN-3C E -148.717720255871
  B       0.746345      0.747297     -0.881081
  B      -0.130393      0.152898     -2.005152
  B      -0.411400     -0.582170     -0.637741
  B       0.290523      0.652116      0.637898
  B      -0.223298      0.047059      2.002216
  B      -0.271778     -1.017199      0.883860
6
Coordinates from ORCA-job B6_trigonal_prism_d3.00_q0_m1_R2SCAN-3C E -148.717723039256
  B       0.747349      0.746935     -0.880969
  B      -0.131049      0.154111     -2.004875
  B      -0.409450     -0.583303     -0.637803
  B       0.288397      0.652352      0.636818
  B      -0.221613      0.047140      2.002404
  B      -0.273635     -1.017235      0.884426
6
Coordinates from ORCA-job B6_trigonal_prism_d3.00_q0_m1_R2SCAN-3C E -148.717723220675
  B       0.747370      0.747061     -0.881147
  B      -0.131081      0.154230     -2.004768
  B      -0.408972     -0.583316     -0.637577
  B       0.288186      0.652358      0.636638
  B      -0.221331      0.047162      2.002277
  B      -0.274172     -1.017496      0.884577
6
Coordinates from ORCA-job B6_trigonal_prism_d3.00_q0_m1_R2SCAN-3C E -148.717723234859
  B       0.747300      0.747075     -0.881176
  B      -0.131006      0.154214     -2.004801
  B      -0.408940     -0.583269     -0.637504
  B       0.288166      0.652417      0.636649
  B      -0.221245      0.047132      2.002224
  B      -0.274274     -1.017569      0.884607
