6
Coordinates from ORCA-job B6_octahedral_3d_d1.60_q0_m5_R2SCAN-3C E -148.582519727413
  B       1.131371      0.000000      0.000000
  B      -1.131371      0.000000      0.000000
  B       0.000000      1.131371      0.000000
  B       0.000000     -1.131371      0.000000
  B       0.000000      0.000000      1.131371
  B       0.000000      0.000000     -1.131371
6
Coordinates from ORCA-job B6_octahedral_3d_d1.60_q0_m5_R2SCAN-3C E -148.609546442310
  B       1.159279      0.010422      0.010371
  B      -1.159238     -0.010422     -0.010270
  B       0.010346      1.159259      0.010295
  B      -0.010498     -1.159256     -0.010437
  B       0.010376      0.010364      1.159284
  B      -0.010265     -0.010367     -1.159243
6
Coordinates from ORCA-job B6_octahedral_3d_d1.60_q0_m5_R2SCAN-3C E -148.624668059553
  B       1.187177      0.021652      0.021420
  B      -1.187061     -0.021658     -0.021148
  B       0.021441      1.187163      0.021256
  B      -0.021871     -1.187151     -0.021644
  B       0.021440      0.021444      1.187127
  B      -0.021125     -0.021451     -1.187010
6
Coordinates from ORCA-job B6_octahedral_3d_d1.60_q0_m5_R2SCAN-3C E -148.630128314394
  B       1.209801      0.033803      0.033254
  B      -1.209669     -0.033811     -0.032854
  B       0.033517      1.209930      0.033131
  B      -0.034107     -1.209918     -0.033665
  B       0.033277      0.033386      1.209552
  B      -0.032819     -0.033389     -1.209419
6
Coordinates from ORCA-job B6_octahedral_3d_d1.60_q0_m5_R2SCAN-3C E -148.630926707526
  B       1.217731      0.041083      0.040151
  B      -1.217626     -0.041083     -0.039725
  B       0.040804      1.218078      0.040207
  B      -0.041388     -1.218088     -0.040738
  B       0.040162      0.040449      1.217207
  B      -0.039683     -0.040440     -1.217102
6
Coordinates from ORCA-job B6_octahedral_3d_d1.60_q0_m5_R2SCAN-3C E -148.631127329660
  B       1.219884      0.045944      0.044448
  B      -1.219814     -0.045930     -0.044045
  B       0.045706      1.220545      0.044815
  B      -0.046224     -1.220583     -0.045291
  B       0.044437      0.045004      1.218981
  B      -0.043990     -0.044979     -1.218908
6
Coordinates from ORCA-job B6_octahedral_3d_d1.60_q0_m5_R2SCAN-3C E -148.631196985198
  B       1.219531      0.049141      0.046763
  B      -1.219487     -0.049114     -0.046410
  B       0.048969      1.220660      0.047627
  B      -0.049400     -1.220724     -0.048028
  B       0.046714      0.047722      1.218069
  B      -0.046327     -0.047685     -1.218021
6
Coordinates from ORCA-job B6_octahedral_3d_d1.60_q0_m5_R2SCAN-3C E -148.631218378173
  B       1.218531      0.050427      0.046916
  B      -1.218498     -0.050392     -0.046612
  B       0.050328      1.220249      0.048420
  B      -0.050692     -1.220324     -0.048761
  B       0.046816      0.048397      1.216379
  B      -0.046485     -0.048356     -1.216342
6
Coordinates from ORCA-job B6_octahedral_3d_d1.60_q0_m5_R2SCAN-3C E -148.631256652866
  B       1.217018      0.052455      0.045933
  B      -1.216995     -0.052408     -0.045722
  B       0.052527      1.220284      0.049152
  B      -0.052775     -1.220371     -0.049389
  B       0.045699      0.048829      1.213078
  B      -0.045474     -0.048789     -1.213051
6
Coordinates from ORCA-job B6_octahedral_3d_d1.60_q0_m5_R2SCAN-3C E -148.626647259130
  B       1.180292      0.101880      0.020963
  B      -1.180488     -0.101482     -0.022838
  B       0.106034      1.221914      0.065807
  B      -0.103671     -1.222358     -0.063734
  B       0.017404      0.058212      1.132323
  B      -0.019570     -0.058166     -1.132522
6
Coordinates from ORCA-job B6_octahedral_3d_d1.60_q0_m5_R2SCAN-3C E -148.631681667154
  B       1.204416      0.066580      0.034482
  B      -1.204524     -0.066352     -0.035155
  B       0.068390      1.220878      0.054868
  B      -0.067452     -1.220991     -0.054119
  B       0.033088      0.051647      1.184865
  B      -0.033919     -0.051762     -1.184941
6
Coordinates from ORCA-job B6_octahedral_3d_d1.60_q0_m5_R2SCAN-3C E -148.631994757108
  B       1.203375      0.065881      0.031346
  B      -1.203479     -0.065675     -0.032011
  B       0.067937      1.221024      0.056002
  B      -0.066992     -1.221131     -0.055243
  B       0.029956      0.052576      1.183031
  B      -0.030797     -0.052676     -1.183125
6
Coordinates from ORCA-job B6_octahedral_3d_d1.60_q0_m5_R2SCAN-3C E -148.632395611527
  B       1.201411      0.066803      0.027783
  B      -1.201518     -0.066615     -0.028478
  B       0.069222      1.221608      0.058283
  B      -0.068222     -1.221720     -0.057471
  B       0.026364      0.054528      1.179941
  B      -0.027257     -0.054603     -1.180057
6
Coordinates from ORCA-job B6_octahedral_3d_d1.60_q0_m5_R2SCAN-3C E -148.632888504307
  B       1.198789      0.068025      0.023746
  B      -1.198900     -0.067855     -0.024480
  B       0.070880      1.222331      0.060969
  B      -0.069815     -1.222450     -0.060099
  B       0.022305      0.056846      1.176611
  B      -0.023259     -0.056896     -1.176746
6
Coordinates from ORCA-job B6_octahedral_3d_d1.60_q0_m5_R2SCAN-3C E -148.633434524594
  B       1.196027      0.069008      0.019772
  B      -1.196142     -0.068856     -0.020530
  B       0.072316      1.223316      0.063737
  B      -0.071203     -1.223441     -0.062826
  B       0.018347      0.059292      1.174115
  B      -0.019345     -0.059319     -1.174268
6
Coordinates from ORCA-job B6_octahedral_3d_d1.60_q0_m5_R2SCAN-3C E -148.633999304740
  B       1.193412      0.069552      0.016255
  B      -1.193528     -0.069418     -0.017017
  B       0.073297      1.224687      0.066358
  B      -0.072165     -1.224812     -0.065432
  B       0.014890      0.061675      1.172942
  B      -0.015906     -0.061684     -1.173107
6
Coordinates from ORCA-job B6_octahedral_3d_d1.60_q0_m5_R2SCAN-3C E -148.635702709881
  B       1.191709      0.069963      0.006866
  B      -1.191818     -0.069921     -0.007430
  B       0.074526      1.227738      0.073335
  B      -0.073484     -1.227884     -0.072660
  B       0.005661      0.068364      1.172156
  B      -0.006594     -0.068259     -1.172267
6
Coordinates from ORCA-job B6_octahedral_3d_d1.60_q0_m5_R2SCAN-3C E -148.637431585401
  B       1.197760      0.070716     -0.002723
  B      -1.197839     -0.070740      0.002460
  B       0.075587      1.230616      0.078486
  B      -0.074735     -1.230791     -0.078291
  B      -0.003933      0.073261      1.171709
  B       0.003159     -0.073062     -1.171641
6
Coordinates from ORCA-job B6_octahedral_3d_d1.60_q0_m5_R2SCAN-3C E -148.639335727539
  B       1.202089      0.075218     -0.017155
  B      -1.202090     -0.075354      0.017121
  B       0.080892      1.236389      0.084708
  B      -0.080248     -1.236627     -0.084918
  B      -0.018660      0.078454      1.165615
  B       0.018017     -0.078080     -1.165371
6
Coordinates from ORCA-job B6_octahedral_3d_d1.60_q0_m5_R2SCAN-3C E -148.641071967825
  B       1.233440      0.081993     -0.030934
  B      -1.233281     -0.082289      0.031614
  B       0.086646      1.242274      0.085411
  B      -0.086620     -1.242684     -0.086843
  B      -0.032813      0.078388      1.160215
  B       0.032628     -0.077681     -1.159464
6
Coordinates from ORCA-job B6_octahedral_3d_d1.60_q0_m5_R2SCAN-3C E -148.641334677805
  B       1.232268      0.099221     -0.058006
  B      -1.231966     -0.099550      0.058308
  B       0.106700      1.255506      0.087701
  B      -0.106590     -1.256038     -0.088785
  B      -0.062047      0.076333      1.130910
  B       0.061635     -0.075473     -1.130127
6
Coordinates from ORCA-job B6_octahedral_3d_d1.60_q0_m5_R2SCAN-3C E -148.643848490194
  B       1.312522      0.110673     -0.062495
  B      -1.311889     -0.111406      0.064302
  B       0.112288      1.250311      0.062018
  B      -0.113520     -1.251434     -0.065484
  B      -0.065622      0.049764      1.125648
  B       0.066221     -0.047908     -1.123989
6
Coordinates from ORCA-job B6_octahedral_3d_d1.60_q0_m5_R2SCAN-3C E -148.643773171119
  B       1.283145      0.099417     -0.036835
  B      -1.282824     -0.099570      0.037663
  B       0.101126      1.239948      0.059807
  B      -0.101552     -1.240655     -0.061534
  B      -0.037790      0.049203      1.144486
  B       0.037896     -0.048344     -1.143586
6
Coordinates from ORCA-job B6_octahedral_3d_d1.60_q0_m5_R2SCAN-3C E -148.644588338027
  B       1.282023      0.103034     -0.054475
  B      -1.281629     -0.103434      0.055550
  B       0.105946      1.234890      0.045555
  B      -0.106536     -1.235667     -0.047370
  B      -0.058758      0.032203      1.130370
  B       0.058954     -0.031026     -1.129630
6
Coordinates from ORCA-job B6_octahedral_3d_d1.60_q0_m5_R2SCAN-3C E -148.644695943034
  B       1.294265      0.108396     -0.058058
  B      -1.293821     -0.108845      0.059270
  B       0.110684      1.241625      0.053347
  B      -0.111451     -1.242450     -0.055556
  B      -0.061639      0.040610      1.129549
  B       0.061962     -0.039335     -1.128553
6
Coordinates from ORCA-job B6_octahedral_3d_d1.60_q0_m5_R2SCAN-3C E -148.644751621655
  B       1.293128      0.106650     -0.053772
  B      -1.292731     -0.107021      0.054999
  B       0.108549      1.236901      0.049673
  B      -0.109269     -1.237633     -0.051727
  B      -0.057334      0.037125      1.134504
  B       0.057658     -0.036022     -1.133676
6
Coordinates from ORCA-job B6_octahedral_3d_d1.60_q0_m5_R2SCAN-3C E -148.644772643727
  B       1.290473      0.106712     -0.056063
  B      -1.290103     -0.107060      0.057223
  B       0.108916      1.236086      0.048927
  B      -0.109581     -1.236757     -0.050814
  B      -0.060104      0.035980      1.133676
  B       0.060399     -0.034961     -1.132950
6
Coordinates from ORCA-job B6_octahedral_3d_d1.60_q0_m5_R2SCAN-3C E -148.644792656835
  B       1.292449      0.107275     -0.057254
  B      -1.292104     -0.107606      0.058452
  B       0.109277      1.235512      0.049334
  B      -0.109962     -1.236124     -0.051209
  B      -0.061412      0.036364      1.135049
  B       0.061752     -0.035420     -1.134371
6
Coordinates from ORCA-job B6_octahedral_3d_d1.60_q0_m5_R2SCAN-3C E -148.644824846229
  B       1.296604      0.107446     -0.060185
  B      -1.296363     -0.107696      0.061451
  B       0.108819      1.231636      0.048619
  B      -0.109537     -1.232017     -0.050318
  B      -0.064853      0.035405      1.140258
  B       0.065330     -0.034773     -1.139825
6
Coordinates from ORCA-job B6_octahedral_3d_d1.60_q0_m5_R2SCAN-3C E -148.644835154289
  B       1.298185      0.106539     -0.061953
  B      -1.298033     -0.106723      0.063221
  B       0.107534      1.228658      0.047678
  B      -0.108258     -1.228893     -0.049191
  B      -0.066964      0.034199      1.143504
  B       0.067537     -0.033780     -1.143257
6
Coordinates from ORCA-job B6_octahedral_3d_d1.60_q0_m5_R2SCAN-3C E -148.644839961039
  B       1.298922      0.105289     -0.063171
  B      -1.298852     -0.105423      0.064402
  B       0.106016      1.226491      0.046924
  B      -0.106741     -1.226631     -0.048256
  B      -0.068382      0.033195      1.145555
  B       0.069037     -0.032920     -1.145455
6
Coordinates from ORCA-job B6_octahedral_3d_d1.60_q0_m5_R2SCAN-3C E -148.644842062029
  B       1.299275      0.104459     -0.063775
  B      -1.299261     -0.104566      0.064955
  B       0.105042      1.225463      0.046600
  B      -0.105768     -1.225564     -0.047794
  B      -0.069038      0.032710      1.146388
  B       0.069749     -0.032502     -1.146373
6
Coordinates from ORCA-job B6_octahedral_3d_d1.60_q0_m5_R2SCAN-3C E -148.644844887090
  B       1.299856      0.103509     -0.064532
  B      -1.299926     -0.103575      0.065607
  B       0.103902      1.224233      0.046293
  B      -0.104627     -1.224289     -0.047260
  B      -0.069811      0.032178      1.147309
  B       0.070606     -0.032056     -1.147418
6
Coordinates from ORCA-job B6_octahedral_3d_d1.60_q0_m5_R2SCAN-3C E -148.644851206561
  B       1.300848      0.102075     -0.065791
  B      -1.301082     -0.102059      0.066620
  B       0.102142      1.222171      0.045967
  B      -0.102859     -1.222142     -0.046438
  B      -0.071035      0.031425      1.148750
  B       0.071986     -0.031470     -1.149108
6
Coordinates from ORCA-job B6_octahedral_3d_d1.60_q0_m5_R2SCAN-3C E -148.644870683184
  B       1.303435      0.099035     -0.068870
  B      -1.304091     -0.098795      0.068988
  B       0.098293      1.217038      0.045388
  B      -0.098979     -1.216758     -0.044480
  B      -0.073950      0.029727      1.152107
  B       0.075291     -0.030247     -1.153134
6
Coordinates from ORCA-job B6_octahedral_3d_d1.60_q0_m5_R2SCAN-3C E -148.644923861931
  B       1.307860      0.093641     -0.074494
  B      -1.309356     -0.092918      0.073048
  B       0.091343      1.207148      0.045156
  B      -0.091929     -1.206298     -0.041304
  B      -0.079084      0.027224      1.158266
  B       0.081166     -0.028797     -1.160673
6
Coordinates from ORCA-job B6_octahedral_3d_d1.60_q0_m5_R2SCAN-3C E -148.645028834320
  B       1.310402      0.087494     -0.079763
  B      -1.313004     -0.086088      0.075958
  B       0.083463      1.196496      0.047423
  B      -0.083791     -1.194860     -0.039360
  B      -0.083176      0.026470      1.163259
  B       0.086106     -0.029512     -1.167517
6
Coordinates from ORCA-job B6_octahedral_3d_d1.60_q0_m5_R2SCAN-3C E -148.645200353455
  B       1.312596      0.082252     -0.084186
  B      -1.316554     -0.079858      0.076989
  B       0.076264      1.184307      0.052592
  B      -0.075993     -1.181391     -0.038705
  B      -0.085441      0.027610      1.164861
  B       0.089128     -0.032920     -1.171552
6
Coordinates from ORCA-job B6_octahedral_3d_d1.60_q0_m5_R2SCAN-3C E -148.645294728898
  B       1.318468      0.081125     -0.087884
  B      -1.322949     -0.078064      0.079236
  B       0.073844      1.173624      0.053002
  B      -0.073138     -1.169592     -0.036516
  B      -0.088543      0.026040      1.167868
  B       0.092318     -0.033133     -1.175705
6
Coordinates from ORCA-job B6_octahedral_3d_d1.60_q0_m5_R2SCAN-3C E -148.644904580579
  B       1.312840      0.096998     -0.074074
  B      -1.316120     -0.093416      0.064969
  B       0.091699      1.177983      0.062530
  B      -0.089154     -1.172272     -0.046762
  B      -0.073254      0.036268      1.149471
  B       0.073989     -0.045561     -1.156134
6
Coordinates from ORCA-job B6_octahedral_3d_d1.60_q0_m5_R2SCAN-3C E -148.645436594742
  B       1.318477      0.090213     -0.082099
  B      -1.321542     -0.087420      0.075396
  B       0.084398      1.177194      0.052466
  B      -0.083212     -1.172865     -0.039905
  B      -0.084063      0.028060      1.163153
  B       0.085942     -0.035182     -1.169010
6
Coordinates from ORCA-job B6_octahedral_3d_d1.60_q0_m5_R2SCAN-3C E -148.645448536428
  B       1.318905      0.089771     -0.083096
  B      -1.321604     -0.087101      0.077083
  B       0.083835      1.174842      0.051726
  B      -0.082649     -1.170521     -0.040420
  B      -0.085950      0.028056      1.166388
  B       0.087463     -0.035047     -1.171681
6
Coordinates from ORCA-job B6_octahedral_3d_d1.60_q0_m5_R2SCAN-3C E -148.645458765142
  B       1.319078      0.089453     -0.083703
  B      -1.320861     -0.087241      0.079311
  B       0.083642      1.172803      0.050328
  B      -0.082488     -1.168854     -0.042123
  B      -0.088210      0.028659      1.170014
  B       0.088839     -0.034819     -1.173827
6
Coordinates from ORCA-job B6_octahedral_3d_d1.60_q0_m5_R2SCAN-3C E -148.645463254403
  B       1.319225      0.089042     -0.083488
  B      -1.320332     -0.087277      0.080261
  B       0.083393      1.171973      0.049280
  B      -0.082269     -1.168555     -0.043395
  B      -0.089002      0.029260      1.171363
  B       0.088985     -0.034443     -1.174021
6
Coordinates from ORCA-job B6_octahedral_3d_d1.60_q0_m5_R2SCAN-3C E -148.645469042593
  B       1.319680      0.088221     -0.082562
  B      -1.319661     -0.087367      0.081314
  B       0.082931      1.170984      0.047336
  B      -0.081869     -1.168868     -0.045465
  B      -0.089595      0.030411      1.172418
  B       0.088514     -0.033381     -1.173041
6
Coordinates from ORCA-job B6_octahedral_3d_d1.60_q0_m5_R2SCAN-3C E -148.645471169116
  B       1.319975      0.087882     -0.081769
  B      -1.319585     -0.087539      0.081250
  B       0.082819      1.170888      0.046502
  B      -0.081804     -1.169678     -0.046196
  B      -0.089199      0.031055      1.171936
  B       0.087795     -0.032609     -1.171724
6
Coordinates from ORCA-job B6_octahedral_3d_d1.60_q0_m5_R2SCAN-3C E -148.645471843079
  B       1.320104      0.087802     -0.081384
  B      -1.319762     -0.087713      0.080910
  B       0.082856      1.170989      0.046349
  B      -0.081887     -1.170351     -0.046225
  B      -0.088683      0.031400      1.171240
  B       0.087372     -0.032128     -1.170889
6
Coordinates from ORCA-job B6_octahedral_3d_d1.60_q0_m5_R2SCAN-3C E -148.645472145004
  B       1.320107      0.087640     -0.081435
  B      -1.319899     -0.087705      0.080850
  B       0.082724      1.170732      0.046403
  B      -0.081809     -1.170413     -0.046108
  B      -0.088577      0.031604      1.171213
  B       0.087454     -0.031858     -1.170923
6
Coordinates from ORCA-job B6_octahedral_3d_d1.60_q0_m5_R2SCAN-3C E -148.645472274961
  B       1.320018      0.087687     -0.081537
  B      -1.319950     -0.087845      0.080809
  B       0.082804      1.170668      0.046534
  B      -0.081948     -1.170542     -0.045984
  B      -0.088518      0.031755      1.171174
  B       0.087595     -0.031722     -1.170997
