6
Coordinates from ORCA-job B6_octahedral_3d_d1.60_q0_m5_R2SCAN-3C E -148.645472274961
  B           1.32001842653073      0.08768694732057     -0.08153655873369
  B          -1.31994993572265     -0.08784526403389      0.08080917164825
  B           0.08280350759142      1.17066793876659      0.04653441531816
  B          -0.08194847629535     -1.17054224530996     -0.04598417623959
  B          -0.08851813345853      0.03175450275486      1.17117367736687
  B           0.08759461135439     -0.03172187949817     -1.17099652936000
