6
Coordinates from ORCA-job B6_octahedral_3d_d2.00_q0_m3_R2SCAN-3C E -148.509384391076
  B       1.414214      0.000000      0.000000
  B      -1.414214      0.000000      0.000000
  B       0.000000      1.414214      0.000000
  B       0.000000     -1.414214      0.000000
  B       0.000000      0.000000      1.414214
  B       0.000000      0.000000     -1.414214
6
Coordinates from ORCA-job B6_octahedral_3d_d2.00_q0_m3_R2SCAN-3C E -148.549408138819
  B       1.381808     -0.000000      0.000000
  B      -1.381808     -0.000000      0.000000
  B       0.000000      1.381808      0.000000
  B       0.000000     -1.381808      0.000000
  B       0.000000      0.000000      1.381808
  B       0.000000      0.000000     -1.381808
6
Coordinates from ORCA-job B6_octahedral_3d_d2.00_q0_m3_R2SCAN-3C E -148.586975777053
  B       1.349403     -0.000000     -0.000000
  B      -1.349403      0.000000      0.000000
  B       0.000000      1.349403      0.000000
  B       0.000000     -1.349403     -0.000000
  B      -0.000000      0.000000      1.349403
  B       0.000000     -0.000000     -1.349403
6
Coordinates from ORCA-job B6_octahedral_3d_d2.00_q0_m3_R2SCAN-3C E -148.636210593485
  B       1.300795     -0.000000      0.000000
  B      -1.300795      0.000000     -0.000000
  B      -0.000000      1.300795      0.000000
  B       0.000000     -1.300795      0.000000
  B       0.000000      0.000000      1.300795
  B      -0.000000      0.000000     -1.300795
6
Coordinates from ORCA-job B6_octahedral_3d_d2.00_q0_m3_R2SCAN-3C E -148.686151425820
  B       1.227883     -0.000000     -0.000000
  B      -1.227883      0.000000     -0.000000
  B      -0.000000      1.227883      0.000000
  B       0.000000     -1.227883      0.000000
  B      -0.000000     -0.000000      1.227883
  B      -0.000000     -0.000000     -1.227883
6
Coordinates from ORCA-job B6_octahedral_3d_d2.00_q0_m3_R2SCAN-3C E -148.696076795536
  B       1.176605      0.000000     -0.000000
  B      -1.176605      0.000000     -0.000000
  B      -0.000000      1.176605      0.000000
  B       0.000000     -1.176605     -0.000000
  B      -0.000000     -0.000000      1.176605
  B      -0.000000     -0.000000     -1.176605
6
Coordinates from ORCA-job B6_octahedral_3d_d2.00_q0_m3_R2SCAN-3C E -148.696298438448
  B       1.183903      0.000000     -0.000000
  B      -1.183903      0.000000     -0.000000
  B      -0.000000      1.183903      0.000000
  B       0.000000     -1.183903     -0.000000
  B      -0.000000     -0.000000      1.183903
  B      -0.000000     -0.000000     -1.183903
6
Coordinates from ORCA-job B6_octahedral_3d_d2.00_q0_m3_R2SCAN-3C E -148.696303342351
  B       1.182980      0.000000      0.000000
  B      -1.182980      0.000000     -0.000000
  B       0.000000      1.182980      0.000000
  B       0.000000     -1.182980     -0.000000
  B      -0.000000     -0.000000      1.182980
  B      -0.000000     -0.000000     -1.182980
6
Coordinates from ORCA-job B6_octahedral_3d_d2.00_q0_m3_R2SCAN-3C E -148.696303344346
  B       1.182961     -0.000000     -0.000000
  B      -1.182961      0.000000      0.000000
  B      -0.000000      1.182961      0.000000
  B       0.000000     -1.182961     -0.000000
  B      -0.000000     -0.000000      1.182961
  B      -0.000000     -0.000000     -1.182961
