6
Coordinates from ORCA-job B6_octahedral_3d_d2.00_q0_m3_R2SCAN-3C E -148.696303344346
  B           1.18296096904415     -0.00000000115610     -0.00000000002499
  B          -1.18296096694285      0.00000000143272      0.00000000002770
  B          -0.00000000097961      1.18296097011944      0.00000000024330
  B           0.00000000160921     -1.18296096854819     -0.00000000029205
  B          -0.00000000139180     -0.00000000065626      1.18296096915963
  B          -0.00000000133911     -0.00000000119161     -1.18296096911359
