6
Coordinates from ORCA-job B6_linear_chain_d3.00_q0_m1_R2SCAN-3C E -148.513347580772
  B          -3.77589409780476      0.24126255257755     -0.09421794337313
  B          -2.27507468415452     -0.37599076811572      0.14561451964827
  B          -0.76266249297898     -0.07743178769539      0.02967530570238
  B           0.76280179273739      0.07835370134855     -0.02986483032744
  B           2.27535714404305      0.37644730141222     -0.14526596527769
  B           3.77547233815783     -0.24264099952721      0.09405891362760
