6
Coordinates from ORCA-job B6_linear_chain_d3.00_q0_m1_R2SCAN-3C E -147.884315067581
  B      -7.500000      0.000000      0.000000
  B      -4.500000      0.000000      0.000000
  B      -1.500000      0.000000      0.000000
  B       1.500000      0.000000      0.000000
  B       4.500000      0.000000      0.000000
  B       7.500000      0.000000      0.000000
6
Coordinates from ORCA-job B6_linear_chain_d3.00_q0_m1_R2SCAN-3C E -147.899538859904
  B      -7.324572      0.000000      0.000000
  B      -4.404559      0.000000      0.000000
  B      -1.474786     -0.000000     -0.000000
  B       1.474786     -0.000000     -0.000000
  B       4.404559     -0.000000     -0.000000
  B       7.324572      0.000000      0.000000
6
Coordinates from ORCA-job B6_linear_chain_d3.00_q0_m1_R2SCAN-3C E -147.915450151067
  B      -7.149618      0.000000      0.000000
  B      -4.310197     -0.000000     -0.000000
  B      -1.450864     -0.000000     -0.000000
  B       1.450864     -0.000000     -0.000000
  B       4.310197     -0.000000     -0.000000
  B       7.149618      0.000000      0.000000
6
Coordinates from ORCA-job B6_linear_chain_d3.00_q0_m1_R2SCAN-3C E -147.940539509122
  B      -6.888128      0.000000      0.000000
  B      -4.170593      0.000000      0.000000
  B      -1.417289     -0.000000     -0.000000
  B       1.417289     -0.000000     -0.000000
  B       4.170593     -0.000000     -0.000000
  B       6.888128      0.000000      0.000000
6
Coordinates from ORCA-job B6_linear_chain_d3.00_q0_m1_R2SCAN-3C E -147.977060496477
  B      -6.526586      0.000000      0.000000
  B      -3.967803     -0.000000     -0.000000
  B      -1.373253     -0.000000     -0.000000
  B       1.373253     -0.000000     -0.000000
  B       3.967803     -0.000000     -0.000000
  B       6.526586      0.000000      0.000000
6
Coordinates from ORCA-job B6_linear_chain_d3.00_q0_m1_R2SCAN-3C E -148.014268721254
  B      -6.175608      0.000000      0.000000
  B      -3.775579      0.000000     -0.000000
  B      -1.339781     -0.000000     -0.000000
  B       1.339781     -0.000000     -0.000000
  B       3.775579     -0.000000     -0.000000
  B       6.175608      0.000000      0.000000
6
Coordinates from ORCA-job B6_linear_chain_d3.00_q0_m1_R2SCAN-3C E -148.050712533654
  B      -5.843650      0.000000      0.000000
  B      -3.602374      0.000000     -0.000000
  B      -1.325329     -0.000000     -0.000000
  B       1.325329     -0.000000     -0.000000
  B       3.602374     -0.000000     -0.000000
  B       5.843650      0.000000      0.000000
6
Coordinates from ORCA-job B6_linear_chain_d3.00_q0_m1_R2SCAN-3C E -148.085358772639
  B      -5.541891      0.000000      0.000000
  B      -3.459368      0.000000     -0.000000
  B      -1.341077     -0.000000     -0.000000
  B       1.341077     -0.000000     -0.000000
  B       3.459368     -0.000000     -0.000000
  B       5.541891      0.000000      0.000000
6
Coordinates from ORCA-job B6_linear_chain_d3.00_q0_m1_R2SCAN-3C E -148.115687981616
  B      -5.278597      0.000000      0.000000
  B      -3.354827      0.000000     -0.000000
  B      -1.389466     -0.000000     -0.000000
  B       1.389466     -0.000000     -0.000000
  B       3.354827     -0.000000      0.000000
  B       5.278597      0.000000      0.000000
6
Coordinates from ORCA-job B6_linear_chain_d3.00_q0_m1_R2SCAN-3C E -148.248817252923
  B      -5.058674     -0.000000      0.000000
  B      -3.293657      0.000002     -0.000000
  B      -1.468842     -0.000002      0.000000
  B       1.468842      0.000001     -0.000001
  B       3.293657     -0.000002      0.000000
  B       5.058674      0.000001     -0.000000
6
Coordinates from ORCA-job B6_linear_chain_d3.00_q0_m1_R2SCAN-3C E -148.288193486193
  B      -4.837546      0.001751     -0.000714
  B      -3.124595     -0.002981      0.001216
  B      -1.458537      0.000190     -0.000078
  B       1.458536     -0.000191      0.000078
  B       3.124595      0.002981     -0.001216
  B       4.837546     -0.001750      0.000714
6
Coordinates from ORCA-job B6_linear_chain_d3.00_q0_m1_R2SCAN-3C E -148.322679208207
  B      -4.563788      0.005598     -0.002284
  B      -2.943451     -0.009855      0.004020
  B      -1.398670      0.001724     -0.000703
  B       1.398671     -0.001725      0.000703
  B       2.943451      0.009855     -0.004021
  B       4.563787     -0.005598      0.002284
6
Coordinates from ORCA-job B6_linear_chain_d3.00_q0_m1_R2SCAN-3C E -148.340831038148
  B      -4.341483      0.008786     -0.003585
  B      -2.792635     -0.015581      0.006357
  B      -1.319289      0.003716     -0.001515
  B       1.319289     -0.003691      0.001505
  B       2.792644      0.015578     -0.006356
  B       4.341473     -0.008807      0.003594
6
Coordinates from ORCA-job B6_linear_chain_d3.00_q0_m1_R2SCAN-3C E -148.358846356859
  B      -4.242476      0.012382     -0.005052
  B      -2.691552     -0.021405      0.008733
  B      -1.239893      0.004499     -0.001835
  B       1.239925     -0.004452      0.001815
  B       2.691539      0.021402     -0.008731
  B       4.242458     -0.012426      0.005070
6
Coordinates from ORCA-job B6_linear_chain_d3.00_q0_m1_R2SCAN-3C E -148.382995644017
  B      -4.152653      0.015795     -0.006440
  B      -2.611904     -0.026913      0.010973
  B      -1.160600      0.005225     -0.002132
  B       1.160456     -0.005198      0.002121
  B       2.611991      0.026911     -0.010972
  B       4.152711     -0.015820      0.006450
6
Coordinates from ORCA-job B6_linear_chain_d3.00_q0_m1_R2SCAN-3C E -148.409154928934
  B      -4.080861      0.020043     -0.008173
  B      -2.528728     -0.033634      0.013714
  B      -1.080886      0.005977     -0.002437
  B       1.081406     -0.005943      0.002423
  B       2.528413      0.033625     -0.013711
  B       4.080656     -0.020068      0.008183
6
Coordinates from ORCA-job B6_linear_chain_d3.00_q0_m1_R2SCAN-3C E -148.437678964124
  B      -4.005107      0.024674     -0.010054
  B      -2.450966     -0.040953      0.016689
  B      -1.002704      0.006834     -0.002794
  B       1.000818     -0.006914      0.002826
  B       2.452090      0.040970     -0.016696
  B       4.005870     -0.024611      0.010029
6
Coordinates from ORCA-job B6_linear_chain_d3.00_q0_m1_R2SCAN-3C E -148.465343113107
  B      -3.938458      0.030114     -0.012265
  B      -2.373470     -0.049773      0.020273
  B      -0.919148      0.007816     -0.003202
  B       0.925602     -0.007476      0.003067
  B       2.369688      0.049687     -0.020237
  B       3.935785     -0.030368      0.012365
6
Coordinates from ORCA-job B6_linear_chain_d3.00_q0_m1_R2SCAN-3C E -148.494539314501
  B      -3.990470      0.042652     -0.017335
  B      -2.413473     -0.070515      0.028693
  B      -0.857068      0.009388     -0.003884
  B       0.828851     -0.011513      0.004724
  B       2.430536      0.070954     -0.028874
  B       4.001625     -0.040966      0.016676
6
Coordinates from ORCA-job B6_linear_chain_d3.00_q0_m1_R2SCAN-3C E -148.507042364929
  B      -3.903101      0.057978     -0.023601
  B      -2.260943     -0.092817      0.037758
  B      -0.791033      0.008394     -0.003452
  B       0.736132     -0.011590      0.004791
  B       2.287872      0.094947     -0.038621
  B       3.931073     -0.056912      0.023125
6
Coordinates from ORCA-job B6_linear_chain_d3.00_q0_m1_R2SCAN-3C E -148.490383568918
  B      -3.993112      0.070918     -0.028808
  B      -2.302340     -0.130985      0.053213
  B      -0.677804      0.020249     -0.008320
  B       0.821598      0.000712     -0.000208
  B       2.212098      0.127741     -0.051866
  B       3.939559     -0.088635      0.035989
6
Coordinates from ORCA-job B6_linear_chain_d3.00_q0_m1_R2SCAN-3C E -148.508305567743
  B      -3.982695      0.072239     -0.029173
  B      -2.324918     -0.125339      0.050879
  B      -0.737351      0.014026     -0.005935
  B       0.762068     -0.008070      0.003232
  B       2.309628      0.125518     -0.050965
  B       3.973267     -0.078374      0.031962
6
Coordinates from ORCA-job B6_linear_chain_d3.00_q0_m1_R2SCAN-3C E -148.504088221636
  B      -3.972188      0.076667     -0.030862
  B      -2.295368     -0.121291      0.049146
  B      -0.822151      0.005543     -0.002569
  B       0.796108     -0.011628      0.004658
  B       2.332187      0.120293     -0.048766
  B       3.961412     -0.069583      0.028393
6
Coordinates from ORCA-job B6_linear_chain_d3.00_q0_m1_R2SCAN-3C E -148.510416201194
  B      -3.916387      0.075625     -0.030275
  B      -2.309551     -0.128548      0.052025
  B      -0.780490      0.010246     -0.004621
  B       0.761330     -0.007567      0.002905
  B       2.297371      0.131067     -0.053081
  B       3.947727     -0.080823      0.033046
6
Coordinates from ORCA-job B6_linear_chain_d3.00_q0_m1_R2SCAN-3C E -148.497832198465
  B      -4.014079      0.100483     -0.040352
  B      -2.254992     -0.155450      0.062814
  B      -0.673016      0.004660     -0.002301
  B       0.805345     -0.011731      0.004687
  B       2.323138      0.139966     -0.056534
  B       3.813605     -0.077927      0.031686
6
Coordinates from ORCA-job B6_linear_chain_d3.00_q0_m1_R2SCAN-3C E -148.510689890959
  B      -3.974163      0.092459     -0.037181
  B      -2.297206     -0.152457      0.061605
  B      -0.751057      0.007589     -0.003430
  B       0.776991     -0.006498      0.002629
  B       2.307659      0.150972     -0.060944
  B       3.937776     -0.092065      0.037320
6
Coordinates from ORCA-job B6_linear_chain_d3.00_q0_m1_R2SCAN-3C E -148.510800251786
  B      -3.884544      0.089361     -0.035771
  B      -2.290802     -0.149943      0.060444
  B      -0.776957      0.006023     -0.002892
  B       0.757288     -0.004258      0.001673
  B       2.287250      0.153679     -0.061903
  B       3.907766     -0.094861      0.038449
6
Coordinates from ORCA-job B6_linear_chain_d3.00_q0_m1_R2SCAN-3C E -148.511516383730
  B      -3.926973      0.098306     -0.039384
  B      -2.295716     -0.163287      0.065767
  B      -0.764807      0.004949     -0.002435
  B       0.766868     -0.003133      0.001260
  B       2.297027      0.164910     -0.066342
  B       3.923600     -0.101744      0.041134
6
Coordinates from ORCA-job B6_linear_chain_d3.00_q0_m1_R2SCAN-3C E -148.511741832914
  B      -3.921142      0.105722     -0.042288
  B      -2.295670     -0.175136      0.070368
  B      -0.765440      0.002686     -0.001537
  B       0.766514     -0.000668      0.000304
  B       2.295967      0.176881     -0.070975
  B       3.919772     -0.109485      0.044129
6
Coordinates from ORCA-job B6_linear_chain_d3.00_q0_m1_R2SCAN-3C E -148.513015425003
  B      -3.850950      0.177087     -0.069732
  B      -2.285840     -0.287882      0.113272
  B      -0.768345     -0.021793      0.008025
  B       0.765192      0.025074     -0.009501
  B       2.283527      0.290003     -0.113852
  B       3.856417     -0.182489      0.071789
6
Coordinates from ORCA-job B6_linear_chain_d3.00_q0_m1_R2SCAN-3C E -148.513178848812
  B      -3.817678      0.204972     -0.080196
  B      -2.279387     -0.330253      0.128814
  B      -0.767251     -0.034733      0.012962
  B       0.765674      0.037582     -0.014186
  B       2.278601      0.331643     -0.129045
  B       3.820040     -0.209210      0.081650
6
Coordinates from ORCA-job B6_linear_chain_d3.00_q0_m1_R2SCAN-3C E -148.513238845757
  B      -3.797605      0.221061     -0.086200
  B      -2.275735     -0.353225      0.137108
  B      -0.765730     -0.045830      0.017193
  B       0.765858      0.048001     -0.018116
  B       2.276348      0.353845     -0.137005
  B       3.796864     -0.223851      0.087020
6
Coordinates from ORCA-job B6_linear_chain_d3.00_q0_m1_R2SCAN-3C E -148.513286568662
  B      -3.785452      0.231226     -0.090034
  B      -2.274049     -0.366419      0.141867
  B      -0.764303     -0.056513      0.021313
  B       0.765385      0.058113     -0.021989
  B       2.275347      0.366572     -0.141553
  B       3.783071     -0.232979      0.090396
6
Coordinates from ORCA-job B6_linear_chain_d3.00_q0_m1_R2SCAN-3C E -148.513334874857
  B      -3.774658      0.241015     -0.093829
  B      -2.273429     -0.377671      0.145978
  B      -0.762636     -0.071174      0.027032
  B       0.764054      0.072200     -0.027406
  B       2.274812      0.377613     -0.145528
  B       3.771856     -0.241982      0.093753
6
Coordinates from ORCA-job B6_linear_chain_d3.00_q0_m1_R2SCAN-3C E -148.513346499496
  B      -3.773064      0.243037     -0.094735
  B      -2.274205     -0.378924      0.146528
  B      -0.762294     -0.077612      0.029615
  B       0.763050      0.078548     -0.029867
  B       2.274982      0.379130     -0.146134
  B       3.771531     -0.244178      0.094593
6
Coordinates from ORCA-job B6_linear_chain_d3.00_q0_m1_R2SCAN-3C E -148.513347536749
  B      -3.775087      0.241801     -0.094355
  B      -2.274887     -0.376799      0.145839
  B      -0.762531     -0.077876      0.029787
  B       0.762798      0.078866     -0.030022
  B       2.275272      0.377215     -0.145503
  B       3.774435     -0.243207      0.094254
6
Coordinates from ORCA-job B6_linear_chain_d3.00_q0_m1_R2SCAN-3C E -148.513347579715
  B      -3.775802      0.241306     -0.094205
  B      -2.275061     -0.376081      0.145617
  B      -0.762654     -0.077484      0.029670
  B       0.762806      0.078449     -0.029885
  B       2.275359      0.376537     -0.145284
  B       3.775351     -0.242728      0.094086
6
Coordinates from ORCA-job B6_linear_chain_d3.00_q0_m1_R2SCAN-3C E -148.513347580772
  B      -3.775894      0.241263     -0.094218
  B      -2.275075     -0.375991      0.145615
  B      -0.762662     -0.077432      0.029675
  B       0.762802      0.078354     -0.029865
  B       2.275357      0.376447     -0.145266
  B       3.775472     -0.242641      0.094059
