6
Coordinates from ORCA-job B6_random_3d_seed1002_d2.00_q0_m3_R2SCAN-3C E -148.503599150505
  B       0.512500     -0.574993     -1.254865
  B       0.989093      1.227348     -0.366177
  B      -1.022985      0.625610     -0.928079
  B       0.176493     -1.427193      0.506139
  B       0.603473      0.174825      1.388593
  B      -1.258573     -0.025597      0.654389
6
Coordinates from ORCA-job B6_random_3d_seed1002_d2.00_q0_m3_R2SCAN-3C E -148.536754719108
  B       0.494140     -0.570095     -1.231903
  B       0.915363      1.190140     -0.359352
  B      -0.956635      0.624317     -0.908724
  B       0.179868     -1.393005      0.495782
  B       0.585883      0.163471      1.359690
  B      -1.218620     -0.014828      0.644506
6
Coordinates from ORCA-job B6_random_3d_seed1002_d2.00_q0_m3_R2SCAN-3C E -148.569342091674
  B       0.467230     -0.564439     -1.207736
  B       0.840135      1.157341     -0.346126
  B      -0.889553      0.620186     -0.898551
  B       0.183721     -1.359181      0.489064
  B       0.577545      0.149317      1.333311
  B      -1.179078     -0.003224      0.630038
6
Coordinates from ORCA-job B6_random_3d_seed1002_d2.00_q0_m3_R2SCAN-3C E -148.617389641515
  B       0.418902     -0.572616     -1.167204
  B       0.705704      1.118398     -0.317231
  B      -0.781768      0.628504     -0.893998
  B       0.198646     -1.325131      0.480392
  B       0.571882      0.126822      1.296093
  B      -1.113365      0.024023      0.601947
6
Coordinates from ORCA-job B6_random_3d_seed1002_d2.00_q0_m3_R2SCAN-3C E -148.661851480837
  B       0.335457     -0.608631     -1.088243
  B       0.576880      1.062694     -0.213930
  B      -0.710196      0.628842     -0.926695
  B       0.254973     -1.264423      0.445175
  B       0.569155      0.098664      1.235792
  B      -1.026270      0.082855      0.547901
6
Coordinates from ORCA-job B6_random_3d_seed1002_d2.00_q0_m3_R2SCAN-3C E -148.679783234275
  B       0.249065     -0.624068     -1.024215
  B       0.574995      1.030769     -0.058832
  B      -0.743626      0.574252     -1.012253
  B       0.303453     -1.198025      0.405250
  B       0.580786      0.085432      1.196596
  B      -0.964673      0.131640      0.493454
6
Coordinates from ORCA-job B6_random_3d_seed1002_d2.00_q0_m3_R2SCAN-3C E -148.688230391366
  B       0.217148     -0.665660     -1.047014
  B       0.542941      1.033010     -0.049233
  B      -0.734052      0.620223     -1.027344
  B       0.358735     -1.237439      0.417087
  B       0.572120      0.094027      1.223755
  B      -0.956892      0.155839      0.482748
6
Coordinates from ORCA-job B6_random_3d_seed1002_d2.00_q0_m3_R2SCAN-3C E -148.692187720299
  B       0.168859     -0.684264     -1.052614
  B       0.539358      1.051857     -0.049514
  B      -0.709040      0.631596     -1.032169
  B       0.406794     -1.251403      0.419146
  B       0.555632      0.088542      1.242066
  B      -0.961603      0.163672      0.473085
6
Coordinates from ORCA-job B6_random_3d_seed1002_d2.00_q0_m3_R2SCAN-3C E -148.696197761862
  B       0.099055     -0.720203     -1.034791
  B       0.534876      1.061279     -0.028513
  B      -0.675106      0.652940     -1.040623
  B       0.483284     -1.258563      0.407560
  B       0.527597      0.085805      1.241010
  B      -0.969705      0.178741      0.455357
6
Coordinates from ORCA-job B6_random_3d_seed1002_d2.00_q0_m3_R2SCAN-3C E -148.698482558990
  B       0.026601     -0.745291     -1.007759
  B       0.558321      1.082800     -0.021804
  B      -0.643629      0.666603     -1.047985
  B       0.561523     -1.257183      0.395186
  B       0.483592      0.072975      1.235923
  B      -0.986408      0.180097      0.446438
6
Coordinates from ORCA-job B6_random_3d_seed1002_d2.00_q0_m3_R2SCAN-3C E -148.699079343966
  B       0.007113     -0.757856     -0.994039
  B       0.554676      1.083085     -0.017318
  B      -0.628141      0.668219     -1.053206
  B       0.597254     -1.258911      0.381520
  B       0.460382      0.064686      1.228346
  B      -0.991285      0.200775      0.454697
6
Coordinates from ORCA-job B6_random_3d_seed1002_d2.00_q0_m3_R2SCAN-3C E -148.699431926832
  B       0.003736     -0.759551     -0.990273
  B       0.558232      1.073190     -0.022372
  B      -0.622993      0.667813     -1.053800
  B       0.620743     -1.257745      0.373610
  B       0.442492      0.059323      1.226091
  B      -1.002210      0.216969      0.466744
6
Coordinates from ORCA-job B6_random_3d_seed1002_d2.00_q0_m3_R2SCAN-3C E -148.699806389661
  B       0.009014     -0.756136     -0.988848
  B       0.569741      1.049938     -0.033897
  B      -0.626020      0.665639     -1.053035
  B       0.648525     -1.251855      0.363205
  B       0.419643      0.052458      1.229200
  B      -1.020903      0.239956      0.483375
6
Coordinates from ORCA-job B6_random_3d_seed1002_d2.00_q0_m3_R2SCAN-3C E -148.700006902628
  B       0.016468     -0.750308     -0.991785
  B       0.578730      1.028737     -0.041724
  B      -0.635711      0.663281     -1.051610
  B       0.663571     -1.245279      0.359317
  B       0.406643      0.047873      1.235562
  B      -1.029700      0.255695      0.490240
6
Coordinates from ORCA-job B6_random_3d_seed1002_d2.00_q0_m3_R2SCAN-3C E -148.700142459051
  B       0.023513     -0.746580     -0.994485
  B       0.585684      1.012430     -0.048247
  B      -0.646203      0.661156     -1.047598
  B       0.671840     -1.238610      0.355579
  B       0.397587      0.044640      1.244107
  B      -1.032420      0.266965      0.490644
6
Coordinates from ORCA-job B6_random_3d_seed1002_d2.00_q0_m3_R2SCAN-3C E -148.700200153820
  B       0.023281     -0.746050     -0.997965
  B       0.588091      1.006680     -0.047752
  B      -0.651388      0.658820     -1.045562
  B       0.673968     -1.233610      0.354935
  B       0.394337      0.043682      1.249332
  B      -1.028289      0.270478      0.487013
6
Coordinates from ORCA-job B6_random_3d_seed1002_d2.00_q0_m3_R2SCAN-3C E -148.700230534703
  B       0.021834     -0.748947     -0.999799
  B       0.589529      1.005621     -0.047503
  B      -0.651590      0.658732     -1.043372
  B       0.673069     -1.228858      0.353192
  B       0.393209      0.044217      1.252575
  B      -1.026051      0.269235      0.484907
6
Coordinates from ORCA-job B6_random_3d_seed1002_d2.00_q0_m3_R2SCAN-3C E -148.700280432742
  B       0.017775     -0.754546     -1.006106
  B       0.591710      1.003694     -0.045226
  B      -0.649650      0.657547     -1.041186
  B       0.670281     -1.218794      0.350596
  B       0.392171      0.046493      1.258208
  B      -1.022286      0.265606      0.483714
6
Coordinates from ORCA-job B6_random_3d_seed1002_d2.00_q0_m3_R2SCAN-3C E -148.700385858621
  B       0.010393     -0.768228     -1.024926
  B       0.597327      0.996236     -0.040623
  B      -0.643763      0.653803     -1.036925
  B       0.661608     -1.191991      0.343327
  B       0.390568      0.053213      1.273635
  B      -1.016132      0.256968      0.485511
6
Coordinates from ORCA-job B6_random_3d_seed1002_d2.00_q0_m3_R2SCAN-3C E -148.700486122093
  B       0.003934     -0.784055     -1.049965
  B       0.603118      0.987121     -0.034908
  B      -0.635583      0.647582     -1.033676
  B       0.649104     -1.160023      0.334414
  B       0.390544      0.061678      1.292289
  B      -1.011116      0.247696      0.491846
6
Coordinates from ORCA-job B6_random_3d_seed1002_d2.00_q0_m3_R2SCAN-3C E -148.700537622499
  B       0.002932     -0.793227     -1.066698
  B       0.605052      0.984148     -0.030775
  B      -0.629934      0.642437     -1.033132
  B       0.638243     -1.143056      0.329913
  B       0.393608      0.066896      1.302030
  B      -1.009900      0.242802      0.498662
6
Coordinates from ORCA-job B6_random_3d_seed1002_d2.00_q0_m3_R2SCAN-3C E -148.700555008495
  B       0.005762     -0.794330     -1.071071
  B       0.605005      0.985072     -0.029790
  B      -0.629127      0.639916     -1.033222
  B       0.634822     -1.142519      0.329458
  B       0.395548      0.067933      1.302115
  B      -1.012010      0.243929      0.502512
6
Coordinates from ORCA-job B6_random_3d_seed1002_d2.00_q0_m3_R2SCAN-3C E -148.700560925865
  B       0.008730     -0.794794     -1.074176
  B       0.605269      0.985225     -0.029510
  B      -0.629793      0.638145     -1.032083
  B       0.632504     -1.142650      0.329423
  B       0.396604      0.068640      1.301962
  B      -1.013315      0.245435      0.504385
6
Coordinates from ORCA-job B6_random_3d_seed1002_d2.00_q0_m3_R2SCAN-3C E -148.700563787400
  B       0.010658     -0.795367     -1.076015
  B       0.605842      0.985791     -0.029159
  B      -0.630613      0.636668     -1.030841
  B       0.631413     -1.142967      0.329135
  B       0.396685      0.068891      1.301590
  B      -1.013985      0.246984      0.505290
6
Coordinates from ORCA-job B6_random_3d_seed1002_d2.00_q0_m3_R2SCAN-3C E -148.700565172936
  B       0.011192     -0.797264     -1.078805
  B       0.606409      0.986042     -0.028291
  B      -0.630441      0.635302     -1.029540
  B       0.629762     -1.140838      0.328328
  B       0.396727      0.069441      1.302437
  B      -1.013648      0.247317      0.505871
6
Coordinates from ORCA-job B6_random_3d_seed1002_d2.00_q0_m3_R2SCAN-3C E -148.700565525535
  B       0.010727     -0.798305     -1.079476
  B       0.606533      0.986452     -0.027776
  B      -0.629965      0.634853     -1.029198
  B       0.629704     -1.139912      0.327786
  B       0.396425      0.069405      1.302664
  B      -1.013424      0.247508      0.506000
6
Coordinates from ORCA-job B6_random_3d_seed1002_d2.00_q0_m3_R2SCAN-3C E -148.700565570010
  B       0.010348     -0.798396     -1.079096
  B       0.606331      0.986771     -0.027679
  B      -0.629746      0.635020     -1.029334
  B       0.630053     -1.140139      0.327817
  B       0.396367      0.069222      1.302466
  B      -1.013352      0.247522      0.505826
6
Coordinates from ORCA-job B6_random_3d_seed1002_d2.00_q0_m3_R2SCAN-3C E -148.700565588234
  B       0.010139     -0.798727     -1.079406
  B       0.606346      0.986766     -0.027533
  B      -0.629516      0.634924     -1.029284
  B       0.629969     -1.139700      0.327645
  B       0.396362      0.069291      1.302697
  B      -1.013300      0.247445      0.505881
