6
Coordinates from ORCA-job B6_random_3d_seed1002_d2.00_q0_m3_R2SCAN-3C E -148.700565588234
  B           0.01013869921770     -0.79872658150757     -1.07940631164447
  B           0.60634631790842      0.98676607655183     -0.02753278924959
  B          -0.62951606131654      0.63492428748103     -1.02928399028548
  B           0.62996892966819     -1.13969978391971      0.32764473487655
  B           0.39636205322347      0.06929147435018      1.30269701571684
  B          -1.01329992870124      0.24744451704424      0.50588133058615
