6
Coordinates from ORCA-job B6_random_3d_seed1000_d3.50_q0_m1_R2SCAN-3C E -148.717726329973
  B           0.78190534545956     -0.38130210958898      1.06526609249151
  B           1.50271942022933     -1.33956416398997      0.09163572824890
  B           0.22031796121323     -0.72064461682198     -0.58857887508190
  B          -0.12838439732651      0.79723726334720      0.51221678251946
  B          -1.24154331139922      1.55696945048076     -0.30862569175699
  B          -1.13501503817639      0.08730418657297     -0.77191404642098
