6
Coordinates from ORCA-job B6_random_3d_seed1000_d3.50_q0_m1_R2SCAN-3C E -147.845463386814
  B       1.095205     -1.103037      2.183902
  B       2.692508     -0.238912     -0.832160
  B      -0.036408     -2.549602     -0.909699
  B      -1.229666      1.305357      1.867344
  B      -0.082656      2.559801     -1.187291
  B      -2.438983      0.026393     -1.122096
6
Coordinates from ORCA-job B6_random_3d_seed1000_d3.50_q0_m1_R2SCAN-3C E -147.855202659136
  B       1.084118     -1.090140      2.151150
  B       2.662113     -0.251507     -0.813771
  B      -0.027691     -2.515174     -0.894214
  B      -1.211089      1.285952      1.831599
  B      -0.100738      2.532590     -1.170098
  B      -2.406712      0.038279     -1.104666
6
Coordinates from ORCA-job B6_random_3d_seed1000_d3.50_q0_m1_R2SCAN-3C E -147.865374176694
  B       1.073183     -1.077442      2.118538
  B       2.631711     -0.264185     -0.795376
  B      -0.018658     -2.480961     -0.878655
  B      -1.192631      1.266506      1.795469
  B      -0.118906      2.505526     -1.152914
  B      -2.374700      0.050557     -1.087062
6
Coordinates from ORCA-job B6_random_3d_seed1000_d3.50_q0_m1_R2SCAN-3C E -147.881493575262
  B       1.056698     -1.058402      2.069217
  B       2.586164     -0.283330     -0.768159
  B      -0.004376     -2.430267     -0.855448
  B      -1.165894      1.237986      1.741091
  B      -0.145756      2.464674     -1.126723
  B      -2.326836      0.069339     -1.059978
6
Coordinates from ORCA-job B6_random_3d_seed1000_d3.50_q0_m1_R2SCAN-3C E -147.907796920628
  B       1.031946     -1.029890      1.994443
  B       2.517927     -0.312245     -0.728064
  B       0.018503     -2.355668     -0.820867
  B      -1.127918      1.196413      1.658967
  B      -0.185110      2.403007     -1.086672
  B      -2.255348      0.098383     -1.017807
6
Coordinates from ORCA-job B6_random_3d_seed1000_d3.50_q0_m1_R2SCAN-3C E -147.938216829602
  B       1.006940     -1.000429      1.917097
  B       2.447218     -0.342527     -0.686702
  B       0.043566     -2.280378     -0.785300
  B      -1.090489      1.153158      1.571873
  B      -0.225444      2.339803     -1.045017
  B      -2.181792      0.130373     -0.971951
6
Coordinates from ORCA-job B6_random_3d_seed1000_d3.50_q0_m1_R2SCAN-3C E -147.972455044441
  B       0.982965     -0.970089      1.840353
  B       2.376269     -0.372972     -0.645058
  B       0.069268     -2.207850     -0.750898
  B      -1.054831      1.109109      1.483246
  B      -0.264886      2.277895     -1.003619
  B      -2.108785      0.163909     -0.924024
6
Coordinates from ORCA-job B6_random_3d_seed1000_d3.50_q0_m1_R2SCAN-3C E -148.011349895884
  B       0.960200     -0.936199      1.764173
  B       2.304773     -0.403080     -0.601665
  B       0.093644     -2.139464     -0.719766
  B      -1.019813      1.063258      1.395077
  B      -0.302489      2.218036     -0.963126
  B      -2.036316      0.197450     -0.874693
6
Coordinates from ORCA-job B6_random_3d_seed1000_d3.50_q0_m1_R2SCAN-3C E -148.057091160936
  B       0.935113     -0.889209      1.684409
  B       2.232384     -0.428334     -0.550686
  B       0.108324     -2.080662     -0.697998
  B      -0.981118      1.010369      1.309098
  B      -0.332112      2.165314     -0.925349
  B      -1.962591      0.222522     -0.819474
6
Coordinates from ORCA-job B6_random_3d_seed1000_d3.50_q0_m1_R2SCAN-3C E -148.093948430533
  B       0.910467     -0.849594      1.622731
  B       2.185698     -0.436365     -0.510976
  B       0.108388     -2.052260     -0.687914
  B      -0.953138      0.970060      1.245042
  B      -0.343890      2.138600     -0.900397
  B      -1.907525      0.229559     -0.768486
6
Coordinates from ORCA-job B6_random_3d_seed1000_d3.50_q0_m1_R2SCAN-3C E -148.120673700661
  B       0.892154     -0.823082      1.580100
  B       2.155119     -0.439792     -0.484224
  B       0.107331     -2.035966     -0.680866
  B      -0.933801      0.943028      1.202135
  B      -0.351150      2.122779     -0.884079
  B      -1.869652      0.233032     -0.733067
6
Coordinates from ORCA-job B6_random_3d_seed1000_d3.50_q0_m1_R2SCAN-3C E -148.163795464967
  B       0.863634     -0.783739      1.515095
  B       2.109901     -0.443846     -0.444198
  B       0.105271     -2.011697     -0.669438
  B      -0.904476      0.902345      1.138046
  B      -0.361923      2.098700     -0.859801
  B      -1.812406      0.238237     -0.679703
6
Coordinates from ORCA-job B6_random_3d_seed1000_d3.50_q0_m1_R2SCAN-3C E -148.230162531187
  B       0.821923     -0.725172      1.418067
  B       2.042072     -0.449455     -0.383915
  B       0.101240     -1.973779     -0.652314
  B      -0.853471      0.846672      1.055293
  B      -0.379641      2.058699     -0.822682
  B      -1.732123      0.243036     -0.614448
6
Coordinates from ORCA-job B6_random_3d_seed1000_d3.50_q0_m1_R2SCAN-3C E -148.300420508942
  B       0.780615     -0.668745      1.320785
  B       1.971725     -0.453959     -0.323566
  B       0.097760     -1.936883     -0.634794
  B      -0.801770      0.793321      0.974576
  B      -0.399777      2.016691     -0.785735
  B      -1.648553      0.249575     -0.551266
6
Coordinates from ORCA-job B6_random_3d_seed1000_d3.50_q0_m1_R2SCAN-3C E -148.349611056462
  B       0.749619     -0.627886      1.252616
  B       1.918488     -0.456274     -0.281133
  B       0.096053     -1.912485     -0.623121
  B      -0.761615      0.755084      0.921989
  B      -0.415552      1.986667     -0.760842
  B      -1.586993      0.254893     -0.509508
6
Coordinates from ORCA-job B6_random_3d_seed1000_d3.50_q0_m1_R2SCAN-3C E -148.381530203173
  B       0.728324     -0.596879      1.207048
  B       1.880393     -0.459936     -0.250973
  B       0.095147     -1.895243     -0.616550
  B      -0.726734      0.730120      0.891750
  B      -0.429435      1.963816     -0.742109
  B      -1.547695      0.258123     -0.489167
6
Coordinates from ORCA-job B6_random_3d_seed1000_d3.50_q0_m1_R2SCAN-3C E -148.425935280537
  B       0.695316     -0.548370      1.143052
  B       1.820331     -0.467491     -0.208408
  B       0.095336     -1.863765     -0.607480
  B      -0.666859      0.694530      0.854928
  B      -0.452436      1.921757     -0.712372
  B      -1.491688      0.263339     -0.469719
6
Coordinates from ORCA-job B6_random_3d_seed1000_d3.50_q0_m1_R2SCAN-3C E -148.477228549103
  B       0.654120     -0.488577      1.068914
  B       1.733568     -0.487115     -0.161228
  B       0.103507     -1.798482     -0.592872
  B      -0.583945      0.655094      0.813300
  B      -0.490471      1.840249     -0.668250
  B      -1.416779      0.278832     -0.459864
6
Coordinates from ORCA-job B6_random_3d_seed1000_d3.50_q0_m1_R2SCAN-3C E -148.513035398023
  B       0.604632     -0.434106      1.030217
  B       1.664258     -0.523041     -0.153666
  B       0.122629     -1.704553     -0.573966
  B      -0.516133      0.634773      0.779053
  B      -0.522258      1.734155     -0.614103
  B      -1.353128      0.292771     -0.467534
6
Coordinates from ORCA-job B6_random_3d_seed1000_d3.50_q0_m1_R2SCAN-3C E -148.544104209124
  B       0.615499     -0.414082      1.014768
  B       1.614620     -0.562713     -0.137720
  B       0.131226     -1.620842     -0.567174
  B      -0.480112      0.648918      0.763497
  B      -0.543592      1.664496     -0.574463
  B      -1.337641      0.284223     -0.498908
6
Coordinates from ORCA-job B6_random_3d_seed1000_d3.50_q0_m1_R2SCAN-3C E -148.569779245190
  B       0.634106     -0.394983      1.013992
  B       1.571179     -0.607501     -0.126435
  B       0.139706     -1.539144     -0.566199
  B      -0.442790      0.671762      0.759699
  B      -0.566583      1.595042     -0.535703
  B      -1.335619      0.274824     -0.545352
6
Coordinates from ORCA-job B6_random_3d_seed1000_d3.50_q0_m1_R2SCAN-3C E -148.601477671934
  B       0.662203     -0.403135      1.056625
  B       1.524533     -0.664299     -0.142458
  B       0.147896     -1.450605     -0.576244
  B      -0.403432      0.755755      0.780247
  B      -0.583824      1.563683     -0.491011
  B      -1.347376      0.198602     -0.627159
6
Coordinates from ORCA-job B6_random_3d_seed1000_d3.50_q0_m1_R2SCAN-3C E -148.626811738512
  B       0.665940     -0.396530      1.076310
  B       1.468719     -0.697093     -0.154451
  B       0.132269     -1.341336     -0.567578
  B      -0.355008      0.757586      0.806126
  B      -0.617057      1.523206     -0.491577
  B      -1.294863      0.154168     -0.668830
6
Coordinates from ORCA-job B6_random_3d_seed1000_d3.50_q0_m1_R2SCAN-3C E -148.654228013481
  B       0.675797     -0.383401      1.109186
  B       1.468303     -0.722432     -0.160551
  B       0.068130     -1.249834     -0.579176
  B      -0.314423      0.769558      0.838842
  B      -0.649103      1.484713     -0.487339
  B      -1.248703      0.101396     -0.720962
6
Coordinates from ORCA-job B6_random_3d_seed1000_d3.50_q0_m1_R2SCAN-3C E -148.675087190519
  B       0.675368     -0.386990      1.106301
  B       1.462446     -0.742920     -0.165808
  B       0.028652     -1.178305     -0.573488
  B      -0.309000      0.778443      0.845027
  B      -0.664025      1.487112     -0.484206
  B      -1.193442      0.042660     -0.727825
6
Coordinates from ORCA-job B6_random_3d_seed1000_d3.50_q0_m1_R2SCAN-3C E -148.685557342615
  B       0.683009     -0.399357      1.113784
  B       1.478153     -0.771421     -0.176425
  B      -0.002463     -1.125795     -0.570838
  B      -0.324515      0.789766      0.851514
  B      -0.688052      1.488747     -0.497394
  B      -1.146132      0.018060     -0.720641
6
Coordinates from ORCA-job B6_random_3d_seed1000_d3.50_q0_m1_R2SCAN-3C E -148.689090021118
  B       0.678366     -0.392523      1.098247
  B       1.488017     -0.803424     -0.171918
  B      -0.004647     -1.099093     -0.563193
  B      -0.325702      0.787547      0.844992
  B      -0.710040      1.502204     -0.490943
  B      -1.125993      0.005288     -0.717185
6
Coordinates from ORCA-job B6_random_3d_seed1000_d3.50_q0_m1_R2SCAN-3C E -148.693251133022
  B       0.691523     -0.399839      1.090155
  B       1.517641     -0.864747     -0.165361
  B       0.007481     -1.077068     -0.553189
  B      -0.338777      0.796102      0.843157
  B      -0.763106      1.525542     -0.497703
  B      -1.114761      0.020010     -0.717059
6
Coordinates from ORCA-job B6_random_3d_seed1000_d3.50_q0_m1_R2SCAN-3C E -148.698213665976
  B       0.692202     -0.379255      1.061635
  B       1.542361     -0.954638     -0.144129
  B       0.033012     -1.037671     -0.540616
  B      -0.340839      0.799220      0.806264
  B      -0.828748      1.531873     -0.464789
  B      -1.097989      0.040473     -0.718365
6
Coordinates from ORCA-job B6_random_3d_seed1000_d3.50_q0_m1_R2SCAN-3C E -148.703763954074
  B       0.724810     -0.360036      1.019140
  B       1.556879     -1.049998     -0.078338
  B       0.057989     -0.997484     -0.536192
  B      -0.308642      0.780449      0.788454
  B      -0.923890      1.582420     -0.440175
  B      -1.107147      0.044650     -0.752890
6
Coordinates from ORCA-job B6_random_3d_seed1000_d3.50_q0_m1_R2SCAN-3C E -148.709156453321
  B       0.768380     -0.341937      1.039373
  B       1.562973     -1.156352     -0.044945
  B       0.080423     -0.950887     -0.553060
  B      -0.293788      0.792602      0.746768
  B      -1.020410      1.587877     -0.408504
  B      -1.097577      0.068697     -0.779632
6
Coordinates from ORCA-job B6_random_3d_seed1000_d3.50_q0_m1_R2SCAN-3C E -148.712206360464
  B       0.831467     -0.348425      1.049045
  B       1.529469     -1.234288      0.004922
  B       0.110273     -0.867310     -0.545511
  B      -0.256343      0.779683      0.693729
  B      -1.115736      1.566862     -0.386446
  B      -1.099130      0.103477     -0.815739
6
Coordinates from ORCA-job B6_random_3d_seed1000_d3.50_q0_m1_R2SCAN-3C E -148.714424962955
  B       0.841947     -0.343335      1.057155
  B       1.540781     -1.290797      0.032232
  B       0.137521     -0.827160     -0.532934
  B      -0.236901      0.759075      0.624373
  B      -1.166795      1.588861     -0.351178
  B      -1.116554      0.113356     -0.829648
6
Coordinates from ORCA-job B6_random_3d_seed1000_d3.50_q0_m1_R2SCAN-3C E -148.715566404720
  B       0.852013     -0.347983      1.081174
  B       1.525781     -1.289780      0.048013
  B       0.139637     -0.780720     -0.528412
  B      -0.204659      0.727667      0.574738
  B      -1.173929      1.577778     -0.334676
  B      -1.138843      0.113039     -0.840837
6
Coordinates from ORCA-job B6_random_3d_seed1000_d3.50_q0_m1_R2SCAN-3C E -148.716029390966
  B       0.837987     -0.362266      1.079224
  B       1.526681     -1.272445      0.046290
  B       0.142621     -0.771650     -0.524459
  B      -0.198048      0.722642      0.567791
  B      -1.161533      1.574895     -0.343755
  B      -1.147708      0.108825     -0.825090
6
Coordinates from ORCA-job B6_random_3d_seed1000_d3.50_q0_m1_R2SCAN-3C E -148.716348847022
  B       0.826591     -0.379158      1.082949
  B       1.530220     -1.261329      0.042627
  B       0.147929     -0.765876     -0.526884
  B      -0.192753      0.725791      0.565866
  B      -1.156383      1.576431     -0.357314
  B      -1.155604      0.104142     -0.807244
6
Coordinates from ORCA-job B6_random_3d_seed1000_d3.50_q0_m1_R2SCAN-3C E -148.716563032831
  B       0.814109     -0.390782      1.086182
  B       1.536440     -1.258489      0.040627
  B       0.153666     -0.759944     -0.532037
  B      -0.187282      0.732625      0.563154
  B      -1.154380      1.577316     -0.365518
  B      -1.162553      0.099275     -0.792408
6
Coordinates from ORCA-job B6_random_3d_seed1000_d3.50_q0_m1_R2SCAN-3C E -148.716757350647
  B       0.807178     -0.397116      1.088121
  B       1.537662     -1.264072      0.042659
  B       0.161212     -0.753400     -0.538905
  B      -0.180402      0.741817      0.559303
  B      -1.160885      1.578013     -0.366762
  B      -1.164766      0.094759     -0.784416
6
Coordinates from ORCA-job B6_random_3d_seed1000_d3.50_q0_m1_R2SCAN-3C E -148.717061849298
  B       0.798545     -0.398586      1.086158
  B       1.535776     -1.280454      0.050062
  B       0.173770     -0.743977     -0.550578
  B      -0.169504      0.757489      0.552185
  B      -1.176033      1.575462     -0.360152
  B      -1.162554      0.090066     -0.777674
6
Coordinates from ORCA-job B6_random_3d_seed1000_d3.50_q0_m1_R2SCAN-3C E -148.717406474790
  B       0.793480     -0.393433      1.080236
  B       1.526173     -1.304896      0.063722
  B       0.190792     -0.732781     -0.564435
  B      -0.156043      0.773769      0.540107
  B      -1.199648      1.570738     -0.344045
  B      -1.154754      0.086602     -0.775585
6
Coordinates from ORCA-job B6_random_3d_seed1000_d3.50_q0_m1_R2SCAN-3C E -148.717633490995
  B       0.790774     -0.385220      1.071757
  B       1.513221     -1.327436      0.078188
  B       0.207120     -0.721873     -0.575415
  B      -0.144016      0.785264      0.527429
  B      -1.221311      1.563458     -0.326269
  B      -1.145789      0.085807     -0.775692
6
Coordinates from ORCA-job B6_random_3d_seed1000_d3.50_q0_m1_R2SCAN-3C E -148.717694453547
  B       0.789233     -0.380632      1.067384
  B       1.503089     -1.337688      0.086253
  B       0.216973     -0.715983     -0.583130
  B      -0.136570      0.791089      0.520781
  B      -1.232468      1.558442     -0.316798
  B      -1.140255      0.084772     -0.774490
6
Coordinates from ORCA-job B6_random_3d_seed1000_d3.50_q0_m1_R2SCAN-3C E -148.717701705590
  B       0.788971     -0.379592      1.064663
  B       1.500846     -1.342704      0.089584
  B       0.220933     -0.713931     -0.584733
  B      -0.134809      0.792844      0.517811
  B      -1.237884      1.557235     -0.314085
  B      -1.138057      0.086148     -0.773240
6
Coordinates from ORCA-job B6_random_3d_seed1000_d3.50_q0_m1_R2SCAN-3C E -148.717705068632
  B       0.786796     -0.379019      1.064332
  B       1.499079     -1.342457      0.090228
  B       0.222495     -0.714438     -0.588366
  B      -0.133446      0.794832      0.518245
  B      -1.237957      1.556413     -0.313465
  B      -1.136966      0.084669     -0.770974
6
Coordinates from ORCA-job B6_random_3d_seed1000_d3.50_q0_m1_R2SCAN-3C E -148.717706725350
  B       0.786517     -0.379590      1.064253
  B       1.499800     -1.342468      0.090289
  B       0.222619     -0.714828     -0.588586
  B      -0.133646      0.795087      0.518264
  B      -1.238175      1.557012     -0.313917
  B      -1.137114      0.084787     -0.770303
6
Coordinates from ORCA-job B6_random_3d_seed1000_d3.50_q0_m1_R2SCAN-3C E -148.717707993436
  B       0.785884     -0.380145      1.064108
  B       1.500751     -1.342323      0.090305
  B       0.222600     -0.715428     -0.588887
  B      -0.133831      0.795504      0.518301
  B      -1.238141      1.557470     -0.314302
  B      -1.137264      0.084923     -0.769526
6
Coordinates from ORCA-job B6_random_3d_seed1000_d3.50_q0_m1_R2SCAN-3C E -148.717709111371
  B       0.785221     -0.380609      1.064010
  B       1.501246     -1.342174      0.090422
  B       0.222738     -0.715899     -0.589286
  B      -0.133647      0.796029      0.518110
  B      -1.238320      1.557740     -0.314351
  B      -1.137238      0.084914     -0.768905
6
Coordinates from ORCA-job B6_random_3d_seed1000_d3.50_q0_m1_R2SCAN-3C E -148.717711978277
  B       0.783794     -0.381448      1.063870
  B       1.502111     -1.341833      0.090766
  B       0.222874     -0.716920     -0.589957
  B      -0.132825      0.797174      0.517365
  B      -1.238919      1.557991     -0.313958
  B      -1.137035      0.085037     -0.768086
6
Coordinates from ORCA-job B6_random_3d_seed1000_d3.50_q0_m1_R2SCAN-3C E -148.717716657345
  B       0.782353     -0.382109      1.063910
  B       1.502955     -1.341370      0.091206
  B       0.222582     -0.718171     -0.590177
  B      -0.131503      0.798159      0.515855
  B      -1.239872      1.558009     -0.312747
  B      -1.136515      0.085482     -0.768047
6
Coordinates from ORCA-job B6_random_3d_seed1000_d3.50_q0_m1_R2SCAN-3C E -148.717723222755
  B       0.780893     -0.382429      1.064377
  B       1.503577     -1.340320      0.091808
  B       0.221516     -0.720218     -0.589862
  B      -0.129094      0.798887      0.513301
  B      -1.241378      1.557569     -0.310141
  B      -1.135515      0.086510     -0.769483
6
Coordinates from ORCA-job B6_random_3d_seed1000_d3.50_q0_m1_R2SCAN-3C E -148.717725743161
  B       0.781136     -0.381934      1.064918
  B       1.503279     -1.339693      0.091798
  B       0.220606     -0.720829     -0.589013
  B      -0.128253      0.798194      0.512227
  B      -1.241732      1.557126     -0.308825
  B      -1.135036      0.087136     -0.771104
6
Coordinates from ORCA-job B6_random_3d_seed1000_d3.50_q0_m1_R2SCAN-3C E -148.717726301652
  B       0.781820     -0.381374      1.065263
  B       1.502811     -1.339543      0.091670
  B       0.220238     -0.720734     -0.588516
  B      -0.128264      0.797356      0.512080
  B      -1.241639      1.556927     -0.308492
  B      -1.134967      0.087369     -0.772006
6
Coordinates from ORCA-job B6_random_3d_seed1000_d3.50_q0_m1_R2SCAN-3C E -148.717726329973
  B       0.781905     -0.381302      1.065266
  B       1.502719     -1.339564      0.091636
  B       0.220318     -0.720645     -0.588579
  B      -0.128384      0.797237      0.512217
  B      -1.241543      1.556969     -0.308626
  B      -1.135015      0.087304     -0.771914
