6
Coordinates from ORCA-job B6_random_3d_seed1001_d1.80_q0_m3_R2SCAN-3C E -148.630526851580
  B       0.119858     -1.283895     -0.365851
  B      -0.054950      1.176853      0.398707
  B       0.320761      0.451743     -1.139454
  B      -0.368686     -0.572121      1.181593
  B       1.223598      0.086552      0.381535
  B      -1.240580      0.140868     -0.456531
6
Coordinates from ORCA-job B6_random_3d_seed1001_d1.80_q0_m3_R2SCAN-3C E -148.654802139860
  B       0.119641     -1.248902     -0.358553
  B      -0.060426      1.151762      0.396345
  B       0.316926      0.433795     -1.116049
  B      -0.361823     -0.554746      1.150384
  B       1.196326      0.080484      0.369298
  B      -1.210644      0.137607     -0.441425
6
Coordinates from ORCA-job B6_random_3d_seed1001_d1.80_q0_m3_R2SCAN-3C E -148.673659951221
  B       0.120214     -1.214095     -0.353544
  B      -0.066892      1.127607      0.395745
  B       0.314339      0.414461     -1.092829
  B      -0.355478     -0.534716      1.118860
  B       1.170074      0.073422      0.357045
  B      -1.182256      0.133322     -0.425276
6
Coordinates from ORCA-job B6_random_3d_seed1001_d1.80_q0_m3_R2SCAN-3C E -148.690129280063
  B       0.122105     -1.160808     -0.353194
  B      -0.079508      1.094921      0.400971
  B       0.315065      0.383376     -1.062624
  B      -0.349023     -0.496541      1.072847
  B       1.135208      0.058501      0.339419
  B      -1.143847      0.120552     -0.397418
6
Coordinates from ORCA-job B6_random_3d_seed1001_d1.80_q0_m3_R2SCAN-3C E -148.693446203261
  B       0.122067     -1.127149     -0.361847
  B      -0.089462      1.081382      0.411327
  B       0.320880      0.365559     -1.051776
  B      -0.349369     -0.462351      1.046068
  B       1.120305      0.042544      0.331557
  B      -1.124420      0.100015     -0.375329
6
Coordinates from ORCA-job B6_random_3d_seed1001_d1.80_q0_m3_R2SCAN-3C E -148.694494047413
  B       0.119209     -1.124304     -0.367948
  B      -0.091705      1.087120      0.416222
  B       0.324919      0.368237     -1.057442
  B      -0.351368     -0.452331      1.044713
  B       1.123958      0.034601      0.334668
  B      -1.125014      0.086677     -0.370214
6
Coordinates from ORCA-job B6_random_3d_seed1001_d1.80_q0_m3_R2SCAN-3C E -148.695720493325
  B       0.110420     -1.118362     -0.380046
  B      -0.096560      1.102184      0.422772
  B       0.332787      0.380432     -1.070124
  B      -0.352799     -0.431329      1.043102
  B       1.131196      0.013038      0.344340
  B      -1.125044      0.054036     -0.360043
6
Coordinates from ORCA-job B6_random_3d_seed1001_d1.80_q0_m3_R2SCAN-3C E -148.695888217567
  B       0.107400     -1.115370     -0.382822
  B      -0.098420      1.106627      0.420727
  B       0.334379      0.387403     -1.071946
  B      -0.350319     -0.425325      1.043898
  B       1.131530      0.003212      0.348223
  B      -1.124570      0.043453     -0.358081
6
Coordinates from ORCA-job B6_random_3d_seed1001_d1.80_q0_m3_R2SCAN-3C E -148.696041835612
  B       0.104565     -1.111468     -0.385590
  B      -0.100698      1.110610      0.414039
  B       0.335671      0.397782     -1.070707
  B      -0.345283     -0.419096      1.046820
  B       1.130369     -0.010026      0.352575
  B      -1.124623      0.032198     -0.357137
6
Coordinates from ORCA-job B6_random_3d_seed1001_d1.80_q0_m3_R2SCAN-3C E -148.696126006368
  B       0.103580     -1.109012     -0.387954
  B      -0.102104      1.111536      0.406784
  B       0.336559      0.405246     -1.066445
  B      -0.341551     -0.414999      1.050159
  B       1.128987     -0.018785      0.354383
  B      -1.125471      0.026013     -0.356927
6
Coordinates from ORCA-job B6_random_3d_seed1001_d1.80_q0_m3_R2SCAN-3C E -148.696177767575
  B       0.103510     -1.108173     -0.390812
  B      -0.102780      1.110635      0.400654
  B       0.337593      0.409733     -1.060967
  B      -0.339811     -0.411982      1.053538
  B       1.128407     -0.023237      0.354345
  B      -1.126918      0.023024     -0.356759
6
Coordinates from ORCA-job B6_random_3d_seed1001_d1.80_q0_m3_R2SCAN-3C E -148.696201344162
  B       0.103582     -1.108587     -0.393595
  B      -0.102872      1.109312      0.397973
  B       0.338648      0.410677     -1.057184
  B      -0.340000     -0.410086      1.055695
  B       1.128669     -0.023554      0.353475
  B      -1.128028      0.022238     -0.356365
6
Coordinates from ORCA-job B6_random_3d_seed1001_d1.80_q0_m3_R2SCAN-3C E -148.696207681347
  B       0.103408     -1.109255     -0.395363
  B      -0.102801      1.108862      0.397855
  B       0.339327      0.410145     -1.056158
  B      -0.340577     -0.409232      1.056484
  B       1.129028     -0.022596      0.353118
  B      -1.128384      0.022076     -0.355937
6
Coordinates from ORCA-job B6_random_3d_seed1001_d1.80_q0_m3_R2SCAN-3C E -148.696208645305
  B       0.103206     -1.109537     -0.396096
  B      -0.102817      1.109014      0.398023
  B       0.339584      0.409915     -1.056260
  B      -0.340660     -0.408949      1.056648
  B       1.129032     -0.022307      0.353319
  B      -1.128345      0.021864     -0.355635
6
Coordinates from ORCA-job B6_random_3d_seed1001_d1.80_q0_m3_R2SCAN-3C E -148.696208917213
  B       0.103110     -1.109613     -0.396452
  B      -0.102870      1.109210      0.397973
  B       0.339701      0.409872     -1.056410
  B      -0.340537     -0.408882      1.056687
  B       1.128871     -0.022327      0.353594
  B      -1.128275      0.021740     -0.355393
