6
Coordinates from ORCA-job B6_random_3d_seed1001_d1.80_q0_m3_R2SCAN-3C E -148.696208917213
  B           0.10311016869794     -1.10961346471470     -0.39645169432705
  B          -0.10286969420647      1.10921017113926      0.39797260237563
  B           0.33970088743546      0.40987173315265     -1.05640950750260
  B          -0.34053698293926     -0.40888203449157      1.05668740277253
  B           1.12887070110647     -0.02232665852448      0.35359412735878
  B          -1.12827508009415      0.02174024343884     -0.35539292067730
