6
Coordinates from ORCA-job B6_random_3d_seed1003_d1.60_q0_m5_R2SCAN-3C E -148.645457554310
  B           0.22399305421922      0.67854460252690     -0.93237206020555
  B          -0.21979208713972     -0.67777992950754      0.93121520220462
  B          -1.32410990600334      0.06047457871337     -0.04622113005467
  B           1.32228258854109     -0.06441349890013      0.04975428805630
  B           0.17062337226868      0.87547212310081      0.76621500694193
  B          -0.17299702188593     -0.87229786593341     -0.76859130694263
