6
Coordinates from ORCA-job B6_random_3d_seed1003_d1.60_q0_m5_R2SCAN-3C E -148.610611715427
  B       0.160685      0.723724     -0.985141
  B      -0.119812     -0.690654      0.867320
  B      -1.173483      0.156398     -0.045354
  B       1.267697     -0.101942      0.122092
  B       0.062456      0.817686      0.738777
  B      -0.197544     -0.905212     -0.697695
6
Coordinates from ORCA-job B6_random_3d_seed1003_d1.60_q0_m5_R2SCAN-3C E -148.625565377243
  B       0.172662      0.707300     -0.977481
  B      -0.127617     -0.695035      0.877466
  B      -1.212271      0.149492     -0.046862
  B       1.283982     -0.090779      0.115840
  B       0.080791      0.834826      0.749865
  B      -0.197547     -0.905804     -0.718828
6
Coordinates from ORCA-job B6_random_3d_seed1003_d1.60_q0_m5_R2SCAN-3C E -148.637168204455
  B       0.193102      0.684630     -0.968434
  B      -0.142404     -0.699442      0.889919
  B      -1.254464      0.138170     -0.043940
  B       1.299330     -0.073627      0.102736
  B       0.100993      0.852070      0.762067
  B      -0.196556     -0.901802     -0.742349
6
Coordinates from ORCA-job B6_random_3d_seed1003_d1.60_q0_m5_R2SCAN-3C E -148.641778765243
  B       0.208398      0.668728     -0.960334
  B      -0.154752     -0.701795      0.897482
  B      -1.279677      0.128341     -0.041171
  B       1.307717     -0.060387      0.092267
  B       0.114876      0.862029      0.768038
  B      -0.196563     -0.896916     -0.756282
6
Coordinates from ORCA-job B6_random_3d_seed1003_d1.60_q0_m5_R2SCAN-3C E -148.644781299764
  B       0.231805      0.646473     -0.946105
  B      -0.176267     -0.703392      0.907240
  B      -1.313167      0.109825     -0.036223
  B       1.319759     -0.039594      0.076551
  B       0.136446      0.874469      0.773245
  B      -0.198577     -0.887782     -0.774707
6
Coordinates from ORCA-job B6_random_3d_seed1003_d1.60_q0_m5_R2SCAN-3C E -148.645049388830
  B       0.236594      0.644385     -0.942416
  B      -0.183987     -0.701967      0.908867
  B      -1.318549      0.101869     -0.034624
  B       1.324218     -0.034962      0.074230
  B       0.142843      0.876184      0.772046
  B      -0.201118     -0.885508     -0.778103
6
Coordinates from ORCA-job B6_random_3d_seed1003_d1.60_q0_m5_R2SCAN-3C E -148.645262097522
  B       0.239746      0.646348     -0.939124
  B      -0.193873     -0.698662      0.910232
  B      -1.320842      0.090793     -0.032622
  B       1.330486     -0.031779      0.073722
  B       0.149789      0.876662      0.768438
  B      -0.205306     -0.883363     -0.780645
6
Coordinates from ORCA-job B6_random_3d_seed1003_d1.60_q0_m5_R2SCAN-3C E -148.645331991306
  B       0.239270      0.650290     -0.938526
  B      -0.198516     -0.695912      0.910886
  B      -1.319082      0.084950     -0.031659
  B       1.333369     -0.032476      0.074811
  B       0.152254      0.875782      0.765480
  B      -0.207294     -0.882634     -0.780992
6
Coordinates from ORCA-job B6_random_3d_seed1003_d1.60_q0_m5_R2SCAN-3C E -148.645349731634
  B       0.238045      0.652918     -0.938948
  B      -0.199416     -0.694555      0.911680
  B      -1.317312      0.083431     -0.031422
  B       1.333475     -0.034396      0.075396
  B       0.152186      0.875012      0.764162
  B      -0.206978     -0.882410     -0.780867
6
Coordinates from ORCA-job B6_random_3d_seed1003_d1.60_q0_m5_R2SCAN-3C E -148.645360807984
  B       0.237094      0.655004     -0.939242
  B      -0.199872     -0.693478      0.913090
  B      -1.316272      0.082504     -0.031244
  B       1.332783     -0.036628      0.075255
  B       0.151890      0.874519      0.763172
  B      -0.205623     -0.881921     -0.781030
6
Coordinates from ORCA-job B6_random_3d_seed1003_d1.60_q0_m5_R2SCAN-3C E -148.645377210984
  B       0.235980      0.658476     -0.939218
  B      -0.201165     -0.691555      0.916463
  B      -1.315524      0.080354     -0.030838
  B       1.331168     -0.040874      0.074025
  B       0.151796      0.874052      0.761301
  B      -0.202256     -0.880453     -0.781733
6
Coordinates from ORCA-job B6_random_3d_seed1003_d1.60_q0_m5_R2SCAN-3C E -148.645392943602
  B       0.235520      0.661822     -0.938555
  B      -0.203072     -0.689672      0.920569
  B      -1.315998      0.077520     -0.030403
  B       1.329254     -0.045364      0.071758
  B       0.152283      0.874007      0.759205
  B      -0.197987     -0.878314     -0.782573
6
Coordinates from ORCA-job B6_random_3d_seed1003_d1.60_q0_m5_R2SCAN-3C E -148.645405773352
  B       0.235716      0.664894     -0.937337
  B      -0.205472     -0.688072      0.924721
  B      -1.317635      0.074125     -0.030129
  B       1.327438     -0.049636      0.068728
  B       0.153399      0.874389      0.757054
  B      -0.193446     -0.875699     -0.783038
6
Coordinates from ORCA-job B6_random_3d_seed1003_d1.60_q0_m5_R2SCAN-3C E -148.645412600605
  B       0.236159      0.666346     -0.936542
  B      -0.206847     -0.687584      0.926469
  B      -1.319162      0.072174     -0.030297
  B       1.326694     -0.051603      0.066778
  B       0.154319      0.874822      0.756111
  B      -0.191163     -0.874154     -0.782519
6
Coordinates from ORCA-job B6_random_3d_seed1003_d1.60_q0_m5_R2SCAN-3C E -148.645420336693
  B       0.236613      0.668066     -0.935919
  B      -0.208240     -0.687300      0.927693
  B      -1.320993      0.070061     -0.030921
  B       1.326068     -0.053679      0.064555
  B       0.155430      0.875315      0.755459
  B      -0.188878     -0.872463     -0.780867
6
Coordinates from ORCA-job B6_random_3d_seed1003_d1.60_q0_m5_R2SCAN-3C E -148.645428768478
  B       0.236764      0.670262     -0.935827
  B      -0.209559     -0.686992      0.928368
  B      -1.322670      0.067890     -0.032009
  B       1.325447     -0.056077      0.062222
  B       0.156560      0.875669      0.755311
  B      -0.186541     -0.870752     -0.778066
6
Coordinates from ORCA-job B6_random_3d_seed1003_d1.60_q0_m5_R2SCAN-3C E -148.645436928471
  B       0.236429      0.673054     -0.936444
  B      -0.210943     -0.686284      0.928815
  B      -1.323856      0.065589     -0.033389
  B       1.324642     -0.058996      0.059820
  B       0.157662      0.875723      0.755771
  B      -0.183934     -0.869086     -0.774573
6
Coordinates from ORCA-job B6_random_3d_seed1003_d1.60_q0_m5_R2SCAN-3C E -148.645442319234
  B       0.235813      0.675044     -0.937536
  B      -0.211941     -0.685371      0.928931
  B      -1.324127      0.064100     -0.034418
  B       1.323959     -0.061021      0.058288
  B       0.158411      0.875466      0.756867
  B      -0.182114     -0.868218     -0.772131
6
Coordinates from ORCA-job B6_random_3d_seed1003_d1.60_q0_m5_R2SCAN-3C E -148.645445629864
  B       0.235229      0.676172     -0.938509
  B      -0.212778     -0.684352      0.929178
  B      -1.323998      0.063170     -0.034956
  B       1.323328     -0.062202      0.057330
  B       0.159014      0.875125      0.758064
  B      -0.180793     -0.867912     -0.771108
6
Coordinates from ORCA-job B6_random_3d_seed1003_d1.60_q0_m5_R2SCAN-3C E -148.645447521955
  B       0.234847      0.676521     -0.939049
  B      -0.213465     -0.683520      0.929445
  B      -1.323906      0.062669     -0.035188
  B       1.322842     -0.062583      0.056738
  B       0.159622      0.874894      0.759096
  B      -0.179940     -0.867981     -0.771042
6
Coordinates from ORCA-job B6_random_3d_seed1003_d1.60_q0_m5_R2SCAN-3C E -148.645448507071
  B       0.234570      0.676850     -0.939170
  B      -0.214233     -0.682839      0.929806
  B      -1.324169      0.062071     -0.035501
  B       1.322349     -0.062962      0.055964
  B       0.160439      0.874850      0.759851
  B      -0.178956     -0.867969     -0.770949
6
Coordinates from ORCA-job B6_random_3d_seed1003_d1.60_q0_m5_R2SCAN-3C E -148.645449144226
  B       0.234415      0.676327     -0.938906
  B      -0.214312     -0.682797      0.929603
  B      -1.324236      0.062338     -0.035633
  B       1.322382     -0.062319      0.056053
  B       0.160873      0.874921      0.760240
  B      -0.179122     -0.868470     -0.771357
6
Coordinates from ORCA-job B6_random_3d_seed1003_d1.60_q0_m5_R2SCAN-3C E -148.645450031150
  B       0.233844      0.676555     -0.938399
  B      -0.214986     -0.682346      0.929731
  B      -1.324607      0.061940     -0.036258
  B       1.322074     -0.062476      0.055424
  B       0.161992      0.875068      0.760707
  B      -0.178317     -0.868741     -0.771204
6
Coordinates from ORCA-job B6_random_3d_seed1003_d1.60_q0_m5_R2SCAN-3C E -148.645451461778
  B       0.232215      0.677219     -0.937302
  B      -0.216292     -0.681382      0.929822
  B      -1.325141      0.061183     -0.037869
  B       1.321581     -0.062977      0.054241
  B       0.164344      0.875343      0.761692
  B      -0.176707     -0.869386     -0.770584
6
Coordinates from ORCA-job B6_random_3d_seed1003_d1.60_q0_m5_R2SCAN-3C E -148.645452930268
  B       0.230760      0.677583     -0.936419
  B      -0.216865     -0.680851      0.929772
  B      -1.325123      0.061009     -0.039076
  B       1.321537     -0.063277      0.053817
  B       0.165668      0.875501      0.762162
  B      -0.175978     -0.869965     -0.770256
6
Coordinates from ORCA-job B6_random_3d_seed1003_d1.60_q0_m5_R2SCAN-3C E -148.645455344978
  B       0.225780      0.678464     -0.933963
  B      -0.218599     -0.678930      0.929470
  B      -1.324701      0.060675     -0.043203
  B       1.321560     -0.064118      0.052454
  B       0.169762      0.875851      0.764405
  B      -0.173801     -0.871942     -0.769163
6
Coordinates from ORCA-job B6_random_3d_seed1003_d1.60_q0_m5_R2SCAN-3C E -148.645456015103
  B       0.225665      0.678395     -0.933955
  B      -0.218525     -0.678863      0.929712
  B      -1.324472      0.060730     -0.043288
  B       1.321746     -0.064232      0.052416
  B       0.169486      0.875794      0.764425
  B      -0.173900     -0.871823     -0.769310
6
Coordinates from ORCA-job B6_random_3d_seed1003_d1.60_q0_m5_R2SCAN-3C E -148.645456884517
  B       0.224937      0.678297     -0.933577
  B      -0.218762     -0.678423      0.930313
  B      -1.324109      0.060682     -0.044182
  B       1.322128     -0.064498      0.051762
  B       0.169541      0.875715      0.765025
  B      -0.173736     -0.871773     -0.769341
6
Coordinates from ORCA-job B6_random_3d_seed1003_d1.60_q0_m5_R2SCAN-3C E -148.645457120577
  B       0.224784      0.678321     -0.933340
  B      -0.218983     -0.678260      0.930600
  B      -1.324116      0.060578     -0.044612
  B       1.322203     -0.064550      0.051270
  B       0.169690      0.875680      0.765299
  B      -0.173578     -0.871770     -0.769217
6
Coordinates from ORCA-job B6_random_3d_seed1003_d1.60_q0_m5_R2SCAN-3C E -148.645457425203
  B       0.224147      0.678359     -0.932609
  B      -0.219498     -0.677900      0.931003
  B      -1.324094      0.060528     -0.045773
  B       1.322327     -0.064440      0.050279
  B       0.170352      0.875597      0.765986
  B      -0.173235     -0.872143     -0.768887
6
Coordinates from ORCA-job B6_random_3d_seed1003_d1.60_q0_m5_R2SCAN-3C E -148.645457554310
  B       0.223993      0.678545     -0.932372
  B      -0.219792     -0.677780      0.931215
  B      -1.324110      0.060475     -0.046221
  B       1.322283     -0.064413      0.049754
  B       0.170623      0.875472      0.766215
  B      -0.172997     -0.872298     -0.768591
