6
Coordinates from ORCA-job B6_random_3d_seed1002_d2.50_q0_m1_R2SCAN-3C E -148.737084135424
  B           0.41268259460484      0.03997268395026     -1.31590785183047
  B           1.31859195449116      0.40381158635453     -0.03380375917729
  B          -1.10310138656377     -0.17146551920938     -0.81053727283439
  B           0.14226740891419     -0.75131415842389      0.11258851740188
  B           0.36322277471239      0.41710548844536      1.26378732374842
  B          -1.13366334615881      0.06188991888311      0.78387305269185
