6
Coordinates from ORCA-job B6_random_3d_seed1002_d2.50_q0_m1_R2SCAN-3C E -148.201421542392
  B       0.652946     -0.717572     -1.571801
  B       1.229055      1.526423     -0.453313
  B      -1.263121      0.793521     -1.169817
  B       0.221307     -1.786071      0.627441
  B       0.741602      0.232559      1.738916
  B      -1.581789     -0.048861      0.828573
6
Coordinates from ORCA-job B6_random_3d_seed1002_d2.50_q0_m1_R2SCAN-3C E -148.232111463909
  B       0.634108     -0.697852     -1.537610
  B       1.221834      1.497267     -0.437404
  B      -1.249832      0.760007     -1.140044
  B       0.214635     -1.736216      0.614555
  B       0.738638      0.224744      1.704133
  B      -1.559383     -0.047950      0.796370
6
Coordinates from ORCA-job B6_random_3d_seed1002_d2.50_q0_m1_R2SCAN-3C E -148.263863687509
  B       0.614667     -0.677637     -1.503662
  B       1.214898      1.468222     -0.421483
  B      -1.236054      0.726444     -1.111073
  B       0.207500     -1.685973      0.602162
  B       0.735878      0.216929      1.669458
  B      -1.536889     -0.047985      0.764598
6
Coordinates from ORCA-job B6_random_3d_seed1002_d2.50_q0_m1_R2SCAN-3C E -148.313322839122
  B       0.584532     -0.646344     -1.452627
  B       1.203944      1.424123     -0.397456
  B      -1.213946      0.676997     -1.070185
  B       0.196169     -1.610475      0.584202
  B       0.731649      0.205545      1.617100
  B      -1.502348     -0.049846      0.718967
6
Coordinates from ORCA-job B6_random_3d_seed1002_d2.50_q0_m1_R2SCAN-3C E -148.389152648021
  B       0.537285     -0.596525     -1.376910
  B       1.186076      1.356586     -0.361523
  B      -1.177022      0.604573     -1.014229
  B       0.177494     -1.497957      0.559165
  B       0.724489      0.189692      1.538185
  B      -1.448321     -0.056368      0.655312
6
Coordinates from ORCA-job B6_random_3d_seed1002_d2.50_q0_m1_R2SCAN-3C E -148.465246228259
  B       0.486082     -0.538659     -1.302429
  B       1.166979      1.284080     -0.325715
  B      -1.132822      0.532761     -0.969544
  B       0.156056     -1.378998      0.539118
  B       0.714732      0.171549      1.455974
  B      -1.391027     -0.070733      0.602595
6
Coordinates from ORCA-job B6_random_3d_seed1002_d2.50_q0_m1_R2SCAN-3C E -148.532373834326
  B       0.437589     -0.469505     -1.244943
  B       1.151009      1.207676     -0.293444
  B      -1.083345      0.466118     -0.949720
  B       0.131081     -1.257859      0.532519
  B       0.700225      0.150417      1.376791
  B      -1.336560     -0.096846      0.578797
6
Coordinates from ORCA-job B6_random_3d_seed1002_d2.50_q0_m1_R2SCAN-3C E -148.583155590455
  B       0.399671     -0.389452     -1.201833
  B       1.127954      1.116006     -0.258764
  B      -1.028186      0.402732     -0.942234
  B       0.100312     -1.150356      0.525213
  B       0.678733      0.145409      1.295927
  B      -1.278484     -0.124339      0.581689
6
Coordinates from ORCA-job B6_random_3d_seed1002_d2.50_q0_m1_R2SCAN-3C E -148.605185445110
  B       0.412174     -0.337522     -1.182024
  B       1.099026      1.031966     -0.232269
  B      -1.009768      0.369041     -0.926522
  B       0.084585     -1.101008      0.505945
  B       0.658856      0.164196      1.237820
  B      -1.244872     -0.126672      0.597050
6
Coordinates from ORCA-job B6_random_3d_seed1002_d2.50_q0_m1_R2SCAN-3C E -148.622387088287
  B       0.446447     -0.285688     -1.179904
  B       1.069195      0.945672     -0.221935
  B      -1.001060      0.338787     -0.910907
  B       0.078595     -1.072030      0.477272
  B       0.623315      0.186775      1.203669
  B      -1.216492     -0.113516      0.631806
6
Coordinates from ORCA-job B6_random_3d_seed1002_d2.50_q0_m1_R2SCAN-3C E -148.648007953180
  B       0.477920     -0.241507     -1.190649
  B       1.045888      0.842131     -0.192479
  B      -0.987448      0.277480     -0.881204
  B       0.070298     -1.029886      0.390749
  B       0.551312      0.232541      1.180938
  B      -1.157970     -0.080759      0.692644
6
Coordinates from ORCA-job B6_random_3d_seed1002_d2.50_q0_m1_R2SCAN-3C E -148.672432576280
  B       0.507066     -0.220533     -1.200612
  B       1.029515      0.748728     -0.154636
  B      -0.985111      0.214139     -0.846589
  B       0.076311     -0.978860      0.282201
  B       0.478340      0.274745      1.168534
  B      -1.106121     -0.038218      0.751102
6
Coordinates from ORCA-job B6_random_3d_seed1002_d2.50_q0_m1_R2SCAN-3C E -148.699872235527
  B       0.526641     -0.233170     -1.273651
  B       1.063408      0.706560     -0.145550
  B      -0.989214      0.150859     -0.810819
  B       0.086325     -0.938577      0.169674
  B       0.407325      0.313173      1.250872
  B      -1.094485      0.001154      0.809474
6
Coordinates from ORCA-job B6_random_3d_seed1002_d2.50_q0_m1_R2SCAN-3C E -148.712345973156
  B       0.498672     -0.225129     -1.281472
  B       1.120811      0.634690     -0.069539
  B      -1.043556      0.079093     -0.807128
  B       0.132840     -0.858594      0.089936
  B       0.422457      0.349852      1.258084
  B      -1.131225      0.020089      0.810119
6
Coordinates from ORCA-job B6_random_3d_seed1002_d2.50_q0_m1_R2SCAN-3C E -148.724403253860
  B       0.475469     -0.170314     -1.284335
  B       1.206777      0.568487     -0.099924
  B      -1.080969      0.022851     -0.807837
  B       0.157660     -0.775230      0.114428
  B       0.357341      0.332047      1.276473
  B      -1.116278      0.022159      0.801194
6
Coordinates from ORCA-job B6_random_3d_seed1002_d2.50_q0_m1_R2SCAN-3C E -148.727233893229
  B       0.426446     -0.141359     -1.327486
  B       1.270979      0.575131     -0.059277
  B      -1.091894     -0.017897     -0.824325
  B       0.135473     -0.780791      0.147724
  B       0.373776      0.341742      1.288306
  B      -1.114780      0.023173      0.775058
6
Coordinates from ORCA-job B6_random_3d_seed1002_d2.50_q0_m1_R2SCAN-3C E -148.732090601737
  B       0.412992     -0.096557     -1.302044
  B       1.291537      0.519980     -0.052953
  B      -1.097713     -0.067264     -0.824454
  B       0.152924     -0.762110      0.107456
  B       0.376219      0.369184      1.292873
  B      -1.135958      0.036767      0.779122
6
Coordinates from ORCA-job B6_random_3d_seed1002_d2.50_q0_m1_R2SCAN-3C E -148.733862682592
  B       0.440906     -0.066491     -1.308578
  B       1.293553      0.482773     -0.039261
  B      -1.126249     -0.094131     -0.806111
  B       0.161696     -0.743062      0.100734
  B       0.362671      0.375093      1.265087
  B      -1.132577      0.045818      0.788130
6
Coordinates from ORCA-job B6_random_3d_seed1002_d2.50_q0_m1_R2SCAN-3C E -148.735291512839
  B       0.431832     -0.024111     -1.300471
  B       1.308472      0.462608     -0.039540
  B      -1.108022     -0.139635     -0.805490
  B       0.126489     -0.741372      0.094433
  B       0.362060      0.383721      1.263486
  B      -1.120830      0.058789      0.787583
6
Coordinates from ORCA-job B6_random_3d_seed1002_d2.50_q0_m1_R2SCAN-3C E -148.736320856593
  B       0.406836      0.023876     -1.306383
  B       1.323809      0.424923     -0.049926
  B      -1.101657     -0.158974     -0.827474
  B       0.147831     -0.753475      0.126222
  B       0.370837      0.400689      1.272786
  B      -1.147657      0.062961      0.784776
6
Coordinates from ORCA-job B6_random_3d_seed1002_d2.50_q0_m1_R2SCAN-3C E -148.736986502937
  B       0.408114      0.030304     -1.315764
  B       1.315889      0.410005     -0.032174
  B      -1.102063     -0.168019     -0.814085
  B       0.146909     -0.746212      0.112130
  B       0.363658      0.409505      1.266231
  B      -1.132508      0.064418      0.783662
6
Coordinates from ORCA-job B6_random_3d_seed1002_d2.50_q0_m1_R2SCAN-3C E -148.736807005577
  B       0.422856      0.037435     -1.313556
  B       1.321663      0.412161     -0.036219
  B      -1.110189     -0.174485     -0.804524
  B       0.134147     -0.750882      0.109033
  B       0.369547      0.413290      1.265501
  B      -1.138024      0.062481      0.779765
6
Coordinates from ORCA-job B6_random_3d_seed1002_d2.50_q0_m1_R2SCAN-3C E -148.737080144659
  B       0.413392      0.037715     -1.315374
  B       1.317389      0.407485     -0.034259
  B      -1.103435     -0.171969     -0.810691
  B       0.142071     -0.751025      0.112207
  B       0.364085      0.413263      1.264694
  B      -1.133502      0.064532      0.783424
6
Coordinates from ORCA-job B6_random_3d_seed1002_d2.50_q0_m1_R2SCAN-3C E -148.737082833508
  B       0.412329      0.039709     -1.315810
  B       1.318173      0.405039     -0.033802
  B      -1.103196     -0.172769     -0.810616
  B       0.142506     -0.750962      0.112507
  B       0.363860      0.415039      1.264679
  B      -1.133670      0.063943      0.783043
6
Coordinates from ORCA-job B6_random_3d_seed1002_d2.50_q0_m1_R2SCAN-3C E -148.737083688366
  B       0.412431      0.040420     -1.316028
  B       1.318229      0.404157     -0.033761
  B      -1.103033     -0.172559     -0.810538
  B       0.142425     -0.751443      0.112666
  B       0.363536      0.416109      1.264283
  B      -1.133588      0.063316      0.783378
6
Coordinates from ORCA-job B6_random_3d_seed1002_d2.50_q0_m1_R2SCAN-3C E -148.737084004252
  B       0.412552      0.040422     -1.316020
  B       1.318446      0.403801     -0.033782
  B      -1.103037     -0.172102     -0.810511
  B       0.142311     -0.751474      0.112660
  B       0.363335      0.416769      1.264016
  B      -1.133607      0.062584      0.783637
6
Coordinates from ORCA-job B6_random_3d_seed1002_d2.50_q0_m1_R2SCAN-3C E -148.737084126874
  B       0.412683      0.040090     -1.315949
  B       1.318580      0.403747     -0.033804
  B      -1.103099     -0.171556     -0.810534
  B       0.142272     -0.751362      0.112608
  B       0.363229      0.417129      1.263815
  B      -1.133666      0.061953      0.783863
6
Coordinates from ORCA-job B6_random_3d_seed1002_d2.50_q0_m1_R2SCAN-3C E -148.737084135424
  B       0.412683      0.039973     -1.315908
  B       1.318592      0.403812     -0.033804
  B      -1.103101     -0.171466     -0.810537
  B       0.142267     -0.751314      0.112589
  B       0.363223      0.417105      1.263787
  B      -1.133663      0.061890      0.783873
