6
Coordinates from ORCA-job B6_random_3d_seed1004_d2.20_q0_m3_R2SCAN-3C E -148.386656056973
  B      -0.665284     -0.601684      1.341603
  B       1.030102      0.937415      1.020253
  B       1.135437     -1.181509      0.466820
  B      -1.526947      0.119852     -0.507963
  B       0.013358      1.496804     -0.916684
  B       0.013335     -0.770877     -1.404029
6
Coordinates from ORCA-job B6_random_3d_seed1004_d2.20_q0_m3_R2SCAN-3C E -148.420980685388
  B      -0.655285     -0.593323      1.301366
  B       1.012598      0.920337      0.989681
  B       1.107211     -1.151437      0.457369
  B      -1.486918      0.117135     -0.496001
  B       0.011530      1.466444     -0.887983
  B       0.010864     -0.759157     -1.364433
6
Coordinates from ORCA-job B6_random_3d_seed1004_d2.20_q0_m3_R2SCAN-3C E -148.456208814350
  B      -0.645214     -0.585310      1.259009
  B       0.996402      0.903654      0.957489
  B       1.079631     -1.121839      0.449226
  B      -1.448629      0.114732     -0.485067
  B       0.009345      1.437407     -0.857250
  B       0.008465     -0.748644     -1.323408
6
Coordinates from ORCA-job B6_random_3d_seed1004_d2.20_q0_m3_R2SCAN-3C E -148.509632447632
  B      -0.631285     -0.572717      1.193352
  B       0.972619      0.879170      0.905546
  B       1.039432     -1.078253      0.437169
  B      -1.394748      0.111522     -0.468400
  B       0.006788      1.395348     -0.807251
  B       0.007194     -0.735069     -1.260415
6
Coordinates from ORCA-job B6_random_3d_seed1004_d2.20_q0_m3_R2SCAN-3C E -148.585593487999
  B      -0.610558     -0.556781      1.091409
  B       0.940792      0.844913      0.825850
  B       0.978440     -1.014031      0.420282
  B      -1.314830      0.105795     -0.446271
  B       0.002338      1.338407     -0.730151
  B       0.003819     -0.718302     -1.161120
6
Coordinates from ORCA-job B6_random_3d_seed1004_d2.20_q0_m3_R2SCAN-3C E -148.645749773722
  B      -0.598143     -0.535728      0.986988
  B       0.907454      0.802673      0.740507
  B       0.926025     -0.942560      0.400342
  B      -1.242276      0.110275     -0.418339
  B      -0.004394      1.271028     -0.646502
  B       0.011335     -0.705687     -1.062996
6
Coordinates from ORCA-job B6_random_3d_seed1004_d2.20_q0_m3_R2SCAN-3C E -148.672969966408
  B      -0.596165     -0.512707      0.899577
  B       0.879143      0.732310      0.661696
  B       0.908181     -0.862537      0.384448
  B      -1.197597      0.148293     -0.401174
  B      -0.028964      1.188468     -0.573917
  B       0.035403     -0.693828     -0.970630
6
Coordinates from ORCA-job B6_random_3d_seed1004_d2.20_q0_m3_R2SCAN-3C E -148.676648198399
  B      -0.577830     -0.532831      0.862201
  B       0.914112      0.696631      0.656605
  B       0.935115     -0.838650      0.425171
  B      -1.215989      0.175485     -0.441275
  B      -0.062483      1.186308     -0.570841
  B       0.007075     -0.686943     -0.931861
6
Coordinates from ORCA-job B6_random_3d_seed1004_d2.20_q0_m3_R2SCAN-3C E -148.683522816941
  B      -0.592731     -0.528606      0.832779
  B       0.921287      0.708274      0.628090
  B       0.964332     -0.852166      0.436012
  B      -1.249851      0.183981     -0.450159
  B      -0.056154      1.176290     -0.537969
  B       0.013117     -0.687773     -0.908752
6
Coordinates from ORCA-job B6_random_3d_seed1004_d2.20_q0_m3_R2SCAN-3C E -148.689816244658
  B      -0.609802     -0.504310      0.793648
  B       0.971116      0.709389      0.599652
  B       0.968588     -0.877721      0.440500
  B      -1.294436      0.177603     -0.466879
  B      -0.087517      1.193958     -0.497988
  B       0.052051     -0.698918     -0.868933
6
Coordinates from ORCA-job B6_random_3d_seed1004_d2.20_q0_m3_R2SCAN-3C E -148.693696027170
  B      -0.623539     -0.483314      0.802597
  B       1.002381      0.701395      0.550679
  B       0.962043     -0.885344      0.461902
  B      -1.307311      0.171065     -0.495536
  B      -0.115051      1.204333     -0.439569
  B       0.081477     -0.708134     -0.880073
6
Coordinates from ORCA-job B6_random_3d_seed1004_d2.20_q0_m3_R2SCAN-3C E -148.697789842069
  B      -0.637347     -0.474396      0.790015
  B       1.055456      0.704600      0.489775
  B       0.937933     -0.887924      0.491457
  B      -1.288956      0.155693     -0.527657
  B      -0.157877      1.232465     -0.363874
  B       0.090791     -0.730437     -0.879715
6
Coordinates from ORCA-job B6_random_3d_seed1004_d2.20_q0_m3_R2SCAN-3C E -148.699951971250
  B      -0.651120     -0.480809      0.802913
  B       1.091245      0.694029      0.434912
  B       0.907780     -0.861371      0.508763
  B      -1.264493      0.137124     -0.561667
  B      -0.176738      1.253982     -0.300664
  B       0.093327     -0.742954     -0.884257
6
Coordinates from ORCA-job B6_random_3d_seed1004_d2.20_q0_m3_R2SCAN-3C E -148.700425988573
  B      -0.658992     -0.494696      0.807863
  B       1.110993      0.702493      0.404058
  B       0.898813     -0.861839      0.524930
  B      -1.235826      0.142583     -0.580431
  B      -0.199018      1.264632     -0.272356
  B       0.084030     -0.753173     -0.884063
6
Coordinates from ORCA-job B6_random_3d_seed1004_d2.20_q0_m3_R2SCAN-3C E -148.700517722481
  B      -0.663498     -0.497041      0.803201
  B       1.112321      0.699119      0.402514
  B       0.903044     -0.855304      0.524687
  B      -1.239323      0.140916     -0.580813
  B      -0.195006      1.266508     -0.269728
  B       0.082462     -0.754198     -0.879862
6
Coordinates from ORCA-job B6_random_3d_seed1004_d2.20_q0_m3_R2SCAN-3C E -148.700530011106
  B      -0.663740     -0.500168      0.803219
  B       1.111350      0.699860      0.401164
  B       0.902558     -0.855507      0.524550
  B      -1.240040      0.143123     -0.580244
  B      -0.194142      1.267708     -0.270605
  B       0.084014     -0.755015     -0.878084
6
Coordinates from ORCA-job B6_random_3d_seed1004_d2.20_q0_m3_R2SCAN-3C E -148.700537703340
  B      -0.665269     -0.502367      0.803258
  B       1.111715      0.699732      0.399134
  B       0.902527     -0.855592      0.525909
  B      -1.239578      0.144049     -0.579250
  B      -0.194608      1.269861     -0.270708
  B       0.085212     -0.755684     -0.878343
6
Coordinates from ORCA-job B6_random_3d_seed1004_d2.20_q0_m3_R2SCAN-3C E -148.700544956221
  B      -0.666919     -0.507445      0.803073
  B       1.111054      0.699630      0.395663
  B       0.901740     -0.855755      0.528510
  B      -1.237765      0.145203     -0.576909
  B      -0.194414      1.274593     -0.271905
  B       0.086304     -0.756226     -0.878432
6
Coordinates from ORCA-job B6_random_3d_seed1004_d2.20_q0_m3_R2SCAN-3C E -148.700548899227
  B      -0.667121     -0.508290      0.803397
  B       1.109561      0.698149      0.394631
  B       0.901619     -0.856389      0.529229
  B      -1.237052      0.145403     -0.575344
  B      -0.194685      1.276211     -0.273419
  B       0.087678     -0.755085     -0.878494
6
Coordinates from ORCA-job B6_random_3d_seed1004_d2.20_q0_m3_R2SCAN-3C E -148.700555468927
  B      -0.665814     -0.509665      0.804095
  B       1.105643      0.695107      0.393001
  B       0.901602     -0.858654      0.531100
  B      -1.236081      0.145407     -0.573136
  B      -0.194928      1.279999     -0.276710
  B       0.089577     -0.752194     -0.878350
6
Coordinates from ORCA-job B6_random_3d_seed1004_d2.20_q0_m3_R2SCAN-3C E -148.700560026464
  B      -0.664359     -0.510049      0.804802
  B       1.100774      0.691270      0.390146
  B       0.902182     -0.861509      0.532991
  B      -1.234649      0.145858     -0.571773
  B      -0.196004      1.283978     -0.278717
  B       0.092056     -0.749548     -0.877449
6
Coordinates from ORCA-job B6_random_3d_seed1004_d2.20_q0_m3_R2SCAN-3C E -148.700563296581
  B      -0.662925     -0.509570      0.805140
  B       1.097543      0.688908      0.388499
  B       0.903047     -0.863772      0.533917
  B      -1.233741      0.146256     -0.571882
  B      -0.197184      1.287065     -0.279167
  B       0.093260     -0.748888     -0.876507
6
Coordinates from ORCA-job B6_random_3d_seed1004_d2.20_q0_m3_R2SCAN-3C E -148.700567163588
  B      -0.660893     -0.508092      0.805543
  B       1.093143      0.686266      0.386807
  B       0.904532     -0.866618      0.534344
  B      -1.232020      0.146929     -0.572773
  B      -0.199037      1.291452     -0.278609
  B       0.094275     -0.749936     -0.875312
6
Coordinates from ORCA-job B6_random_3d_seed1004_d2.20_q0_m3_R2SCAN-3C E -148.700569042868
  B      -0.659986     -0.507391      0.805876
  B       1.090972      0.685422      0.386650
  B       0.905309     -0.867721      0.533920
  B      -1.230687      0.147321     -0.573248
  B      -0.199918      1.294203     -0.278197
  B       0.094310     -0.751833     -0.875001
6
Coordinates from ORCA-job B6_random_3d_seed1004_d2.20_q0_m3_R2SCAN-3C E -148.700570075191
  B      -0.659495     -0.507277      0.806302
  B       1.089023      0.684950      0.386950
  B       0.905820     -0.868307      0.533266
  B      -1.229220      0.147697     -0.573082
  B      -0.200338      1.296753     -0.278370
  B       0.094210     -0.753816     -0.875065
6
Coordinates from ORCA-job B6_random_3d_seed1004_d2.20_q0_m3_R2SCAN-3C E -148.700570226494
  B      -0.659611     -0.507602      0.806406
  B       1.088889      0.685100      0.387310
  B       0.905760     -0.868144      0.532997
  B      -1.228956      0.147737     -0.572749
  B      -0.200166      1.297076     -0.278759
  B       0.094083     -0.754167     -0.875205
6
Coordinates from ORCA-job B6_random_3d_seed1004_d2.20_q0_m3_R2SCAN-3C E -148.700570240261
  B      -0.659666     -0.507740      0.806474
  B       1.088803      0.685130      0.387424
  B       0.905733     -0.868104      0.532960
  B      -1.228896      0.147749     -0.572555
  B      -0.200060      1.297136     -0.278982
  B       0.094087     -0.754171     -0.875321
