6
Coordinates from ORCA-job B6_random_3d_seed1004_d2.20_q0_m3_R2SCAN-3C E -148.700570240261
  B          -0.65966606263138     -0.50773972706956      0.80647376240261
  B           1.08880254154194      0.68513039393997      0.38742384258884
  B           0.90573303113711     -0.86810373535638      0.53295994293236
  B          -1.22889623396883      0.14774880232728     -0.57255462963713
  B          -0.20006033344876      1.29713571871101     -0.27898233180533
  B           0.09408705736992     -0.75417145255232     -0.87532058648135
