6
Coordinates from ORCA-job B6_rectangular_planar_d2.20_q0_m5_R2SCAN-3C E -148.289582460225
  B      -2.200000     -1.100000      0.000000
  B       0.000000     -1.100000      0.000000
  B       2.200000     -1.100000      0.000000
  B      -2.200000      1.100000      0.000000
  B       0.000000      1.100000      0.000000
  B       2.200000      1.100000      0.000000
6
Coordinates from ORCA-job B6_rectangular_planar_d2.20_q0_m5_R2SCAN-3C E -148.334587803466
  B      -2.143407     -1.064355     -0.000000
  B      -0.000000     -1.076716      0.000000
  B       2.143407     -1.064355     -0.000000
  B      -2.143407      1.064355      0.000000
  B       0.000000      1.076716     -0.000000
  B       2.143407      1.064355      0.000000
6
Coordinates from ORCA-job B6_rectangular_planar_d2.20_q0_m5_R2SCAN-3C E -148.380164414491
  B      -2.086307     -1.028628      0.000000
  B      -0.000000     -1.054895     -0.000000
  B       2.086307     -1.028628      0.000000
  B      -2.086307      1.028628      0.000000
  B       0.000000      1.054895     -0.000000
  B       2.086307      1.028628      0.000000
6
Coordinates from ORCA-job B6_rectangular_planar_d2.20_q0_m5_R2SCAN-3C E -148.446937690188
  B      -1.999786     -0.974640      0.000000
  B      -0.000000     -1.025720     -0.000000
  B       1.999786     -0.974640      0.000000
  B      -1.999786      0.974640      0.000000
  B       0.000000      1.025720     -0.000000
  B       1.999786      0.974640      0.000000
6
Coordinates from ORCA-job B6_rectangular_planar_d2.20_q0_m5_R2SCAN-3C E -148.535776760703
  B      -1.864998     -0.895978     -0.000000
  B      -0.000000     -0.987353      0.000000
  B       1.864998     -0.895978     -0.000000
  B      -1.864998      0.895978     -0.000000
  B       0.000000      0.987353      0.000000
  B       1.864998      0.895978     -0.000000
6
Coordinates from ORCA-job B6_rectangular_planar_d2.20_q0_m5_R2SCAN-3C E -148.593276693377
  B      -1.713155     -0.822586     -0.000000
  B      -0.000000     -0.957304      0.000000
  B       1.713155     -0.822586     -0.000000
  B      -1.713155      0.822586     -0.000000
  B       0.000000      0.957304      0.000000
  B       1.713155      0.822586     -0.000000
6
Coordinates from ORCA-job B6_rectangular_planar_d2.20_q0_m5_R2SCAN-3C E -148.595709867251
  B      -1.604028     -0.811153     -0.000000
  B      -0.000000     -0.953811      0.000000
  B       1.604028     -0.811153     -0.000000
  B      -1.604028      0.811153     -0.000000
  B       0.000000      0.953811      0.000000
  B       1.604028      0.811153     -0.000000
6
Coordinates from ORCA-job B6_rectangular_planar_d2.20_q0_m5_R2SCAN-3C E -148.597028414539
  B      -1.654819     -0.778346     -0.000000
  B      -0.000000     -0.956987      0.000000
  B       1.654819     -0.778346     -0.000000
  B      -1.654819      0.778346     -0.000000
  B       0.000000      0.956987      0.000000
  B       1.654819      0.778346     -0.000000
6
Coordinates from ORCA-job B6_rectangular_planar_d2.20_q0_m5_R2SCAN-3C E -148.598586863544
  B      -1.670299     -0.815850     -0.000000
  B       0.000000     -0.970625      0.000000
  B       1.670298     -0.815850     -0.000000
  B      -1.670298      0.815850     -0.000000
  B       0.000000      0.970625      0.000000
  B       1.670298      0.815850     -0.000000
6
Coordinates from ORCA-job B6_rectangular_planar_d2.20_q0_m5_R2SCAN-3C E -148.599908305687
  B      -1.645307     -0.805237     -0.000001
  B      -0.000000     -0.972316      0.000002
  B       1.645307     -0.805238     -0.000001
  B      -1.645306      0.805237     -0.000001
  B      -0.000000      0.972316      0.000002
  B       1.645307      0.805238     -0.000001
6
Coordinates from ORCA-job B6_rectangular_planar_d2.20_q0_m5_R2SCAN-3C E -148.600275516617
  B      -1.642966     -0.801045     -0.000008
  B      -0.000006     -0.980044      0.000015
  B       1.642972     -0.801055     -0.000008
  B      -1.642966      0.801045     -0.000008
  B      -0.000006      0.980044      0.000015
  B       1.642972      0.801055     -0.000008
6
Coordinates from ORCA-job B6_rectangular_planar_d2.20_q0_m5_R2SCAN-3C E -148.601281476040
  B      -1.635292     -0.793819     -0.000059
  B       0.000052     -1.015901      0.000118
  B       1.635239     -0.793755     -0.000059
  B      -1.635291      0.793819     -0.000059
  B       0.000053      1.015901      0.000118
  B       1.635239      0.793755     -0.000059
6
Coordinates from ORCA-job B6_rectangular_planar_d2.20_q0_m5_R2SCAN-3C E -148.618548489566
  B      -1.627962     -0.794066     -0.024839
  B       0.001454     -1.054563      0.049681
  B       1.626508     -0.790910     -0.024842
  B      -1.627962      0.794065     -0.024840
  B       0.001454      1.054564      0.049683
  B       1.626508      0.790909     -0.024843
6
Coordinates from ORCA-job B6_rectangular_planar_d2.20_q0_m5_R2SCAN-3C E -148.618821844578
  B      -1.619680     -0.788423     -0.012414
  B      -0.001336     -1.068020      0.024925
  B       1.621013     -0.788993     -0.012510
  B      -1.619673      0.788423     -0.012415
  B      -0.001342      1.068020      0.024927
  B       1.621017      0.788993     -0.012512
6
Coordinates from ORCA-job B6_rectangular_planar_d2.20_q0_m5_R2SCAN-3C E -148.618879070924
  B      -1.620193     -0.787247      0.001938
  B       0.004995     -1.064325     -0.003889
  B       1.615204     -0.785524      0.001951
  B      -1.620217      0.787244      0.001937
  B       0.005022      1.064331     -0.003888
  B       1.615189      0.785520      0.001951
6
Coordinates from ORCA-job B6_rectangular_planar_d2.20_q0_m5_R2SCAN-3C E -148.618993425429
  B      -1.619232     -0.786625      0.008055
  B      -0.000765     -1.051466     -0.016200
  B       1.619999     -0.784688      0.008146
  B      -1.619250      0.786620      0.008054
  B      -0.000748      1.051475     -0.016200
  B       1.619996      0.784684      0.008147
6
Coordinates from ORCA-job B6_rectangular_planar_d2.20_q0_m5_R2SCAN-3C E -148.619029339105
  B      -1.622008     -0.782753      0.000954
  B      -0.000905     -1.043821     -0.002012
  B       1.622902     -0.786461      0.001058
  B      -1.621979      0.782752      0.000954
  B      -0.000937      1.043817     -0.002013
  B       1.622926      0.786466      0.001059
6
Coordinates from ORCA-job B6_rectangular_planar_d2.20_q0_m5_R2SCAN-3C E -148.619047562551
  B      -1.624890     -0.784514     -0.002675
  B      -0.000344     -1.034706      0.005239
  B       1.625232     -0.783277     -0.002565
  B      -1.624884      0.784516     -0.002673
  B      -0.000340      1.034699      0.005237
  B       1.625225      0.783282     -0.002563
6
Coordinates from ORCA-job B6_rectangular_planar_d2.20_q0_m5_R2SCAN-3C E -148.619051376477
  B      -1.625628     -0.784300      0.000729
  B       0.000131     -1.030867     -0.001568
  B       1.625497     -0.784408      0.000839
  B      -1.625652      0.784290      0.000730
  B       0.000144      1.030884     -0.001569
  B       1.625509      0.784400      0.000840
6
Coordinates from ORCA-job B6_rectangular_planar_d2.20_q0_m5_R2SCAN-3C E -148.619051755133
  B      -1.625194     -0.784159     -0.000025
  B       0.000004     -1.031809     -0.000061
  B       1.625184     -0.784224      0.000085
  B      -1.625144      0.784178     -0.000023
  B      -0.000002      1.031765     -0.000062
  B       1.625152      0.784249      0.000087
6
Coordinates from ORCA-job B6_rectangular_planar_d2.20_q0_m5_R2SCAN-3C E -148.619051758148
  B      -1.625191     -0.784224      0.000039
  B      -0.000008     -1.031694     -0.000189
  B       1.625198     -0.784209      0.000149
  B      -1.625235      0.784200      0.000041
  B       0.000002      1.031739     -0.000190
  B       1.625235      0.784187      0.000150
