6
Coordinates from ORCA-job B6_rectangular_planar_d2.20_q0_m5_R2SCAN-3C E -148.619051758148
  B          -1.62519098061036     -0.78422385186314      0.00003932864347
  B          -0.00000816671440     -1.03169386456393     -0.00018927208735
  B           1.62519787535136     -0.78420861951330      0.00014924817788
  B          -1.62523528636084      0.78419972687739      0.00004051592909
  B           0.00000201911239      1.03173916757043     -0.00019031668449
  B           1.62523453922186      0.78418744149256      0.00015049602140
