6
Coordinates from ORCA-job B6_rhombic_planar_d2.00_q0_m3_R2SCAN-3C E -148.495675362631
  B      -2.500000     -0.866025      0.000000
  B      -0.500000     -0.866025      0.000000
  B       1.500000     -0.866025      0.000000
  B      -1.500000      0.866025      0.000000
  B       0.500000      0.866025      0.000000
  B       2.500000      0.866025      0.000000
6
Coordinates from ORCA-job B6_rhombic_planar_d2.00_q0_m3_R2SCAN-3C E -148.542177635702
  B      -2.420808     -0.838399     -0.000000
  B      -0.473442     -0.855361      0.000000
  B       1.457998     -0.853231      0.000000
  B      -1.457998      0.853231      0.000000
  B       0.473442      0.855361     -0.000000
  B       2.420808      0.838399     -0.000000
6
Coordinates from ORCA-job B6_rhombic_planar_d2.00_q0_m3_R2SCAN-3C E -148.587573213210
  B      -2.341061     -0.810207      0.000000
  B      -0.446216     -0.845178     -0.000000
  B       1.416855     -0.840869      0.000000
  B      -1.416855      0.840869      0.000000
  B       0.446216      0.845178     -0.000000
  B       2.341061      0.810207      0.000000
6
Coordinates from ORCA-job B6_rhombic_planar_d2.00_q0_m3_R2SCAN-3C E -148.648743514883
  B      -2.220572     -0.766108     -0.000000
  B      -0.403586     -0.833637      0.000000
  B       1.356168     -0.822683      0.000000
  B      -1.356168      0.822683      0.000000
  B       0.403586      0.833637     -0.000000
  B       2.220572      0.766108     -0.000000
6
Coordinates from ORCA-job B6_rhombic_planar_d2.00_q0_m3_R2SCAN-3C E -148.708056330110
  B      -2.047041     -0.698974      0.000000
  B      -0.343310     -0.818097     -0.000000
  B       1.262129     -0.786167      0.000000
  B      -1.262129      0.786167     -0.000000
  B       0.343310      0.818097      0.000000
  B       2.047041      0.698974     -0.000000
6
Coordinates from ORCA-job B6_rhombic_planar_d2.00_q0_m3_R2SCAN-3C E -148.715278469157
  B      -1.969069     -0.657247     -0.000000
  B      -0.328051     -0.806427     -0.000000
  B       1.216639     -0.740053      0.000000
  B      -1.216639      0.740053      0.000000
  B       0.328051      0.806427     -0.000000
  B       1.969069      0.657247      0.000000
6
Coordinates from ORCA-job B6_rhombic_planar_d2.00_q0_m3_R2SCAN-3C E -148.716668682708
  B      -1.998734     -0.669723     -0.000000
  B      -0.340178     -0.803818     -0.000000
  B       1.216847     -0.735605      0.000000
  B      -1.216847      0.735605      0.000000
  B       0.340178      0.803818     -0.000000
  B       1.998734      0.669723     -0.000000
6
Coordinates from ORCA-job B6_rhombic_planar_d2.00_q0_m3_R2SCAN-3C E -148.716871209870
  B      -2.008239     -0.669598      0.000000
  B      -0.345357     -0.800697     -0.000000
  B       1.214028     -0.724170     -0.000000
  B      -1.214028      0.724170     -0.000000
  B       0.345357      0.800697     -0.000000
  B       2.008239      0.669598      0.000000
6
Coordinates from ORCA-job B6_rhombic_planar_d2.00_q0_m3_R2SCAN-3C E -148.716875702590
  B      -2.009251     -0.669732     -0.000000
  B      -0.344647     -0.800250      0.000000
  B       1.210718     -0.722199      0.000000
  B      -1.210718      0.722199      0.000000
  B       0.344647      0.800250      0.000000
  B       2.009251      0.669732     -0.000000
6
Coordinates from ORCA-job B6_rhombic_planar_d2.00_q0_m3_R2SCAN-3C E -148.716880177433
  B      -2.009030     -0.669216      0.000000
  B      -0.344919     -0.800628     -0.000000
  B       1.212036     -0.722180     -0.000000
  B      -1.212036      0.722180     -0.000000
  B       0.344919      0.800628     -0.000000
  B       2.009030      0.669216      0.000000
6
Coordinates from ORCA-job B6_rhombic_planar_d2.00_q0_m3_R2SCAN-3C E -148.716880362888
  B      -2.008976     -0.669200     -0.000000
  B      -0.344928     -0.800878      0.000000
  B       1.211991     -0.722222      0.000000
  B      -1.211991      0.722222      0.000000
  B       0.344928      0.800878      0.000000
  B       2.008976      0.669200     -0.000000
6
Coordinates from ORCA-job B6_rhombic_planar_d2.00_q0_m3_R2SCAN-3C E -148.716880512398
  B      -2.008997     -0.669141      0.000000
  B      -0.344982     -0.801362     -0.000000
  B       1.211816     -0.722111     -0.000000
  B      -1.211816      0.722111     -0.000000
  B       0.344982      0.801362     -0.000000
  B       2.008997      0.669141      0.000000
6
Coordinates from ORCA-job B6_rhombic_planar_d2.00_q0_m3_R2SCAN-3C E -148.716880513253
  B      -2.009021     -0.669145      0.000000
  B      -0.344985     -0.801349     -0.000000
  B       1.211812     -0.722095      0.000000
  B      -1.211812      0.722095     -0.000000
  B       0.344985      0.801349     -0.000000
  B       2.009021      0.669145      0.000000
