6
Coordinates from ORCA-job B6_rhombic_planar_d2.00_q0_m3_R2SCAN-3C E -148.716880513253
  B          -2.00902063669018     -0.66914467147867      0.00000001393865
  B          -0.34498458768928     -0.80134899120277     -0.00000002395111
  B           1.21181186173301     -0.72209545765026      0.00000001153470
  B          -1.21181185518784      0.72209546278738     -0.00000000077350
  B           0.34498459202828      0.80134898816881     -0.00000000380875
  B           2.00902062580601      0.66914466937551      0.00000000306001
