6
Coordinates from ORCA-job B6_rectangular_planar_d2.00_q0_m5_R2SCAN-3C E -148.602422456832
  B          -1.62224927915860     -0.79719460995919     -0.00000820329296
  B          -0.00000000344248     -1.09600577477054      0.00001641008874
  B           1.62224928334340     -0.79719460544221     -0.00000823072103
  B          -1.62224928044867      0.79719461268452     -0.00000814349262
  B          -0.00000000442074      1.09600577088851      0.00001628348254
  B           1.62224928412710      0.79719460659890     -0.00000811606466
