6
Coordinates from ORCA-job B6_rectangular_planar_d2.00_q0_m5_R2SCAN-3C E -148.436568360590
  B      -2.000000     -1.000000      0.000000
  B       0.000000     -1.000000      0.000000
  B       2.000000     -1.000000      0.000000
  B      -2.000000      1.000000      0.000000
  B       0.000000      1.000000      0.000000
  B       2.000000      1.000000      0.000000
6
Coordinates from ORCA-job B6_rectangular_planar_d2.00_q0_m5_R2SCAN-3C E -148.478607262405
  B      -1.942196     -0.963956      0.000000
  B      -0.000000     -0.982050      0.000000
  B       1.942196     -0.963956     -0.000000
  B      -1.942196      0.963956     -0.000000
  B       0.000000      0.982050      0.000000
  B       1.942196      0.963956     -0.000000
6
Coordinates from ORCA-job B6_rectangular_planar_d2.00_q0_m5_R2SCAN-3C E -148.517424318629
  B      -1.883598     -0.927524     -0.000000
  B       0.000000     -0.969231      0.000000
  B       1.883598     -0.927524     -0.000000
  B      -1.883598      0.927524     -0.000000
  B       0.000000      0.969231      0.000000
  B       1.883598      0.927524     -0.000000
6
Coordinates from ORCA-job B6_rectangular_planar_d2.00_q0_m5_R2SCAN-3C E -148.565817314230
  B      -1.793870     -0.873107      0.000000
  B       0.000000     -0.958138     -0.000000
  B       1.793870     -0.873107     -0.000000
  B      -1.793870      0.873107     -0.000000
  B       0.000000      0.958138     -0.000000
  B       1.793870      0.873107      0.000000
6
Coordinates from ORCA-job B6_rectangular_planar_d2.00_q0_m5_R2SCAN-3C E -148.599415536230
  B      -1.648041     -0.799335     -0.000000
  B      -0.000000     -0.961139      0.000000
  B       1.648041     -0.799335      0.000000
  B      -1.648041      0.799335      0.000000
  B      -0.000000      0.961139      0.000000
  B       1.648041      0.799335     -0.000000
6
Coordinates from ORCA-job B6_rectangular_planar_d2.00_q0_m5_R2SCAN-3C E -148.600307217051
  B      -1.637235     -0.805348      0.000000
  B      -0.000000     -0.984415     -0.000000
  B       1.637235     -0.805348      0.000000
  B      -1.637235      0.805348      0.000000
  B       0.000000      0.984415     -0.000000
  B       1.637235      0.805348      0.000000
6
Coordinates from ORCA-job B6_rectangular_planar_d2.00_q0_m5_R2SCAN-3C E -148.601927041684
  B      -1.633812     -0.800334     -0.000000
  B      -0.000000     -1.041619      0.000000
  B       1.633812     -0.800334     -0.000000
  B      -1.633812      0.800334     -0.000000
  B       0.000000      1.041619      0.000000
  B       1.633812      0.800334     -0.000000
6
Coordinates from ORCA-job B6_rectangular_planar_d2.00_q0_m5_R2SCAN-3C E -148.602408401607
  B      -1.621691     -0.796178     -0.000000
  B       0.000000     -1.090023      0.000000
  B       1.621691     -0.796178     -0.000000
  B      -1.621691      0.796178     -0.000000
  B       0.000000      1.090023      0.000000
  B       1.621691      0.796178     -0.000000
6
Coordinates from ORCA-job B6_rectangular_planar_d2.00_q0_m5_R2SCAN-3C E -148.602421062181
  B      -1.623022     -0.797509     -0.000001
  B      -0.000000     -1.096638      0.000003
  B       1.623022     -0.797509     -0.000001
  B      -1.623022      0.797509     -0.000001
  B      -0.000000      1.096638      0.000003
  B       1.623022      0.797509     -0.000001
6
Coordinates from ORCA-job B6_rectangular_planar_d2.00_q0_m5_R2SCAN-3C E -148.602422460003
  B      -1.622215     -0.797185     -0.000004
  B       0.000000     -1.096115      0.000007
  B       1.622215     -0.797185     -0.000004
  B      -1.622215      0.797185     -0.000004
  B       0.000000      1.096115      0.000007
  B       1.622215      0.797185     -0.000004
6
Coordinates from ORCA-job B6_rectangular_planar_d2.00_q0_m5_R2SCAN-3C E -148.602422456832
  B      -1.622249     -0.797195     -0.000008
  B      -0.000000     -1.096006      0.000016
  B       1.622249     -0.797195     -0.000008
  B      -1.622249      0.797195     -0.000008
  B      -0.000000      1.096006      0.000016
  B       1.622249      0.797195     -0.000008
