6
Coordinates from ORCA-job B6_compact_planar_triangle_d2.20_q0_m1_R2SCAN-3C E -148.630568482579
  B          -1.69339356352409     -0.97774300188546      0.00000000123513
  B          -0.00000000173883     -0.92918847977820     -0.00000000127974
  B           1.69339356285097     -0.97774300059103      0.00000000220952
  B          -0.80476457813758      0.46465942940287     -0.00000000112696
  B           0.80476458021433      0.46465943156794     -0.00000000316850
  B           0.00000000033521      1.95535563128389      0.00000000213054
