6
Coordinates from ORCA-job B6_compact_planar_triangle_d2.20_q0_m1_R2SCAN-3C E -148.346732065895
  B      -2.200000     -1.270171      0.000000
  B       0.000000     -1.270171      0.000000
  B       2.200000     -1.270171      0.000000
  B      -1.100000      0.635085      0.000000
  B       1.100000      0.635085      0.000000
  B       0.000000      2.540341      0.000000
6
Coordinates from ORCA-job B6_compact_planar_triangle_d2.20_q0_m1_R2SCAN-3C E -148.381649121529
  B      -2.151509     -1.242177      0.000000
  B       0.000000     -1.235162     -0.000000
  B       2.151509     -1.242177      0.000000
  B      -1.069681      0.617580     -0.000000
  B       1.069681      0.617580     -0.000000
  B       0.000000      2.484354      0.000000
6
Coordinates from ORCA-job B6_compact_planar_triangle_d2.20_q0_m1_R2SCAN-3C E -148.417111379888
  B      -2.102890     -1.214089      0.000000
  B       0.000000     -1.200268     -0.000000
  B       2.102890     -1.214089      0.000000
  B      -1.039464      0.600127     -0.000000
  B       1.039464      0.600127     -0.000000
  B       0.000000      2.428192      0.000000
6
Coordinates from ORCA-job B6_compact_planar_triangle_d2.20_q0_m1_R2SCAN-3C E -148.470894755497
  B      -2.029435     -1.171662      0.000000
  B       0.000000     -1.148378     -0.000000
  B       2.029435     -1.171662      0.000000
  B      -0.994525      0.574186     -0.000000
  B       0.994525      0.574186     -0.000000
  B       0.000000      2.343332      0.000000
6
Coordinates from ORCA-job B6_compact_planar_triangle_d2.20_q0_m1_R2SCAN-3C E -148.546969164250
  B      -1.918540     -1.107714      0.000000
  B       0.000000     -1.071061     -0.000000
  B       1.918540     -1.107714      0.000000
  B      -0.927585      0.535538     -0.000000
  B       0.927585      0.535538     -0.000000
  B      -0.000000      2.215413      0.000000
6
Coordinates from ORCA-job B6_compact_planar_triangle_d2.20_q0_m1_R2SCAN-3C E -148.608383019730
  B      -1.802781     -1.040827      0.000000
  B       0.000000     -0.991666     -0.000000
  B       1.802781     -1.040827      0.000000
  B      -0.858811      0.495835      0.000000
  B       0.858811      0.495835     -0.000000
  B      -0.000000      2.081650      0.000000
6
Coordinates from ORCA-job B6_compact_planar_triangle_d2.20_q0_m1_R2SCAN-3C E -148.630385617052
  B      -1.686465     -0.973676      0.000000
  B      -0.000000     -0.922582     -0.000000
  B       1.686465     -0.973676      0.000000
  B      -0.798975      0.461225     -0.000000
  B       0.798975      0.461225     -0.000000
  B       0.000000      1.947482      0.000000
6
Coordinates from ORCA-job B6_compact_planar_triangle_d2.20_q0_m1_R2SCAN-3C E -148.630541466125
  B      -1.694300     -0.978249      0.000000
  B       0.000000     -0.932271     -0.000000
  B       1.694300     -0.978249      0.000000
  B      -0.807351      0.466180      0.000000
  B       0.807351      0.466180      0.000000
  B       0.000000      1.956408     -0.000000
6
Coordinates from ORCA-job B6_compact_planar_triangle_d2.20_q0_m1_R2SCAN-3C E -148.630565810505
  B      -1.694532     -0.978368     -0.000000
  B      -0.000000     -0.928917     -0.000000
  B       1.694532     -0.978368     -0.000000
  B      -0.804496      0.464495      0.000000
  B       0.804496      0.464495      0.000000
  B       0.000000      1.956661     -0.000000
6
Coordinates from ORCA-job B6_compact_planar_triangle_d2.20_q0_m1_R2SCAN-3C E -148.630567796158
  B      -1.692758     -0.977355      0.000000
  B       0.000000     -0.929098     -0.000000
  B       1.692758     -0.977355      0.000000
  B      -0.804671      0.464606     -0.000000
  B       0.804671      0.464606     -0.000000
  B      -0.000000      1.954596      0.000000
6
Coordinates from ORCA-job B6_compact_planar_triangle_d2.20_q0_m1_R2SCAN-3C E -148.630568481430
  B      -1.693407     -0.977742     -0.000000
  B       0.000000     -0.929212     -0.000000
  B       1.693407     -0.977742      0.000000
  B      -0.804777      0.464666      0.000000
  B       0.804777      0.464666      0.000000
  B      -0.000000      1.955363     -0.000000
6
Coordinates from ORCA-job B6_compact_planar_triangle_d2.20_q0_m1_R2SCAN-3C E -148.630568482579
  B      -1.693394     -0.977743      0.000000
  B      -0.000000     -0.929188     -0.000000
  B       1.693394     -0.977743      0.000000
  B      -0.804765      0.464659     -0.000000
  B       0.804765      0.464659     -0.000000
  B       0.000000      1.955356      0.000000
