6
Coordinates from ORCA-job B6_random_3d_seed1003_d3.00_q0_m5_R2SCAN-3C E -148.669780165771
  B           0.30078130384683      0.43978450111604     -0.92634665574875
  B           0.34399834576743     -0.91423877988741      0.28975378674669
  B          -1.18519262247890      0.34144160496840     -0.04792335511739
  B           1.41276240441323      0.20589923044136      0.69104605500674
  B           0.03858559701183      1.03205625942215      0.67645432657889
  B          -0.91093503856041     -1.10494281606054     -0.68298416746619
