6
Coordinates from ORCA-job B6_random_3d_seed1003_d3.00_q0_m5_R2SCAN-3C E -148.015808045946
  B       0.284996      1.350563     -1.794001
  B      -0.227518     -1.304058      1.628315
  B      -2.173510      0.305819     -0.069425
  B       2.305999     -0.229239      0.177339
  B       0.150463      1.553728      1.376879
  B      -0.340431     -1.676812     -1.319108
6
Coordinates from ORCA-job B6_random_3d_seed1003_d3.00_q0_m5_R2SCAN-3C E -148.028514194445
  B       0.280217      1.335819     -1.778149
  B      -0.222604     -1.281203      1.601984
  B      -2.140310      0.299366     -0.069650
  B       2.282999     -0.223460      0.181998
  B       0.145361      1.518956      1.357294
  B      -0.345664     -1.649478     -1.293477
6
Coordinates from ORCA-job B6_random_3d_seed1003_d3.00_q0_m5_R2SCAN-3C E -148.041817742388
  B       0.275186      1.321199     -1.762458
  B      -0.217665     -1.258215      1.575908
  B      -2.107471      0.292741     -0.070022
  B       2.260199     -0.217739      0.187041
  B       0.140642      1.483774      1.337416
  B      -0.350891     -1.621761     -1.267885
6
Coordinates from ORCA-job B6_random_3d_seed1003_d3.00_q0_m5_R2SCAN-3C E -148.062957390255
  B       0.267251      1.299018     -1.738499
  B      -0.210223     -1.223507      1.537027
  B      -2.058368      0.282577     -0.070734
  B       2.225426     -0.209307      0.194855
  B       0.134284      1.431264      1.307463
  B      -0.358371     -1.580045     -1.230112
6
Coordinates from ORCA-job B6_random_3d_seed1003_d3.00_q0_m5_R2SCAN-3C E -148.097565935931
  B       0.254368      1.265138     -1.701657
  B      -0.198891     -1.170782      1.479172
  B      -1.984989      0.266926     -0.072195
  B       2.172180     -0.197019      0.207220
  B       0.126246      1.353032      1.262397
  B      -0.368913     -1.517295     -1.174937
6
Coordinates from ORCA-job B6_random_3d_seed1003_d3.00_q0_m5_R2SCAN-3C E -148.137612656300
  B       0.239200      1.229741     -1.663804
  B      -0.186267     -1.114379      1.419944
  B      -1.910198      0.250027     -0.074831
  B       2.117599     -0.184687      0.222353
  B       0.119908      1.270598      1.215629
  B      -0.380240     -1.451300     -1.119291
6
Coordinates from ORCA-job B6_random_3d_seed1003_d3.00_q0_m5_R2SCAN-3C E -148.182452981515
  B       0.222001      1.193446     -1.626490
  B      -0.172104     -1.055209      1.361455
  B      -1.837019      0.232071     -0.079274
  B       2.063848     -0.172799      0.240185
  B       0.115934      1.186834      1.170169
  B      -0.392660     -1.384344     -1.066044
6
Coordinates from ORCA-job B6_random_3d_seed1003_d3.00_q0_m5_R2SCAN-3C E -148.232437845604
  B       0.202392      1.155677     -1.590027
  B      -0.155434     -0.992590      1.304208
  B      -1.765791      0.212474     -0.086592
  B       2.010762     -0.161564      0.261237
  B       0.115002      1.102022      1.127397
  B      -0.406932     -1.316018     -1.016223
6
Coordinates from ORCA-job B6_random_3d_seed1003_d3.00_q0_m5_R2SCAN-3C E -148.287175294186
  B       0.179604      1.116088     -1.554490
  B      -0.135106     -0.928138      1.249278
  B      -1.696654      0.190813     -0.098285
  B       1.957955     -0.151818      0.285912
  B       0.117622      1.018121      1.087716
  B      -0.423421     -1.245066     -0.970130
6
Coordinates from ORCA-job B6_random_3d_seed1003_d3.00_q0_m5_R2SCAN-3C E -148.347203443334
  B       0.154275      1.075614     -1.520619
  B      -0.112125     -0.862895      1.197209
  B      -1.631000      0.167459     -0.113585
  B       1.906939     -0.144671      0.312621
  B       0.122169      0.935147      1.050430
  B      -0.440258     -1.170654     -0.926056
6
Coordinates from ORCA-job B6_random_3d_seed1003_d3.00_q0_m5_R2SCAN-3C E -148.407711550420
  B       0.132364      1.033567     -1.485464
  B      -0.096097     -0.803754      1.140266
  B      -1.565581      0.139008     -0.127580
  B       1.858022     -0.136319      0.335194
  B       0.127639      0.858153      1.012321
  B      -0.456348     -1.090654     -0.874737
6
Coordinates from ORCA-job B6_random_3d_seed1003_d3.00_q0_m5_R2SCAN-3C E -148.445074348069
  B       0.120508      1.004315     -1.458988
  B      -0.090287     -0.780739      1.096188
  B      -1.518845      0.119182     -0.134924
  B       1.817445     -0.125346      0.350155
  B       0.138474      0.820284      0.982764
  B      -0.467296     -1.037696     -0.835195
6
Coordinates from ORCA-job B6_random_3d_seed1003_d3.00_q0_m5_R2SCAN-3C E -148.480535374916
  B       0.110181      0.972708     -1.427747
  B      -0.086352     -0.769197      1.048297
  B      -1.473198      0.107587     -0.135979
  B       1.763804     -0.109387      0.365111
  B       0.156895      0.793194      0.950279
  B      -0.471329     -0.994905     -0.799962
6
Coordinates from ORCA-job B6_random_3d_seed1003_d3.00_q0_m5_R2SCAN-3C E -148.526774088185
  B       0.096655      0.922642     -1.371695
  B      -0.083523     -0.755646      0.973442
  B      -1.418653      0.102205     -0.131165
  B       1.674003     -0.083090      0.383564
  B       0.192939      0.759477      0.899659
  B      -0.461421     -0.945587     -0.753806
6
Coordinates from ORCA-job B6_random_3d_seed1003_d3.00_q0_m5_R2SCAN-3C E -148.564846569409
  B       0.079093      0.863883     -1.306071
  B      -0.081610     -0.754395      0.905943
  B      -1.361901      0.119704     -0.115278
  B       1.579685     -0.055840      0.397708
  B       0.222006      0.738250      0.844900
  B      -0.437273     -0.911602     -0.727203
6
Coordinates from ORCA-job B6_random_3d_seed1003_d3.00_q0_m5_R2SCAN-3C E -148.595230849683
  B       0.058354      0.795604     -1.217445
  B      -0.083501     -0.768459      0.849354
  B      -1.306726      0.159090     -0.096910
  B       1.512473     -0.040724      0.394255
  B       0.219138      0.743893      0.785554
  B      -0.399738     -0.889404     -0.714808
6
Coordinates from ORCA-job B6_random_3d_seed1003_d3.00_q0_m5_R2SCAN-3C E -148.619508608407
  B       0.039829      0.748233     -1.122488
  B      -0.069163     -0.791262      0.812980
  B      -1.259451      0.210245     -0.085544
  B       1.462633     -0.045189      0.384973
  B       0.191794      0.771322      0.722068
  B      -0.365642     -0.893349     -0.711989
6
Coordinates from ORCA-job B6_random_3d_seed1003_d3.00_q0_m5_R2SCAN-3C E -148.636853424202
  B       0.032820      0.735130     -1.032565
  B      -0.023236     -0.808005      0.791395
  B      -1.240434      0.261840     -0.078857
  B       1.406656     -0.067626      0.384612
  B       0.166808      0.811708      0.657782
  B      -0.342613     -0.933046     -0.722368
6
Coordinates from ORCA-job B6_random_3d_seed1003_d3.00_q0_m5_R2SCAN-3C E -148.642598460073
  B       0.042897      0.715617     -0.989089
  B       0.010457     -0.817756      0.801394
  B      -1.266867      0.271006     -0.074887
  B       1.395169     -0.097147      0.381999
  B       0.154236      0.866423      0.637016
  B      -0.335892     -0.938141     -0.756433
6
Coordinates from ORCA-job B6_random_3d_seed1003_d3.00_q0_m5_R2SCAN-3C E -148.643385899163
  B       0.084816      0.715343     -0.975443
  B      -0.004678     -0.821602      0.788945
  B      -1.286883      0.255007     -0.051974
  B       1.398030     -0.097167      0.361806
  B       0.145396      0.899737      0.635784
  B      -0.336681     -0.951319     -0.759118
6
Coordinates from ORCA-job B6_random_3d_seed1003_d3.00_q0_m5_R2SCAN-3C E -148.643915064831
  B       0.101179      0.694360     -0.963889
  B       0.003125     -0.811244      0.799069
  B      -1.288254      0.242815     -0.047008
  B       1.376381     -0.091774      0.353604
  B       0.152053      0.909953      0.642642
  B      -0.344484     -0.944111     -0.784416
6
Coordinates from ORCA-job B6_random_3d_seed1003_d3.00_q0_m5_R2SCAN-3C E -148.644283394513
  B       0.099968      0.683435     -0.943559
  B      -0.001591     -0.808304      0.791200
  B      -1.275925      0.233751     -0.058023
  B       1.376261     -0.092240      0.342960
  B       0.150896      0.921780      0.645964
  B      -0.349610     -0.938422     -0.778542
6
Coordinates from ORCA-job B6_random_3d_seed1003_d3.00_q0_m5_R2SCAN-3C E -148.644459877474
  B       0.107496      0.681683     -0.943764
  B      -0.003029     -0.807293      0.785258
  B      -1.275987      0.233107     -0.060823
  B       1.373175     -0.086834      0.335943
  B       0.152015      0.925634      0.658484
  B      -0.353671     -0.946297     -0.775098
6
Coordinates from ORCA-job B6_random_3d_seed1003_d3.00_q0_m5_R2SCAN-3C E -148.644586639367
  B       0.126585      0.677665     -0.928949
  B      -0.007722     -0.805928      0.782312
  B      -1.274301      0.230765     -0.067203
  B       1.368807     -0.069690      0.318796
  B       0.153355      0.927168      0.669668
  B      -0.366724     -0.959981     -0.774625
6
Coordinates from ORCA-job B6_random_3d_seed1003_d3.00_q0_m5_R2SCAN-3C E -148.644711385937
  B       0.136940      0.668642     -0.920650
  B      -0.003464     -0.804956      0.778548
  B      -1.268877      0.234557     -0.074929
  B       1.363378     -0.061370      0.305868
  B       0.147617      0.930078      0.683756
  B      -0.375594     -0.966950     -0.772593
6
Coordinates from ORCA-job B6_random_3d_seed1003_d3.00_q0_m5_R2SCAN-3C E -148.644874609992
  B       0.146856      0.658170     -0.909630
  B       0.008296     -0.810469      0.776710
  B      -1.261813      0.244165     -0.095822
  B       1.361879     -0.045069      0.292267
  B       0.140721      0.929745      0.702992
  B      -0.395939     -0.976542     -0.766517
6
Coordinates from ORCA-job B6_random_3d_seed1003_d3.00_q0_m5_R2SCAN-3C E -148.645032369560
  B       0.160804      0.650907     -0.901117
  B       0.024539     -0.817656      0.772456
  B      -1.257669      0.257842     -0.109571
  B       1.362365     -0.029904      0.284589
  B       0.127308      0.925041      0.712954
  B      -0.417348     -0.986229     -0.759311
6
Coordinates from ORCA-job B6_random_3d_seed1003_d3.00_q0_m5_R2SCAN-3C E -148.645534184559
  B       0.183472      0.636042     -0.895336
  B       0.063526     -0.837783      0.761833
  B      -1.254368      0.290253     -0.133502
  B       1.379534      0.003485      0.288326
  B       0.096273      0.907035      0.723003
  B      -0.468438     -0.999031     -0.744324
6
Coordinates from ORCA-job B6_random_3d_seed1003_d3.00_q0_m5_R2SCAN-3C E -148.646115259241
  B       0.197467      0.627270     -0.898868
  B       0.102500     -0.857072      0.750811
  B      -1.257889      0.319960     -0.146119
  B       1.405158      0.027121      0.309160
  B       0.065789      0.885536      0.715769
  B      -0.513025     -1.002814     -0.730753
6
Coordinates from ORCA-job B6_random_3d_seed1003_d3.00_q0_m5_R2SCAN-3C E -148.646641525513
  B       0.213318      0.617186     -0.894203
  B       0.127124     -0.868738      0.740576
  B      -1.265546      0.331582     -0.155602
  B       1.422337      0.045542      0.321073
  B       0.050276      0.877528      0.712030
  B      -0.547509     -1.003100     -0.723875
6
Coordinates from ORCA-job B6_random_3d_seed1003_d3.00_q0_m5_R2SCAN-3C E -148.647800346920
  B       0.234123      0.600781     -0.888037
  B       0.158510     -0.883373      0.713214
  B      -1.281487      0.336634     -0.162607
  B       1.450462      0.074001      0.353957
  B       0.041246      0.875995      0.701568
  B      -0.602853     -1.004039     -0.718094
6
Coordinates from ORCA-job B6_random_3d_seed1003_d3.00_q0_m5_R2SCAN-3C E -148.649864785277
  B       0.269721      0.568797     -0.879074
  B       0.196426     -0.895768      0.658859
  B      -1.289273      0.344360     -0.161069
  B       1.480469      0.121374      0.400713
  B       0.026061      0.874821      0.691362
  B      -0.683403     -1.013584     -0.710791
6
Coordinates from ORCA-job B6_random_3d_seed1003_d3.00_q0_m5_R2SCAN-3C E -148.653401634566
  B       0.289292      0.539464     -0.887236
  B       0.185420     -0.883684      0.582550
  B      -1.287218      0.310185     -0.117644
  B       1.482545      0.157593      0.469163
  B       0.063143      0.907369      0.677511
  B      -0.733180     -1.030926     -0.724345
6
Coordinates from ORCA-job B6_random_3d_seed1003_d3.00_q0_m5_R2SCAN-3C E -148.658262772106
  B       0.307927      0.504075     -0.899481
  B       0.182672     -0.862781      0.507058
  B      -1.240219      0.309505     -0.083154
  B       1.447258      0.190790      0.505429
  B       0.072100      0.920384      0.693775
  B      -0.769736     -1.061972     -0.723626
6
Coordinates from ORCA-job B6_random_3d_seed1003_d3.00_q0_m5_R2SCAN-3C E -148.663575367363
  B       0.305791      0.469722     -0.912188
  B       0.217335     -0.848873      0.448469
  B      -1.200849      0.311182     -0.057444
  B       1.443763      0.202552      0.561064
  B       0.056060      0.943984      0.693144
  B      -0.822101     -1.078566     -0.733045
6
Coordinates from ORCA-job B6_random_3d_seed1003_d3.00_q0_m5_R2SCAN-3C E -148.665599286636
  B       0.275443      0.462548     -0.925297
  B       0.250563     -0.855768      0.430601
  B      -1.165019      0.321256     -0.056703
  B       1.427967      0.178434      0.584724
  B       0.042254      0.984980      0.703162
  B      -0.831208     -1.091450     -0.736487
6
Coordinates from ORCA-job B6_random_3d_seed1003_d3.00_q0_m5_R2SCAN-3C E -148.666901621913
  B       0.276635      0.442774     -0.927570
  B       0.266987     -0.854232      0.367945
  B      -1.168499      0.309560     -0.039219
  B       1.452928      0.202400      0.654157
  B       0.055789      1.011066      0.689783
  B      -0.883841     -1.111567     -0.745097
6
Coordinates from ORCA-job B6_random_3d_seed1003_d3.00_q0_m5_R2SCAN-3C E -148.667907454664
  B       0.263835      0.463087     -0.941911
  B       0.282442     -0.876748      0.375902
  B      -1.187121      0.325382     -0.048627
  B       1.456528      0.192924      0.666052
  B       0.054914      0.999865      0.676147
  B      -0.870598     -1.104509     -0.727562
6
Coordinates from ORCA-job B6_random_3d_seed1003_d3.00_q0_m5_R2SCAN-3C E -148.668861095568
  B       0.262326      0.466020     -0.943522
  B       0.305637     -0.883767      0.354664
  B      -1.184010      0.329411     -0.050307
  B       1.432521      0.179748      0.676299
  B       0.055063      1.014167      0.672604
  B      -0.871538     -1.105578     -0.709738
6
Coordinates from ORCA-job B6_random_3d_seed1003_d3.00_q0_m5_R2SCAN-3C E -148.669407272572
  B       0.275607      0.454101     -0.928283
  B       0.325420     -0.899566      0.319845
  B      -1.183901      0.347902     -0.069487
  B       1.428382      0.196049      0.677830
  B       0.045880      1.015204      0.687474
  B      -0.891388     -1.113690     -0.687380
6
Coordinates from ORCA-job B6_random_3d_seed1003_d3.00_q0_m5_R2SCAN-3C E -148.669608139210
  B       0.285616      0.446626     -0.933854
  B       0.341910     -0.898786      0.288173
  B      -1.186990      0.344450     -0.048807
  B       1.422284      0.195270      0.707617
  B       0.043202      1.025439      0.668562
  B      -0.906023     -1.112999     -0.681691
6
Coordinates from ORCA-job B6_random_3d_seed1003_d3.00_q0_m5_R2SCAN-3C E -148.669600347847
  B       0.291451      0.450907     -0.932819
  B       0.340311     -0.913293      0.287628
  B      -1.183848      0.332528     -0.048003
  B       1.409145      0.203161      0.704594
  B       0.052610      1.033389      0.668697
  B      -0.909669     -1.106692     -0.680096
6
Coordinates from ORCA-job B6_random_3d_seed1003_d3.00_q0_m5_R2SCAN-3C E -148.669753891526
  B       0.297666      0.443446     -0.927160
  B       0.346692     -0.910841      0.288897
  B      -1.184681      0.341983     -0.055039
  B       1.415273      0.204881      0.694234
  B       0.039452      1.027241      0.677557
  B      -0.914402     -1.106710     -0.678488
6
Coordinates from ORCA-job B6_random_3d_seed1003_d3.00_q0_m5_R2SCAN-3C E -148.669768999089
  B       0.295645      0.443138     -0.929905
  B       0.342872     -0.910948      0.289953
  B      -1.183754      0.342629     -0.049748
  B       1.414200      0.203648      0.695262
  B       0.040546      1.029277      0.675908
  B      -0.909509     -1.107745     -0.681468
6
Coordinates from ORCA-job B6_random_3d_seed1003_d3.00_q0_m5_R2SCAN-3C E -148.669777672950
  B       0.298744      0.441451     -0.928084
  B       0.343740     -0.912564      0.289346
  B      -1.184557      0.341776     -0.049531
  B       1.413490      0.205013      0.693094
  B       0.039474      1.030582      0.676742
  B      -0.910889     -1.106259     -0.681568
6
Coordinates from ORCA-job B6_random_3d_seed1003_d3.00_q0_m5_R2SCAN-3C E -148.669779923149
  B       0.300878      0.440092     -0.926821
  B       0.344043     -0.913876      0.289480
  B      -1.185069      0.341445     -0.048460
  B       1.412832      0.205922      0.691288
  B       0.038601      1.031616      0.676902
  B      -0.911285     -1.105199     -0.682389
6
Coordinates from ORCA-job B6_random_3d_seed1003_d3.00_q0_m5_R2SCAN-3C E -148.669780111044
  B       0.300879      0.439886     -0.926574
  B       0.343982     -0.914047      0.289625
  B      -1.185199      0.341366     -0.048032
  B       1.412786      0.205856      0.691165
  B       0.038605      1.031980      0.676608
  B      -0.911053     -1.105040     -0.682792
6
Coordinates from ORCA-job B6_random_3d_seed1003_d3.00_q0_m5_R2SCAN-3C E -148.669780165771
  B       0.300781      0.439785     -0.926347
  B       0.343998     -0.914239      0.289754
  B      -1.185193      0.341442     -0.047923
  B       1.412762      0.205899      0.691046
  B       0.038586      1.032056      0.676454
  B      -0.910935     -1.104943     -0.682984
