6
Coordinates from ORCA-job B6_random_3d_seed1000_d1.80_q0_m5_R2SCAN-3C E -148.544065750393
  B       0.550456     -0.570631      1.130656
  B       1.436247     -0.160948     -0.406415
  B      -0.030358     -1.312426     -0.494453
  B      -0.612974      0.643261      0.959974
  B      -0.087418      1.365199     -0.607956
  B      -1.255952      0.035546     -0.581807
6
Coordinates from ORCA-job B6_random_3d_seed1000_d1.80_q0_m5_R2SCAN-3C E -148.568074418313
  B       0.544179     -0.556360      1.115544
  B       1.355888     -0.149335     -0.398478
  B      -0.013635     -1.272335     -0.494820
  B      -0.593743      0.637668      0.952175
  B      -0.074795      1.299251     -0.593120
  B      -1.217895      0.041110     -0.581300
6
Coordinates from ORCA-job B6_random_3d_seed1000_d1.80_q0_m5_R2SCAN-3C E -148.584690059226
  B       0.541397     -0.548263      1.105325
  B       1.296167     -0.168843     -0.388487
  B       0.018075     -1.234608     -0.494179
  B      -0.577802      0.633398      0.947523
  B      -0.091582      1.258091     -0.587725
  B      -1.186254      0.060224     -0.582457
6
Coordinates from ORCA-job B6_random_3d_seed1000_d1.80_q0_m5_R2SCAN-3C E -148.589524132342
  B       0.530686     -0.547813      1.096604
  B       1.231460     -0.205880     -0.373678
  B       0.076552     -1.184958     -0.493486
  B      -0.553898      0.627539      0.942069
  B      -0.122368      1.219157     -0.594982
  B      -1.162431      0.091955     -0.576528
6
Coordinates from ORCA-job B6_random_3d_seed1000_d1.80_q0_m5_R2SCAN-3C E -148.591791007829
  B       0.521961     -0.563007      1.096931
  B       1.263656     -0.183159     -0.358188
  B       0.062745     -1.189504     -0.502949
  B      -0.543613      0.632520      0.939029
  B      -0.116423      1.218933     -0.612063
  B      -1.188326      0.084216     -0.562761
6
Coordinates from ORCA-job B6_random_3d_seed1000_d1.80_q0_m5_R2SCAN-3C E -148.596790949695
  B       0.495936     -0.598104      1.096469
  B       1.298127     -0.151416     -0.306969
  B       0.065601     -1.150067     -0.536599
  B      -0.505065      0.641448      0.930979
  B      -0.116774      1.173992     -0.663906
  B      -1.237824      0.084147     -0.519974
6
Coordinates from ORCA-job B6_random_3d_seed1000_d1.80_q0_m5_R2SCAN-3C E -148.611574474748
  B       0.468057     -0.636479      1.094381
  B       1.328076     -0.095990     -0.235893
  B       0.060183     -1.068891     -0.587985
  B      -0.458678      0.644824      0.920667
  B      -0.097909      1.069409     -0.731785
  B      -1.299730      0.087126     -0.459384
6
Coordinates from ORCA-job B6_random_3d_seed1000_d1.80_q0_m5_R2SCAN-3C E -148.634386677834
  B       0.453130     -0.660647      1.088247
  B       1.321989     -0.013324     -0.183267
  B       0.040637     -0.967707     -0.632477
  B      -0.427417      0.633941      0.912850
  B      -0.038066      0.909464     -0.778020
  B      -1.350273      0.098273     -0.407333
6
Coordinates from ORCA-job B6_random_3d_seed1000_d1.80_q0_m5_R2SCAN-3C E -148.644057842436
  B       0.464544     -0.668334      1.077668
  B       1.304170      0.046972     -0.157405
  B       0.018345     -0.886331     -0.646499
  B      -0.420500      0.613031      0.904571
  B       0.014268      0.773886     -0.789496
  B      -1.380827      0.120776     -0.388838
6
Coordinates from ORCA-job B6_random_3d_seed1000_d1.80_q0_m5_R2SCAN-3C E -148.646056739509
  B       0.474640     -0.677946      1.074951
  B       1.351046      0.028549     -0.110427
  B       0.021919     -0.855861     -0.655058
  B      -0.415432      0.612939      0.889085
  B      -0.023785      0.764765     -0.823716
  B      -1.408388      0.127554     -0.374835
6
Coordinates from ORCA-job B6_random_3d_seed1000_d1.80_q0_m5_R2SCAN-3C E -148.648119926134
  B       0.513559     -0.673870      1.076457
  B       1.323649      0.018325     -0.113432
  B       0.018488     -0.872004     -0.631668
  B      -0.431747      0.595380      0.879145
  B      -0.009250      0.791590     -0.820202
  B      -1.414699      0.140578     -0.390300
6
Coordinates from ORCA-job B6_random_3d_seed1000_d1.80_q0_m5_R2SCAN-3C E -148.649740279018
  B       0.534645     -0.682927      1.079514
  B       1.296273      0.044282     -0.102686
  B       0.008679     -0.866207     -0.627401
  B      -0.431314      0.577725      0.868722
  B       0.019585      0.770604     -0.832527
  B      -1.427868      0.156523     -0.385622
6
Coordinates from ORCA-job B6_random_3d_seed1000_d1.80_q0_m5_R2SCAN-3C E -148.652129704846
  B       0.574413     -0.693457      1.091267
  B       1.271133      0.068600     -0.083891
  B      -0.006467     -0.868595     -0.612925
  B      -0.432612      0.542907      0.852345
  B       0.034694      0.761077     -0.854848
  B      -1.441160      0.189468     -0.391949
6
Coordinates from ORCA-job B6_random_3d_seed1000_d1.80_q0_m5_R2SCAN-3C E -148.655341010040
  B       0.633712     -0.700138      1.107040
  B       1.235943      0.092988     -0.065846
  B      -0.028212     -0.873872     -0.585455
  B      -0.439584      0.488993      0.831877
  B       0.051268      0.755097     -0.877836
  B      -1.453128      0.236931     -0.409780
6
Coordinates from ORCA-job B6_random_3d_seed1000_d1.80_q0_m5_R2SCAN-3C E -148.659787169245
  B       0.678993     -0.719702      1.138276
  B       1.205226      0.131574     -0.039597
  B      -0.046664     -0.887446     -0.564998
  B      -0.429959      0.431379      0.812754
  B       0.046830      0.753380     -0.924465
  B      -1.454427      0.290815     -0.421969
6
Coordinates from ORCA-job B6_random_3d_seed1000_d1.80_q0_m5_R2SCAN-3C E -148.662609356921
  B       0.686339     -0.725497      1.167873
  B       1.207835      0.150261     -0.045024
  B      -0.048351     -0.899975     -0.562602
  B      -0.427001      0.398685      0.814991
  B       0.021819      0.751242     -0.941422
  B      -1.440642      0.325284     -0.433817
6
Coordinates from ORCA-job B6_random_3d_seed1000_d1.80_q0_m5_R2SCAN-3C E -148.664580496821
  B       0.719614     -0.713336      1.192839
  B       1.193128      0.157885     -0.059688
  B      -0.057140     -0.910628     -0.545476
  B      -0.444798      0.342967      0.808401
  B       0.022770      0.753108     -0.945132
  B      -1.433575      0.370004     -0.450944
6
Coordinates from ORCA-job B6_random_3d_seed1000_d1.80_q0_m5_R2SCAN-3C E -148.666898251604
  B       0.744723     -0.677723      1.228492
  B       1.205026      0.142225     -0.089388
  B      -0.055682     -0.921558     -0.539901
  B      -0.480502      0.272740      0.809336
  B       0.017318      0.764245     -0.947762
  B      -1.430884      0.420070     -0.460777
6
Coordinates from ORCA-job B6_random_3d_seed1000_d1.80_q0_m5_R2SCAN-3C E -148.668470526704
  B       0.763382     -0.644601      1.255359
  B       1.208857      0.133192     -0.107010
  B      -0.055085     -0.930081     -0.542034
  B      -0.508771      0.212627      0.807422
  B       0.033778      0.769827     -0.960381
  B      -1.442161      0.459036     -0.453355
6
Coordinates from ORCA-job B6_random_3d_seed1000_d1.80_q0_m5_R2SCAN-3C E -148.669179444222
  B       0.766553     -0.624653      1.253111
  B       1.219877      0.122387     -0.109645
  B      -0.051192     -0.926234     -0.553654
  B      -0.524979      0.198241      0.820243
  B       0.041032      0.760673     -0.959790
  B      -1.451291      0.469586     -0.450264
6
Coordinates from ORCA-job B6_random_3d_seed1000_d1.80_q0_m5_R2SCAN-3C E -148.669480022087
  B       0.774560     -0.616645      1.249138
  B       1.219980      0.123655     -0.101347
  B      -0.052515     -0.922200     -0.559946
  B      -0.534061      0.186688      0.828653
  B       0.046878      0.748023     -0.968530
  B      -1.454841      0.480479     -0.447968
6
Coordinates from ORCA-job B6_random_3d_seed1000_d1.80_q0_m5_R2SCAN-3C E -148.669592040069
  B       0.777227     -0.615599      1.247721
  B       1.218231      0.130214     -0.098343
  B      -0.054676     -0.922038     -0.562594
  B      -0.538736      0.180763      0.834881
  B       0.049012      0.740049     -0.975066
  B      -1.451058      0.486611     -0.446600
6
Coordinates from ORCA-job B6_random_3d_seed1000_d1.80_q0_m5_R2SCAN-3C E -148.669679949102
  B       0.783686     -0.615798      1.247258
  B       1.215559      0.137438     -0.095089
  B      -0.060768     -0.922225     -0.557431
  B      -0.544380      0.169492      0.836919
  B       0.049980      0.737444     -0.984230
  B      -1.444076      0.493650     -0.447427
6
Coordinates from ORCA-job B6_random_3d_seed1000_d1.80_q0_m5_R2SCAN-3C E -148.669718134290
  B       0.784436     -0.617712      1.244197
  B       1.214742      0.142808     -0.097348
  B      -0.065559     -0.922069     -0.551827
  B      -0.547678      0.166941      0.839188
  B       0.052153      0.737377     -0.984803
  B      -1.438094      0.492655     -0.449406
6
Coordinates from ORCA-job B6_random_3d_seed1000_d1.80_q0_m5_R2SCAN-3C E -148.669740761835
  B       0.784804     -0.618604      1.242389
  B       1.216457      0.144009     -0.098574
  B      -0.068924     -0.921326     -0.546017
  B      -0.549351      0.164459      0.838988
  B       0.052906      0.740375     -0.985819
  B      -1.435891      0.491086     -0.450966
6
Coordinates from ORCA-job B6_random_3d_seed1000_d1.80_q0_m5_R2SCAN-3C E -148.669757272625
  B       0.783521     -0.619935      1.238670
  B       1.219565      0.144652     -0.100182
  B      -0.071873     -0.919805     -0.540465
  B      -0.550530      0.164749      0.839935
  B       0.054669      0.743231     -0.985258
  B      -1.435351      0.487109     -0.452699
6
Coordinates from ORCA-job B6_random_3d_seed1000_d1.80_q0_m5_R2SCAN-3C E -148.669760569965
  B       0.782682     -0.620457      1.237275
  B       1.220873      0.144917     -0.100280
  B      -0.072175     -0.919393     -0.539544
  B      -0.550616      0.165468      0.840833
  B       0.055388      0.743480     -0.985339
  B      -1.436152      0.485985     -0.452945
6
Coordinates from ORCA-job B6_random_3d_seed1000_d1.80_q0_m5_R2SCAN-3C E -148.669761187641
  B       0.782547     -0.620753      1.236674
  B       1.221113      0.145328     -0.100064
  B      -0.072090     -0.919378     -0.539291
  B      -0.550699      0.165632      0.841225
  B       0.055672      0.743109     -0.985569
  B      -1.436543      0.486062     -0.452974
6
Coordinates from ORCA-job B6_random_3d_seed1000_d1.80_q0_m5_R2SCAN-3C E -148.669761598337
  B       0.782431     -0.621039      1.236385
  B       1.221177      0.145713     -0.099897
  B      -0.071709     -0.919612     -0.539141
  B      -0.550735      0.165699      0.841333
  B       0.055638      0.742738     -0.985796
  B      -1.436801      0.486500     -0.452884
6
Coordinates from ORCA-job B6_random_3d_seed1000_d1.80_q0_m5_R2SCAN-3C E -148.669762560066
  B       0.782151     -0.621785      1.235545
  B       1.221298      0.146562     -0.099706
  B      -0.070736     -0.920228     -0.538306
  B      -0.550944      0.165850      0.841285
  B       0.055429      0.742083     -0.986073
  B      -1.437198      0.487519     -0.452745
6
Coordinates from ORCA-job B6_random_3d_seed1000_d1.80_q0_m5_R2SCAN-3C E -148.669764738579
  B       0.781101     -0.624180      1.233019
  B       1.221512      0.149067     -0.099385
  B      -0.067183     -0.922410     -0.535491
  B      -0.551658      0.166413      0.840690
  B       0.054398      0.740202     -0.986703
  B      -1.438170      0.490907     -0.452129
6
Coordinates from ORCA-job B6_random_3d_seed1000_d1.80_q0_m5_R2SCAN-3C E -148.669765946315
  B       0.780262     -0.625695      1.231444
  B       1.221667      0.150492     -0.099555
  B      -0.064481     -0.924048     -0.533207
  B      -0.552328      0.166573      0.839946
  B       0.053475      0.739351     -0.987026
  B      -1.438595      0.493328     -0.451601
6
Coordinates from ORCA-job B6_random_3d_seed1000_d1.80_q0_m5_R2SCAN-3C E -148.669766777013
  B       0.779603     -0.626570      1.230499
  B       1.221690      0.151021     -0.100090
  B      -0.062343     -0.925180     -0.531384
  B      -0.552951      0.166599      0.839165
  B       0.052670      0.739196     -0.986987
  B      -1.438670      0.494934     -0.451202
6
Coordinates from ORCA-job B6_random_3d_seed1000_d1.80_q0_m5_R2SCAN-3C E -148.669766979984
  B       0.779505     -0.626500      1.230581
  B       1.221602      0.150683     -0.100405
  B      -0.062096     -0.925124     -0.531210
  B      -0.553068      0.166605      0.839061
  B       0.052551      0.739506     -0.986850
  B      -1.438494      0.494831     -0.451177
6
Coordinates from ORCA-job B6_random_3d_seed1000_d1.80_q0_m5_R2SCAN-3C E -148.669767069886
  B       0.779468     -0.626447      1.230679
  B       1.221498      0.150394     -0.100556
  B      -0.062124     -0.924863     -0.531252
  B      -0.553070      0.166699      0.839172
  B       0.052587      0.739730     -0.986834
  B      -1.438359      0.494487     -0.451210
6
Coordinates from ORCA-job B6_random_3d_seed1000_d1.80_q0_m5_R2SCAN-3C E -148.669767134429
  B       0.779355     -0.626629      1.230612
  B       1.221407      0.150366     -0.100619
  B      -0.061913     -0.924729     -0.531164
  B      -0.553104      0.166857      0.839362
  B       0.052561      0.739743     -0.986996
  B      -1.438304      0.494393     -0.451195
