6
Coordinates from ORCA-job B6_random_3d_seed1000_d1.80_q0_m5_R2SCAN-3C E -148.669767134429
  B           0.77935453012454     -0.62662873645267      1.23061215538848
  B           1.22140695969871      0.15036561454455     -0.10061878589459
  B          -0.06191346804551     -0.92472944768747     -0.53116404094186
  B          -0.55310426167640      0.16685670647349      0.83936201476443
  B           0.05256050194620      0.73974318187953     -0.98699623028540
  B          -1.43830427204754      0.49439267124257     -0.45119511303106
