6
Coordinates from ORCA-job B6_rectangular_planar_d1.80_q0_m1_R2SCAN-3C E -148.557137574313
  B      -1.800000     -0.900000      0.000000
  B       0.000000     -0.900000      0.000000
  B       1.800000     -0.900000      0.000000
  B      -1.800000      0.900000      0.000000
  B       0.000000      0.900000      0.000000
  B       1.800000      0.900000      0.000000
6
Coordinates from ORCA-job B6_rectangular_planar_d1.80_q0_m1_R2SCAN-3C E -148.605294448668
  B      -1.746868     -0.860225      0.000000
  B      -0.000000     -0.885241     -0.000000
  B       1.746868     -0.860225      0.000000
  B      -1.746868      0.860225     -0.000000
  B       0.000000      0.885241      0.000000
  B       1.746868      0.860225     -0.000000
6
Coordinates from ORCA-job B6_rectangular_planar_d1.80_q0_m1_R2SCAN-3C E -148.645108743783
  B      -1.694662     -0.819206     -0.000000
  B       0.000000     -0.876162      0.000000
  B       1.694662     -0.819206     -0.000000
  B      -1.694662      0.819206      0.000000
  B      -0.000000      0.876162     -0.000000
  B       1.694662      0.819206     -0.000000
6
Coordinates from ORCA-job B6_rectangular_planar_d1.80_q0_m1_R2SCAN-3C E -148.680309660021
  B      -1.612980     -0.759078      0.000000
  B       0.000000     -0.871786     -0.000000
  B       1.612980     -0.759078      0.000000
  B      -1.612980      0.759078      0.000000
  B      -0.000000      0.871786      0.000000
  B       1.612980      0.759078     -0.000000
6
Coordinates from ORCA-job B6_rectangular_planar_d1.80_q0_m1_R2SCAN-3C E -148.683213022048
  B      -1.562604     -0.740603     -0.000000
  B       0.000000     -0.883790      0.000000
  B       1.562604     -0.740603     -0.000000
  B      -1.562604      0.740603     -0.000000
  B      -0.000000      0.883790      0.000000
  B       1.562604      0.740603     -0.000000
6
Coordinates from ORCA-job B6_rectangular_planar_d1.80_q0_m1_R2SCAN-3C E -148.683671455659
  B      -1.575153     -0.744358      0.000000
  B       0.000000     -0.888458     -0.000000
  B       1.575153     -0.744358      0.000000
  B      -1.575153      0.744358      0.000000
  B      -0.000000      0.888458     -0.000000
  B       1.575153      0.744358      0.000000
6
Coordinates from ORCA-job B6_rectangular_planar_d1.80_q0_m1_R2SCAN-3C E -148.683773452091
  B      -1.575114     -0.744966     -0.000000
  B       0.000000     -0.895252      0.000000
  B       1.575114     -0.744966     -0.000000
  B      -1.575114      0.744966     -0.000000
  B      -0.000000      0.895252      0.000000
  B       1.575114      0.744966     -0.000000
6
Coordinates from ORCA-job B6_rectangular_planar_d1.80_q0_m1_R2SCAN-3C E -148.683835843674
  B      -1.574030     -0.743779      0.000003
  B      -0.000000     -0.905232     -0.000007
  B       1.574030     -0.743779      0.000003
  B      -1.574030      0.743779      0.000003
  B      -0.000000      0.905232     -0.000007
  B       1.574030      0.743779      0.000003
6
Coordinates from ORCA-job B6_rectangular_planar_d1.80_q0_m1_R2SCAN-3C E -148.683837650459
  B      -1.572959     -0.744331     -0.000022
  B       0.000000     -0.906361      0.000043
  B       1.572959     -0.744331     -0.000022
  B      -1.572959      0.744331     -0.000022
  B      -0.000000      0.906361      0.000043
  B       1.572959      0.744331     -0.000022
6
Coordinates from ORCA-job B6_rectangular_planar_d1.80_q0_m1_R2SCAN-3C E -148.683838072782
  B      -1.573193     -0.744102      0.000090
  B       0.000000     -0.906159     -0.000181
  B       1.573193     -0.744102      0.000090
  B      -1.573195      0.744102      0.000090
  B      -0.000000      0.906159     -0.000181
  B       1.573195      0.744102      0.000090
6
Coordinates from ORCA-job B6_rectangular_planar_d1.80_q0_m1_R2SCAN-3C E -148.683837771550
  B      -1.573221     -0.744062     -0.000544
  B       0.000000     -0.906126      0.001089
  B       1.573221     -0.744062     -0.000544
  B      -1.573228      0.744060     -0.000544
  B      -0.000000      0.906130      0.001089
  B       1.573228      0.744060     -0.000544
