6
Coordinates from ORCA-job B6_rectangular_planar_d1.80_q0_m1_R2SCAN-3C E -148.683837771550
  B          -1.57322073995258     -0.74406191787738     -0.00054428865645
  B           0.00000000162197     -0.90612634063804      0.00108858867908
  B           1.57322074283546     -0.74406192235003     -0.00054430436931
  B          -1.57322836134718      0.74405990082470     -0.00054427133653
  B          -0.00000000091825      0.90613037908935      0.00108853130812
  B           1.57322835776058      0.74405990095140     -0.00054425562491
