6
Coordinates from ORCA-job B6_random_3d_seed1002_d3.50_q0_m1_R2SCAN-3C E -148.717723248983
  B           0.63949598703668      0.37884327307619     -1.15761849288326
  B           1.77096732172193      0.92543283149599     -0.25956581188017
  B          -0.78577078389570      0.03999044776293     -0.54335864925897
  B          -0.47894042458921     -0.86085055383879      0.96022817438366
  B           0.74466857919800      0.08362620465434      0.59405750350478
  B          -1.89042066947171     -0.56704221315067      0.40625727613396
