6
Coordinates from ORCA-job B6_random_3d_seed1002_d3.50_q0_m1_R2SCAN-3C E -147.857147375681
  B       0.958479     -1.000388     -2.212112
  B       1.694359      2.109046     -0.618768
  B      -1.712172      1.152362     -1.672728
  B       0.312316     -2.507986      0.859582
  B       0.992382      0.376084      2.445912
  B      -2.245364     -0.129119      1.198113
6
Coordinates from ORCA-job B6_random_3d_seed1002_d3.50_q0_m1_R2SCAN-3C E -147.869063925422
  B       0.945999     -0.980705     -2.177028
  B       1.684508      2.076409     -0.607389
  B      -1.706975      1.122789     -1.637988
  B       0.313357     -2.461019      0.850773
  B       0.986485      0.361010      2.410271
  B      -2.223374     -0.118484      1.161361
6
Coordinates from ORCA-job B6_random_3d_seed1002_d3.50_q0_m1_R2SCAN-3C E -147.881694685001
  B       0.933438     -0.961212     -2.142081
  B       1.675047      2.044094     -0.595939
  B      -1.702182      1.092886     -1.602546
  B       0.314356     -2.414005      0.842070
  B       0.980980      0.345968      2.374859
  B      -2.201638     -0.107731      1.123637
6
Coordinates from ORCA-job B6_random_3d_seed1002_d3.50_q0_m1_R2SCAN-3C E -147.902088046620
  B       0.914314     -0.932583     -2.089545
  B       1.661053      1.996284     -0.578580
  B      -1.695062      1.047886     -1.548317
  B       0.315562     -2.343729      0.828881
  B       0.973136      0.323869      2.321773
  B      -2.169004     -0.091728      1.065787
6
Coordinates from ORCA-job B6_random_3d_seed1002_d3.50_q0_m1_R2SCAN-3C E -147.933916603764
  B       0.885255     -0.890904     -2.011586
  B       1.640710      1.926122     -0.552517
  B      -1.681898      0.987595     -1.481706
  B       0.317012     -2.238985      0.809499
  B       0.963003      0.291416      2.243500
  B      -2.124081     -0.075244      0.992810
6
Coordinates from ORCA-job B6_random_3d_seed1002_d3.50_q0_m1_R2SCAN-3C E -147.970732069925
  B       0.853868     -0.848709     -1.930757
  B       1.621535      1.855280     -0.524930
  B      -1.668151      0.925740     -1.415165
  B       0.317415     -2.129173      0.789464
  B       0.954557      0.258014      2.163055
  B      -2.079224     -0.061152      0.918333
6
Coordinates from ORCA-job B6_random_3d_seed1002_d3.50_q0_m1_R2SCAN-3C E -148.000483825647
  B       0.831458     -0.821233     -1.875990
  B       1.610440      1.809512     -0.505861
  B      -1.661194      0.877230     -1.356088
  B       0.316257     -2.054039      0.775332
  B       0.949657      0.235844      2.109014
  B      -2.046618     -0.047314      0.853592
6
Coordinates from ORCA-job B6_random_3d_seed1002_d3.50_q0_m1_R2SCAN-3C E -148.021885319027
  B       0.815825     -0.803311     -1.839822
  B       1.603850      1.779965     -0.493064
  B      -1.656367      0.844258     -1.316048
  B       0.314698     -2.003432      0.765826
  B       0.946922      0.221254      2.073568
  B      -2.024928     -0.038734      0.809541
6
Coordinates from ORCA-job B6_random_3d_seed1002_d3.50_q0_m1_R2SCAN-3C E -148.056375772328
  B       0.791371     -0.777100     -1.785346
  B       1.594184      1.736668     -0.473660
  B      -1.648208      0.794714     -1.255590
  B       0.311411     -1.927429      0.751128
  B       0.942978      0.200006      2.020446
  B      -1.991736     -0.026858      0.743022
6
Coordinates from ORCA-job B6_random_3d_seed1002_d3.50_q0_m1_R2SCAN-3C E -148.107875329032
  B       0.753209     -0.738626     -1.704768
  B       1.580499      1.673421     -0.444607
  B      -1.630837      0.730208     -1.188564
  B       0.305223     -1.813106      0.729374
  B       0.938491      0.168687      1.942510
  B      -1.946584     -0.020584      0.666056
6
Coordinates from ORCA-job B6_random_3d_seed1002_d3.50_q0_m1_R2SCAN-3C E -148.164977299604
  B       0.711748     -0.699887     -1.621823
  B       1.567973      1.610466     -0.414783
  B      -1.610286      0.663934     -1.121604
  B       0.297137     -1.693732      0.706292
  B       0.933376      0.136482      1.862359
  B      -1.899948     -0.017263      0.589558
6
Coordinates from ORCA-job B6_random_3d_seed1002_d3.50_q0_m1_R2SCAN-3C E -148.205987275815
  B       0.681457     -0.672840     -1.563993
  B       1.560487      1.567455     -0.394324
  B      -1.594171      0.616306     -1.073341
  B       0.290565     -1.608828      0.689717
  B       0.928466      0.113720      1.806017
  B      -1.866805     -0.015813      0.535924
6
Coordinates from ORCA-job B6_random_3d_seed1002_d3.50_q0_m1_R2SCAN-3C E -148.233181769985
  B       0.659753     -0.652395     -1.524754
  B       1.556984      1.536936     -0.380265
  B      -1.580676      0.585799     -1.050491
  B       0.284979     -1.547346      0.678928
  B       0.925658      0.097247      1.767225
  B      -1.846699     -0.020241      0.509358
6
Coordinates from ORCA-job B6_random_3d_seed1002_d3.50_q0_m1_R2SCAN-3C E -148.273983986496
  B       0.626295     -0.619539     -1.465325
  B       1.552986      1.489362     -0.358888
  B      -1.557250      0.541911     -1.025191
  B       0.274680     -1.452918      0.661864
  B       0.921742      0.073567      1.708188
  B      -1.818452     -0.032383      0.479353
6
Coordinates from ORCA-job B6_random_3d_seed1002_d3.50_q0_m1_R2SCAN-3C E -148.332643507362
  B       0.575225     -0.568903     -1.375484
  B       1.546928      1.417868     -0.327560
  B      -1.519050      0.478962     -0.992662
  B       0.257365     -1.315909      0.635015
  B       0.914554      0.041982      1.619642
  B      -1.775022     -0.053999      0.441049
6
Coordinates from ORCA-job B6_random_3d_seed1002_d3.50_q0_m1_R2SCAN-3C E -148.390390322106
  B       0.517055     -0.511459     -1.284434
  B       1.541362      1.343617     -0.295169
  B      -1.469699      0.417744     -0.974724
  B       0.227253     -1.186513      0.602082
  B       0.910297      0.023388      1.533786
  B      -1.726268     -0.086777      0.418459
6
Coordinates from ORCA-job B6_random_3d_seed1002_d3.50_q0_m1_R2SCAN-3C E -148.432665960067
  B       0.474720     -0.469186     -1.228598
  B       1.540306      1.295875     -0.273739
  B      -1.426135      0.380147     -0.979326
  B       0.196110     -1.110244      0.577219
  B       0.909531      0.021278      1.480704
  B      -1.694532     -0.117870      0.423740
6
Coordinates from ORCA-job B6_random_3d_seed1002_d3.50_q0_m1_R2SCAN-3C E -148.494117908569
  B       0.423055     -0.409060     -1.162920
  B       1.542266      1.232831     -0.242966
  B      -1.351879      0.334431     -1.005992
  B       0.133958     -1.022605      0.535785
  B       0.908795      0.036470      1.408884
  B      -1.656194     -0.172067      0.467209
6
Coordinates from ORCA-job B6_random_3d_seed1002_d3.50_q0_m1_R2SCAN-3C E -148.544778375214
  B       0.375494     -0.351708     -1.099081
  B       1.539214      1.173372     -0.210557
  B      -1.274098      0.278142     -0.996198
  B       0.062753     -0.946543      0.489794
  B       0.907346      0.059292      1.331620
  B      -1.610709     -0.212554      0.484423
6
Coordinates from ORCA-job B6_random_3d_seed1002_d3.50_q0_m1_R2SCAN-3C E -148.573977105789
  B       0.353517     -0.293812     -1.073218
  B       1.546894      1.137741     -0.194913
  B      -1.201753      0.237552     -0.997015
  B      -0.003225     -0.910858      0.477362
  B       0.903955      0.078311      1.267901
  B      -1.599388     -0.248934      0.519883
6
Coordinates from ORCA-job B6_random_3d_seed1002_d3.50_q0_m1_R2SCAN-3C E -148.590355379152
  B       0.360678     -0.259064     -1.040279
  B       1.547591      1.110702     -0.181824
  B      -1.167413      0.210610     -0.976309
  B      -0.043580     -0.889191      0.464313
  B       0.904572      0.093334      1.206091
  B      -1.601847     -0.266391      0.528009
6
Coordinates from ORCA-job B6_random_3d_seed1002_d3.50_q0_m1_R2SCAN-3C E -148.615033417887
  B       0.391360     -0.197111     -0.991178
  B       1.557314      1.073124     -0.173229
  B      -1.121121      0.173140     -0.945820
  B      -0.104706     -0.863165      0.456108
  B       0.904657      0.111799      1.108501
  B      -1.627504     -0.297787      0.545618
6
Coordinates from ORCA-job B6_random_3d_seed1002_d3.50_q0_m1_R2SCAN-3C E -148.647455378354
  B       0.433965     -0.107197     -0.907988
  B       1.571858      1.018375     -0.163089
  B      -1.050981      0.116297     -0.886284
  B      -0.190912     -0.820079      0.442811
  B       0.898028      0.135218      0.955787
  B      -1.661958     -0.342614      0.558763
6
Coordinates from ORCA-job B6_random_3d_seed1002_d3.50_q0_m1_R2SCAN-3C E -148.663750672267
  B       0.500429     -0.010495     -0.850479
  B       1.605928      0.988960     -0.198763
  B      -0.984662      0.069121     -0.801535
  B      -0.287351     -0.799814      0.449193
  B       0.832525      0.134692      0.838960
  B      -1.666869     -0.382463      0.562624
6
Coordinates from ORCA-job B6_random_3d_seed1002_d3.50_q0_m1_R2SCAN-3C E -148.670347580766
  B       0.531183      0.024120     -0.840879
  B       1.607313      0.936594     -0.167787
  B      -0.996584      0.059069     -0.765470
  B      -0.254640     -0.835222      0.449884
  B       0.835228      0.193812      0.767360
  B      -1.722500     -0.378374      0.556892
6
Coordinates from ORCA-job B6_random_3d_seed1002_d3.50_q0_m1_R2SCAN-3C E -148.686542319772
  B       0.549863      0.058873     -0.904025
  B       1.662647      0.969116     -0.216204
  B      -0.991694      0.065247     -0.772558
  B      -0.251552     -0.899238      0.494878
  B       0.805759      0.180916      0.831255
  B      -1.775023     -0.374914      0.566655
6
Coordinates from ORCA-job B6_random_3d_seed1002_d3.50_q0_m1_R2SCAN-3C E -148.694322336484
  B       0.562797      0.083151     -0.909491
  B       1.722312      0.958327     -0.219065
  B      -1.016456      0.061545     -0.724749
  B      -0.303070     -0.886027      0.520625
  B       0.798481      0.204664      0.798346
  B      -1.764064     -0.421660      0.534335
6
Coordinates from ORCA-job B6_random_3d_seed1002_d3.50_q0_m1_R2SCAN-3C E -148.699032091606
  B       0.582178      0.126855     -0.906291
  B       1.742519      0.922770     -0.251309
  B      -0.971942      0.084833     -0.691991
  B      -0.335774     -0.884344      0.552540
  B       0.785233      0.231384      0.771634
  B      -1.802214     -0.481497      0.525418
6
Coordinates from ORCA-job B6_random_3d_seed1002_d3.50_q0_m1_R2SCAN-3C E -148.703733079094
  B       0.553040      0.163264     -0.925965
  B       1.773441      0.891629     -0.271406
  B      -0.943373      0.099656     -0.623997
  B      -0.312931     -0.881402      0.618117
  B       0.770453      0.242627      0.750543
  B      -1.840632     -0.515773      0.452708
6
Coordinates from ORCA-job B6_random_3d_seed1002_d3.50_q0_m1_R2SCAN-3C E -148.708848225206
  B       0.566676      0.186258     -1.009558
  B       1.780146      0.843027     -0.255008
  B      -0.971532      0.152920     -0.631340
  B      -0.315099     -0.875160      0.682127
  B       0.782295      0.271130      0.773316
  B      -1.842487     -0.578174      0.440462
6
Coordinates from ORCA-job B6_random_3d_seed1002_d3.50_q0_m1_R2SCAN-3C E -148.712596776015
  B       0.576980      0.221507     -1.017235
  B       1.819736      0.817206     -0.269471
  B      -0.942881      0.159169     -0.574227
  B      -0.348451     -0.853306      0.710237
  B       0.755417      0.287116      0.730655
  B      -1.860802     -0.631692      0.420041
6
Coordinates from ORCA-job B6_random_3d_seed1002_d3.50_q0_m1_R2SCAN-3C E -148.713621973958
  B       0.585155      0.264108     -1.031840
  B       1.814745      0.776337     -0.293382
  B      -0.913628      0.173459     -0.530254
  B      -0.358377     -0.841709      0.765753
  B       0.724355      0.291874      0.711299
  B      -1.852250     -0.664070      0.378423
6
Coordinates from ORCA-job B6_random_3d_seed1002_d3.50_q0_m1_R2SCAN-3C E -148.714697012798
  B       0.567479      0.291273     -1.052565
  B       1.858708      0.762186     -0.289811
  B      -0.901372      0.179701     -0.505214
  B      -0.377496     -0.816890      0.803856
  B       0.727746      0.294423      0.686063
  B      -1.875066     -0.710694      0.357671
6
Coordinates from ORCA-job B6_random_3d_seed1002_d3.50_q0_m1_R2SCAN-3C E -148.715127599838
  B       0.572210      0.294865     -1.061702
  B       1.848224      0.761496     -0.291247
  B      -0.901274      0.184865     -0.508710
  B      -0.381706     -0.822323      0.818578
  B       0.725931      0.288629      0.688597
  B      -1.863385     -0.707532      0.354484
6
Coordinates from ORCA-job B6_random_3d_seed1002_d3.50_q0_m1_R2SCAN-3C E -148.715342303724
  B       0.575684      0.303063     -1.067675
  B       1.844826      0.765094     -0.293981
  B      -0.896289      0.184764     -0.509134
  B      -0.388921     -0.824574      0.838357
  B       0.724404      0.277953      0.682769
  B      -1.859704     -0.706300      0.349665
6
Coordinates from ORCA-job B6_random_3d_seed1002_d3.50_q0_m1_R2SCAN-3C E -148.715686599271
  B       0.583997      0.316657     -1.081342
  B       1.839727      0.781864     -0.294469
  B      -0.884552      0.178530     -0.511671
  B      -0.405068     -0.827106      0.871813
  B       0.724676      0.250099      0.668044
  B      -1.858780     -0.700044      0.347626
6
Coordinates from ORCA-job B6_random_3d_seed1002_d3.50_q0_m1_R2SCAN-3C E -148.716118832272
  B       0.597463      0.333214     -1.098318
  B       1.832793      0.812863     -0.291392
  B      -0.865944      0.161957     -0.516174
  B      -0.426458     -0.830803      0.910528
  B       0.727364      0.208086      0.643683
  B      -1.865218     -0.685317      0.351674
6
Coordinates from ORCA-job B6_random_3d_seed1002_d3.50_q0_m1_R2SCAN-3C E -148.716569529172
  B       0.615171      0.346293     -1.116093
  B       1.822703      0.852937     -0.281874
  B      -0.843161      0.135635     -0.519266
  B      -0.446678     -0.836803      0.940204
  B       0.728530      0.162085      0.612458
  B      -1.876565     -0.660147      0.364570
6
Coordinates from ORCA-job B6_random_3d_seed1002_d3.50_q0_m1_R2SCAN-3C E -148.716954313031
  B       0.627400      0.348866     -1.126830
  B       1.811654      0.882134     -0.273398
  B      -0.825587      0.111018     -0.518573
  B      -0.456146     -0.844523      0.944227
  B       0.729946      0.136930      0.596081
  B      -1.887266     -0.634426      0.378493
6
Coordinates from ORCA-job B6_random_3d_seed1002_d3.50_q0_m1_R2SCAN-3C E -148.717322120543
  B       0.632696      0.349130     -1.136601
  B       1.799451      0.896939     -0.272055
  B      -0.809967      0.090459     -0.513585
  B      -0.461797     -0.850941      0.932502
  B       0.736070      0.129229      0.601886
  B      -1.896452     -0.614815      0.387853
6
Coordinates from ORCA-job B6_random_3d_seed1002_d3.50_q0_m1_R2SCAN-3C E -148.717452507389
  B       0.636394      0.358387     -1.148549
  B       1.789069      0.906172     -0.272307
  B      -0.792673      0.079609     -0.511039
  B      -0.470932     -0.857189      0.946667
  B       0.737010      0.116366      0.597674
  B      -1.898868     -0.603345      0.387554
6
Coordinates from ORCA-job B6_random_3d_seed1002_d3.50_q0_m1_R2SCAN-3C E -148.717500666878
  B       0.633405      0.353668     -1.149914
  B       1.782739      0.909177     -0.273118
  B      -0.792418      0.079306     -0.514519
  B      -0.471152     -0.861896      0.942985
  B       0.739864      0.115529      0.606997
  B      -1.892439     -0.595784      0.387569
6
Coordinates from ORCA-job B6_random_3d_seed1002_d3.50_q0_m1_R2SCAN-3C E -148.717523671249
  B       0.636999      0.356413     -1.154221
  B       1.780562      0.912976     -0.270386
  B      -0.789181      0.076945     -0.514664
  B      -0.473721     -0.863180      0.949677
  B       0.736127      0.109401      0.600248
  B      -1.890787     -0.592556      0.389347
6
Coordinates from ORCA-job B6_random_3d_seed1002_d3.50_q0_m1_R2SCAN-3C E -148.717538252359
  B       0.638002      0.356264     -1.153460
  B       1.779456      0.914525     -0.269960
  B      -0.789658      0.076239     -0.516598
  B      -0.473403     -0.864115      0.950716
  B       0.736170      0.107767      0.599094
  B      -1.890567     -0.590679      0.390208
6
Coordinates from ORCA-job B6_random_3d_seed1002_d3.50_q0_m1_R2SCAN-3C E -148.717577854889
  B       0.640985      0.357169     -1.153072
  B       1.776225      0.918523     -0.268024
  B      -0.791491      0.072412     -0.523097
  B      -0.473309     -0.865572      0.952242
  B       0.737553      0.102816      0.597737
  B      -1.889964     -0.585348      0.394213
6
Coordinates from ORCA-job B6_random_3d_seed1002_d3.50_q0_m1_R2SCAN-3C E -148.717619949374
  B       0.643021      0.359746     -1.153955
  B       1.772177      0.924382     -0.265313
  B      -0.791219      0.064490     -0.529798
  B      -0.474297     -0.866590      0.954169
  B       0.740493      0.095375      0.596313
  B      -1.890174     -0.577403      0.398584
6
Coordinates from ORCA-job B6_random_3d_seed1002_d3.50_q0_m1_R2SCAN-3C E -148.717678635383
  B       0.643644      0.367375     -1.156403
  B       1.768159      0.929007     -0.262205
  B      -0.789240      0.052584     -0.538053
  B      -0.477227     -0.864263      0.957894
  B       0.745265      0.085266      0.595475
  B      -1.890601     -0.569969      0.403292
6
Coordinates from ORCA-job B6_random_3d_seed1002_d3.50_q0_m1_R2SCAN-3C E -148.717707833075
  B       0.642160      0.373906     -1.158518
  B       1.766277      0.932633     -0.259360
  B      -0.785919      0.042165     -0.542246
  B      -0.480038     -0.861438      0.961360
  B       0.748593      0.077118      0.593270
  B      -1.891073     -0.564386      0.405493
6
Coordinates from ORCA-job B6_random_3d_seed1002_d3.50_q0_m1_R2SCAN-3C E -148.717712647513
  B       0.640157      0.376703     -1.157677
  B       1.768074      0.929671     -0.259906
  B      -0.786579      0.041802     -0.543529
  B      -0.480503     -0.858344      0.961958
  B       0.749490      0.077464      0.594374
  B      -1.890639     -0.567295      0.404779
6
Coordinates from ORCA-job B6_random_3d_seed1002_d3.50_q0_m1_R2SCAN-3C E -148.717714212443
  B       0.639924      0.377133     -1.157868
  B       1.768567      0.929617     -0.259695
  B      -0.785834      0.041395     -0.542671
  B      -0.480701     -0.858246      0.962475
  B       0.748803      0.077466      0.593285
  B      -1.890759     -0.567365      0.404474
6
Coordinates from ORCA-job B6_random_3d_seed1002_d3.50_q0_m1_R2SCAN-3C E -148.717715586345
  B       0.639532      0.377035     -1.157549
  B       1.769614      0.928527     -0.260005
  B      -0.785944      0.042198     -0.541746
  B      -0.480410     -0.858183      0.962186
  B       0.747998      0.078901      0.593188
  B      -1.890789     -0.568477      0.403925
6
Coordinates from ORCA-job B6_random_3d_seed1002_d3.50_q0_m1_R2SCAN-3C E -148.717717661558
  B       0.639209      0.376649     -1.157099
  B       1.770801      0.926962     -0.260380
  B      -0.786147      0.043293     -0.540803
  B      -0.479786     -0.858581      0.961246
  B       0.746719      0.081324      0.593391
  B      -1.890796     -0.569647      0.403645
6
Coordinates from ORCA-job B6_random_3d_seed1002_d3.50_q0_m1_R2SCAN-3C E -148.717720366571
  B       0.638948      0.377141     -1.156990
  B       1.771872      0.925253     -0.260510
  B      -0.786212      0.043272     -0.540673
  B      -0.479187     -0.859251      0.960459
  B       0.745310      0.083677      0.593767
  B      -1.890731     -0.570093      0.403948
6
Coordinates from ORCA-job B6_random_3d_seed1002_d3.50_q0_m1_R2SCAN-3C E -148.717722625888
  B       0.639052      0.378124     -1.157170
  B       1.772063      0.924466     -0.260163
  B      -0.786093      0.041801     -0.541844
  B      -0.478769     -0.860304      0.959893
  B       0.744311      0.084888      0.594114
  B      -1.890565     -0.568975      0.405170
6
Coordinates from ORCA-job B6_random_3d_seed1002_d3.50_q0_m1_R2SCAN-3C E -148.717723187442
  B       0.639327      0.378713     -1.157468
  B       1.771447      0.924913     -0.259762
  B      -0.785915      0.040504     -0.542960
  B      -0.478800     -0.860775      0.960011
  B       0.744394      0.084312      0.594175
  B      -1.890454     -0.567667      0.406003
6
Coordinates from ORCA-job B6_random_3d_seed1002_d3.50_q0_m1_R2SCAN-3C E -148.717723247786
  B       0.639485      0.378851     -1.157610
  B       1.771026      0.925366     -0.259587
  B      -0.785770      0.040018     -0.543328
  B      -0.478929     -0.860865      0.960194
  B       0.744613      0.083723      0.594073
  B      -1.890424     -0.567092      0.406257
6
Coordinates from ORCA-job B6_random_3d_seed1002_d3.50_q0_m1_R2SCAN-3C E -148.717723248983
  B       0.639496      0.378843     -1.157618
  B       1.770967      0.925433     -0.259566
  B      -0.785771      0.039990     -0.543359
  B      -0.478940     -0.860851      0.960228
  B       0.744669      0.083626      0.594058
  B      -1.890421     -0.567042      0.406257
