6
Coordinates from ORCA-job B6_planar_ring_d2.00_q0_m5_R2SCAN-3C E -148.649566437357
  B           1.93703505093493      0.00003673832965     -0.00000001843256
  B           0.79481317055742      1.10156943463262     -0.00000001189360
  B          -0.79474951407452      1.10157286001859      0.00000003045283
  B          -1.93705556121978     -0.00003429842471     -0.00000001866651
  B          -0.79479875777150     -1.10158247207693     -0.00000001029867
  B           0.79475561157345     -1.10156226247922      0.00000002883852
