6
Coordinates from ORCA-job B6_planar_ring_d2.00_q0_m5_R2SCAN-3C E -148.375788056955
  B       2.000000     -0.000000      0.000000
  B       1.000000      1.732051      0.000000
  B      -1.000000      1.732051      0.000000
  B      -2.000000      0.000000      0.000000
  B      -1.000000     -1.732051      0.000000
  B       1.000000     -1.732051      0.000000
6
Coordinates from ORCA-job B6_planar_ring_d2.00_q0_m5_R2SCAN-3C E -148.426460150402
  B       1.935178      0.000000      0.000000
  B       0.967602      1.675926      0.000000
  B      -0.967602      1.675926     -0.000000
  B      -1.935178      0.000000      0.000000
  B      -0.967602     -1.675926     -0.000000
  B       0.967602     -1.675926     -0.000000
6
Coordinates from ORCA-job B6_planar_ring_d2.00_q0_m5_R2SCAN-3C E -148.473932771991
  B       1.870471     -0.000000     -0.000000
  B       0.935212      1.619729      0.000000
  B      -0.935212      1.619729      0.000000
  B      -1.870471      0.000000     -0.000000
  B      -0.935212     -1.619729      0.000000
  B       0.935212     -1.619729      0.000000
6
Coordinates from ORCA-job B6_planar_ring_d2.00_q0_m5_R2SCAN-3C E -148.533818594686
  B       1.773298      0.000000      0.000000
  B       0.886603      1.535513     -0.000000
  B      -0.886603      1.535513      0.000000
  B      -1.773298     -0.000000      0.000000
  B      -0.886603     -1.535513     -0.000000
  B       0.886603     -1.535513      0.000000
6
Coordinates from ORCA-job B6_planar_ring_d2.00_q0_m5_R2SCAN-3C E -148.602629060451
  B       1.627948     -0.000000     -0.000000
  B       0.813740      1.408924      0.000000
  B      -0.813740      1.408924     -0.000000
  B      -1.627948      0.000000     -0.000000
  B      -0.813740     -1.408924      0.000000
  B       0.813740     -1.408924     -0.000000
6
Coordinates from ORCA-job B6_planar_ring_d2.00_q0_m5_R2SCAN-3C E -148.603538973763
  B       1.622971      0.000006      0.000001
  B       0.790640      1.209866     -0.000001
  B      -0.790615      1.209836     -0.000001
  B      -1.622971     -0.000007      0.000001
  B      -0.790639     -1.209866     -0.000001
  B       0.790614     -1.209836     -0.000001
6
Coordinates from ORCA-job B6_planar_ring_d2.00_q0_m5_R2SCAN-3C E -148.630274076492
  B       1.707790      0.000008      0.000001
  B       0.791229      1.254397     -0.000001
  B      -0.791198      1.254367     -0.000001
  B      -1.707790     -0.000012      0.000001
  B      -0.791226     -1.254396     -0.000001
  B       0.791196     -1.254365     -0.000001
6
Coordinates from ORCA-job B6_planar_ring_d2.00_q0_m5_R2SCAN-3C E -148.642985345856
  B       1.823481     -0.000013      0.000000
  B       0.798466      1.198879     -0.000000
  B      -0.798483      1.198856     -0.000000
  B      -1.823479      0.000023      0.000000
  B      -0.798472     -1.198883     -0.000000
  B       0.798487     -1.198863     -0.000000
6
Coordinates from ORCA-job B6_planar_ring_d2.00_q0_m5_R2SCAN-3C E -148.647635545859
  B       1.976828      0.000040      0.000001
  B       0.783153      1.063896     -0.000000
  B      -0.783050      1.063869     -0.000000
  B      -1.976814     -0.000086      0.000001
  B      -0.783141     -1.063865     -0.000000
  B       0.783024     -1.063854     -0.000000
6
Coordinates from ORCA-job B6_planar_ring_d2.00_q0_m5_R2SCAN-3C E -148.649367301614
  B       1.930142     -0.000014      0.000000
  B       0.799890      1.115103     -0.000000
  B      -0.799925      1.115091     -0.000000
  B      -1.930142      0.000018      0.000000
  B      -0.799898     -1.115104     -0.000000
  B       0.799933     -1.115093     -0.000000
6
Coordinates from ORCA-job B6_planar_ring_d2.00_q0_m5_R2SCAN-3C E -148.649555276073
  B       1.934891      0.000014      0.000000
  B       0.794561      1.105357     -0.000000
  B      -0.794546      1.105346     -0.000000
  B      -1.934894     -0.000009      0.000000
  B      -0.794558     -1.105361     -0.000000
  B       0.794545     -1.105347     -0.000000
6
Coordinates from ORCA-job B6_planar_ring_d2.00_q0_m5_R2SCAN-3C E -148.649564109775
  B       1.939187     -0.000015      0.000000
  B       0.795118      1.100503     -0.000000
  B      -0.795146      1.100489     -0.000000
  B      -1.939179      0.000002      0.000000
  B      -0.795121     -1.100491     -0.000000
  B       0.795142     -1.100488     -0.000000
6
Coordinates from ORCA-job B6_planar_ring_d2.00_q0_m5_R2SCAN-3C E -148.649566355634
  B       1.937324      0.000016      0.000000
  B       0.794766      1.101594     -0.000000
  B      -0.794751      1.101579     -0.000000
  B      -1.937317     -0.000015      0.000000
  B      -0.794768     -1.101589     -0.000000
  B       0.794745     -1.101585     -0.000000
6
Coordinates from ORCA-job B6_planar_ring_d2.00_q0_m5_R2SCAN-3C E -148.649566435234
  B       1.937051     -0.000015      0.000000
  B       0.794748      1.101639     -0.000000
  B      -0.794790      1.101622     -0.000000
  B      -1.937036      0.000012      0.000000
  B      -0.794758     -1.101626     -0.000000
  B       0.794785     -1.101632     -0.000000
6
Coordinates from ORCA-job B6_planar_ring_d2.00_q0_m5_R2SCAN-3C E -148.649566437357
  B       1.937035      0.000037     -0.000000
  B       0.794813      1.101569     -0.000000
  B      -0.794750      1.101573      0.000000
  B      -1.937056     -0.000034     -0.000000
  B      -0.794799     -1.101582     -0.000000
  B       0.794756     -1.101562      0.000000
