6
Coordinates from ORCA-job B6_random_3d_seed1003_d2.00_q0_m5_R2SCAN-3C E -148.645456844957
  B           0.21940298393076      0.68408571681307     -0.92955766570500
  B          -0.21877461739481     -0.68314629620205      0.92956747516479
  B          -1.32379707851255      0.05956949594908     -0.04386609617294
  B           1.32299622375562     -0.06145170697445      0.04411846511353
  B           0.17177518685795      0.87031631369334      0.77055914788828
  B          -0.17160271863697     -0.86937352327899     -0.77082131628866
