6
Coordinates from ORCA-job B6_random_3d_seed1003_d2.00_q0_m5_R2SCAN-3C E -148.451504978005
  B       0.200857      0.904655     -1.231426
  B      -0.149765     -0.863318      1.084150
  B      -1.466854      0.195498     -0.056692
  B       1.584622     -0.127427      0.152616
  B       0.078070      1.022107      0.923472
  B      -0.246930     -1.131515     -0.872119
6
Coordinates from ORCA-job B6_random_3d_seed1003_d2.00_q0_m5_R2SCAN-3C E -148.485879946925
  B       0.198072      0.888182     -1.214394
  B      -0.145675     -0.850824      1.065926
  B      -1.442195      0.184891     -0.061389
  B       1.544508     -0.123274      0.151520
  B       0.085942      0.992687      0.900571
  B      -0.240652     -1.091663     -0.842234
6
Coordinates from ORCA-job B6_random_3d_seed1003_d2.00_q0_m5_R2SCAN-3C E -148.518835392902
  B       0.196113      0.871626     -1.198326
  B      -0.141409     -0.837997      1.046726
  B      -1.419529      0.173393     -0.066129
  B       1.505404     -0.118694      0.151016
  B       0.094568      0.962843      0.878286
  B      -0.235148     -1.051171     -0.811573
6
Coordinates from ORCA-job B6_random_3d_seed1003_d2.00_q0_m5_R2SCAN-3C E -148.563385045338
  B       0.194030      0.843599     -1.170060
  B      -0.135776     -0.817218      1.016717
  B      -1.385645      0.156467     -0.071768
  B       1.446097     -0.109561      0.149901
  B       0.108628      0.920071      0.845188
  B      -0.227334     -0.993358     -0.769978
6
Coordinates from ORCA-job B6_random_3d_seed1003_d2.00_q0_m5_R2SCAN-3C E -148.612339894937
  B       0.195480      0.791595     -1.120911
  B      -0.131241     -0.781123      0.968893
  B      -1.339692      0.129082     -0.074769
  B       1.358324     -0.090410      0.146076
  B       0.132881      0.860460      0.799449
  B      -0.215753     -0.909604     -0.718738
6
Coordinates from ORCA-job B6_random_3d_seed1003_d2.00_q0_m5_R2SCAN-3C E -148.631944932390
  B       0.211688      0.716756     -1.059020
  B      -0.141910     -0.735251      0.924727
  B      -1.310924      0.100261     -0.059749
  B       1.283207     -0.065368      0.123642
  B       0.152448      0.815345      0.768535
  B      -0.194510     -0.831744     -0.698135
6
Coordinates from ORCA-job B6_random_3d_seed1003_d2.00_q0_m5_R2SCAN-3C E -148.638824455237
  B       0.232032      0.684417     -1.023364
  B      -0.166569     -0.716097      0.911630
  B      -1.317095      0.088364     -0.037221
  B       1.288176     -0.062235      0.087877
  B       0.141263      0.823921      0.770220
  B      -0.177808     -0.818369     -0.709141
6
Coordinates from ORCA-job B6_random_3d_seed1003_d2.00_q0_m5_R2SCAN-3C E -148.641848894851
  B       0.282841      0.653009     -0.950372
  B      -0.227560     -0.700056      0.900532
  B      -1.333510      0.069904      0.008328
  B       1.313663     -0.043812      0.014342
  B       0.124946      0.862654      0.770947
  B      -0.160380     -0.841700     -0.743777
6
Coordinates from ORCA-job B6_random_3d_seed1003_d2.00_q0_m5_R2SCAN-3C E -148.644553383898
  B       0.256312      0.674955     -0.981260
  B      -0.209371     -0.708515      0.916536
  B      -1.337678      0.074541     -0.005982
  B       1.334739     -0.054543      0.053270
  B       0.133048      0.865144      0.774799
  B      -0.177048     -0.851581     -0.757363
6
Coordinates from ORCA-job B6_random_3d_seed1003_d2.00_q0_m5_R2SCAN-3C E -148.645066798892
  B       0.256496      0.676217     -0.972221
  B      -0.205673     -0.705133      0.917457
  B      -1.331132      0.071395     -0.009496
  B       1.320689     -0.051131      0.056714
  B       0.140221      0.861091      0.766732
  B      -0.180602     -0.852439     -0.759186
6
Coordinates from ORCA-job B6_random_3d_seed1003_d2.00_q0_m5_R2SCAN-3C E -148.645283387529
  B       0.254182      0.677205     -0.958925
  B      -0.206554     -0.701798      0.920332
  B      -1.326589      0.066688     -0.010825
  B       1.318718     -0.051275      0.058748
  B       0.144698      0.864440      0.758383
  B      -0.184456     -0.855260     -0.767713
6
Coordinates from ORCA-job B6_random_3d_seed1003_d2.00_q0_m5_R2SCAN-3C E -148.645380209675
  B       0.249075      0.678409     -0.947363
  B      -0.206173     -0.698562      0.924560
  B      -1.323850      0.063330     -0.013346
  B       1.321044     -0.054260      0.061421
  B       0.147438      0.869100      0.752072
  B      -0.187535     -0.858018     -0.777342
6
Coordinates from ORCA-job B6_random_3d_seed1003_d2.00_q0_m5_R2SCAN-3C E -148.645399258997
  B       0.245982      0.678593     -0.944267
  B      -0.204986     -0.696787      0.926274
  B      -1.323589      0.062815     -0.015508
  B       1.322899     -0.056322      0.062350
  B       0.147948      0.870680      0.751779
  B      -0.188255     -0.858979     -0.780629
6
Coordinates from ORCA-job B6_random_3d_seed1003_d2.00_q0_m5_R2SCAN-3C E -148.645407855196
  B       0.244263      0.678667     -0.943217
  B      -0.204126     -0.695386      0.926436
  B      -1.324001      0.062771     -0.017436
  B       1.323777     -0.057550      0.062048
  B       0.148274      0.871212      0.753228
  B      -0.188186     -0.859715     -0.781059
6
Coordinates from ORCA-job B6_random_3d_seed1003_d2.00_q0_m5_R2SCAN-3C E -148.645418720464
  B       0.239996      0.678696     -0.939267
  B      -0.202282     -0.691739      0.926158
  B      -1.324507      0.062134     -0.022638
  B       1.324761     -0.059826      0.061292
  B       0.150349      0.872451      0.756169
  B      -0.188316     -0.861715     -0.781715
6
Coordinates from ORCA-job B6_random_3d_seed1003_d2.00_q0_m5_R2SCAN-3C E -148.645426581507
  B       0.238217      0.678522     -0.937874
  B      -0.202139     -0.690172      0.925099
  B      -1.324834      0.061713     -0.025192
  B       1.324377     -0.060239      0.060333
  B       0.152236      0.873009      0.758510
  B      -0.187856     -0.862834     -0.780875
6
Coordinates from ORCA-job B6_random_3d_seed1003_d2.00_q0_m5_R2SCAN-3C E -148.645438822131
  B       0.233994      0.678231     -0.934976
  B      -0.203191     -0.687220      0.922454
  B      -1.325194      0.060412     -0.030506
  B       1.322873     -0.060523      0.058243
  B       0.157787      0.874546      0.763582
  B      -0.186270     -0.865446     -0.778797
6
Coordinates from ORCA-job B6_random_3d_seed1003_d2.00_q0_m5_R2SCAN-3C E -148.645441800510
  B       0.232034      0.678328     -0.934080
  B      -0.204344     -0.686456      0.921983
  B      -1.325044      0.059832     -0.032074
  B       1.322323     -0.060541      0.057761
  B       0.160324      0.875173      0.764929
  B      -0.185292     -0.866337     -0.778519
6
Coordinates from ORCA-job B6_random_3d_seed1003_d2.00_q0_m5_R2SCAN-3C E -148.645444839039
  B       0.229149      0.678761     -0.933046
  B      -0.206494     -0.685661      0.922114
  B      -1.324691      0.059187     -0.033818
  B       1.321874     -0.060699      0.057050
  B       0.163613      0.875725      0.766130
  B      -0.183452     -0.867313     -0.778429
6
Coordinates from ORCA-job B6_random_3d_seed1003_d2.00_q0_m5_R2SCAN-3C E -148.645446813106
  B       0.227058      0.679374     -0.932429
  B      -0.208256     -0.685165      0.922772
  B      -1.324482      0.058962     -0.035082
  B       1.321850     -0.060964      0.056136
  B       0.165592      0.875638      0.766738
  B      -0.181763     -0.867846     -0.778135
6
Coordinates from ORCA-job B6_random_3d_seed1003_d2.00_q0_m5_R2SCAN-3C E -148.645450132545
  B       0.224052      0.680685     -0.931753
  B      -0.211454     -0.684563      0.924419
  B      -1.324250      0.058943     -0.037129
  B       1.322020     -0.061422      0.053731
  B       0.168119      0.874687      0.767567
  B      -0.178487     -0.868329     -0.776834
6
Coordinates from ORCA-job B6_random_3d_seed1003_d2.00_q0_m5_R2SCAN-3C E -148.645453716413
  B       0.220035      0.682716     -0.930364
  B      -0.215868     -0.683413      0.926970
  B      -1.324064      0.059030     -0.040806
  B       1.322449     -0.062099      0.049260
  B       0.171305      0.872873      0.769139
  B      -0.173855     -0.869108     -0.774199
6
Coordinates from ORCA-job B6_random_3d_seed1003_d2.00_q0_m5_R2SCAN-3C E -148.645455843912
  B       0.218667      0.683936     -0.929795
  B      -0.218415     -0.682985      0.928801
  B      -1.323996      0.059265     -0.042938
  B       1.322817     -0.062134      0.045858
  B       0.172334      0.871193      0.770051
  B      -0.171407     -0.869275     -0.771977
6
Coordinates from ORCA-job B6_random_3d_seed1003_d2.00_q0_m5_R2SCAN-3C E -148.645456703540
  B       0.218853      0.684372     -0.929581
  B      -0.219276     -0.682963      0.929708
  B      -1.323936      0.059454     -0.043909
  B       1.323032     -0.061797      0.043983
  B       0.172196      0.870213      0.770501
  B      -0.170869     -0.869279     -0.770703
6
Coordinates from ORCA-job B6_random_3d_seed1003_d2.00_q0_m5_R2SCAN-3C E -148.645456815161
  B       0.219330      0.684104     -0.929563
  B      -0.218710     -0.683047      0.929462
  B      -1.323897      0.059472     -0.043792
  B       1.322998     -0.061606      0.044280
  B       0.171838      0.870408      0.770525
  B      -0.171559     -0.869332     -0.770912
6
Coordinates from ORCA-job B6_random_3d_seed1003_d2.00_q0_m5_R2SCAN-3C E -148.645456844957
  B       0.219403      0.684086     -0.929558
  B      -0.218775     -0.683146      0.929567
  B      -1.323797      0.059569     -0.043866
  B       1.322996     -0.061452      0.044118
  B       0.171775      0.870316      0.770559
  B      -0.171603     -0.869374     -0.770821
