6
Coordinates from ORCA-job B6_random_3d_seed1003_d1.80_q0_m5_R2SCAN-3C E -148.576511587229
  B       0.180771      0.814190     -1.108283
  B      -0.134788     -0.776986      0.975735
  B      -1.320168      0.175948     -0.051023
  B       1.426160     -0.114685      0.137354
  B       0.070263      0.919897      0.831125
  B      -0.222237     -1.018364     -0.784907
6
Coordinates from ORCA-job B6_random_3d_seed1003_d1.80_q0_m5_R2SCAN-3C E -148.600516357259
  B       0.188951      0.780376     -1.075480
  B      -0.138021     -0.758215      0.954272
  B      -1.309248      0.163188     -0.049814
  B       1.399555     -0.097561      0.129795
  B       0.081364      0.901009      0.815824
  B      -0.222601     -0.988797     -0.774597
6
Coordinates from ORCA-job B6_random_3d_seed1003_d1.80_q0_m5_R2SCAN-3C E -148.620118785810
  B       0.198339      0.745511     -1.043004
  B      -0.143444     -0.739037      0.934588
  B      -1.300381      0.149210     -0.048168
  B       1.374678     -0.079260      0.120849
  B       0.093633      0.882717      0.802136
  B      -0.222825     -0.959140     -0.766401
6
Coordinates from ORCA-job B6_random_3d_seed1003_d1.80_q0_m5_R2SCAN-3C E -148.639209290689
  B       0.216562      0.691018     -0.994362
  B      -0.155856     -0.713341      0.909824
  B      -1.292539      0.127447     -0.043003
  B       1.339209     -0.050256      0.102998
  B       0.113151      0.860252      0.783765
  B      -0.220527     -0.915119     -0.759222
6
Coordinates from ORCA-job B6_random_3d_seed1003_d1.80_q0_m5_R2SCAN-3C E -148.644125483902
  B       0.238317      0.644071     -0.952453
  B      -0.172930     -0.698152      0.895264
  B      -1.295902      0.107966     -0.033741
  B       1.315133     -0.025219      0.081735
  B       0.130335      0.852096      0.770134
  B      -0.214953     -0.880761     -0.760938
6
Coordinates from ORCA-job B6_random_3d_seed1003_d1.80_q0_m5_R2SCAN-3C E -148.644784326132
  B       0.240359      0.646603     -0.953244
  B      -0.177334     -0.702053      0.899468
  B      -1.303271      0.105811     -0.031123
  B       1.323296     -0.026246      0.080934
  B       0.131761      0.860022      0.770880
  B      -0.214811     -0.884137     -0.766915
6
Coordinates from ORCA-job B6_random_3d_seed1003_d1.80_q0_m5_R2SCAN-3C E -148.645223738663
  B       0.246030      0.645110     -0.947601
  B      -0.188460     -0.704935      0.905137
  B      -1.315055      0.097292     -0.025242
  B       1.333124     -0.024859      0.077293
  B       0.138050      0.870904      0.767870
  B      -0.213690     -0.883512     -0.777456
6
Coordinates from ORCA-job B6_random_3d_seed1003_d1.80_q0_m5_R2SCAN-3C E -148.645272757273
  B       0.246081      0.646154     -0.945656
  B      -0.192122     -0.704099      0.907357
  B      -1.317038      0.093216     -0.023784
  B       1.335367     -0.025504      0.077578
  B       0.140992      0.872533      0.765068
  B      -0.213280     -0.882300     -0.780563
6
Coordinates from ORCA-job B6_random_3d_seed1003_d1.80_q0_m5_R2SCAN-3C E -148.645318591187
  B       0.244639      0.649372     -0.943026
  B      -0.196600     -0.701438      0.911050
  B      -1.318146      0.087040     -0.022370
  B       1.336942     -0.028093      0.078680
  B       0.145180      0.873305      0.760086
  B      -0.212015     -0.880187     -0.784419
6
Coordinates from ORCA-job B6_random_3d_seed1003_d1.80_q0_m5_R2SCAN-3C E -148.645338137529
  B       0.243095      0.652286     -0.941688
  B      -0.198162     -0.699095      0.913604
  B      -1.317807      0.083812     -0.022204
  B       1.336173     -0.031127      0.078978
  B       0.146948      0.873009      0.757267
  B      -0.210247     -0.878886     -0.785957
6
Coordinates from ORCA-job B6_random_3d_seed1003_d1.80_q0_m5_R2SCAN-3C E -148.645355858793
  B       0.241352      0.655968     -0.940396
  B      -0.198910     -0.696283      0.916637
  B      -1.317166      0.080876     -0.022637
  B       1.333875     -0.035794      0.078178
  B       0.147951      0.872685      0.754982
  B      -0.207101     -0.877451     -0.786763
6
Coordinates from ORCA-job B6_random_3d_seed1003_d1.80_q0_m5_R2SCAN-3C E -148.645370919975
  B       0.240033      0.659698     -0.939200
  B      -0.199320     -0.693665      0.919665
  B      -1.316960      0.078202     -0.023487
  B       1.330886     -0.041252      0.076034
  B       0.148381      0.872928      0.753688
  B      -0.203020     -0.875911     -0.786699
6
Coordinates from ORCA-job B6_random_3d_seed1003_d1.80_q0_m5_R2SCAN-3C E -148.645386498701
  B       0.239082      0.663840     -0.937997
  B      -0.199994     -0.691036      0.922868
  B      -1.317526      0.074934     -0.024838
  B       1.327408     -0.047818      0.072370
  B       0.148837      0.873945      0.753217
  B      -0.197807     -0.873866     -0.785621
6
Coordinates from ORCA-job B6_random_3d_seed1003_d1.80_q0_m5_R2SCAN-3C E -148.645401929813
  B       0.238712      0.667663     -0.937343
  B      -0.201213     -0.688962      0.925371
  B      -1.319000      0.071362     -0.026455
  B       1.324606     -0.053856      0.068087
  B       0.149688      0.875462      0.753793
  B      -0.192793     -0.871669     -0.783453
6
Coordinates from ORCA-job B6_random_3d_seed1003_d1.80_q0_m5_R2SCAN-3C E -148.645418662675
  B       0.238595      0.671767     -0.937170
  B      -0.203513     -0.686883      0.927409
  B      -1.321457      0.066614     -0.028514
  B       1.322412     -0.059755      0.063194
  B       0.151669      0.877217      0.755112
  B      -0.187706     -0.868959     -0.780031
6
Coordinates from ORCA-job B6_random_3d_seed1003_d1.80_q0_m5_R2SCAN-3C E -148.645432361333
  B       0.238560      0.674603     -0.937887
  B      -0.206065     -0.685456      0.927985
  B      -1.323843      0.062587     -0.030281
  B       1.321748     -0.062918      0.059913
  B       0.154280      0.878089      0.756798
  B      -0.184681     -0.866904     -0.776528
6
Coordinates from ORCA-job B6_random_3d_seed1003_d1.80_q0_m5_R2SCAN-3C E -148.645439898622
  B       0.238082      0.676367     -0.938792
  B      -0.208235     -0.684309      0.927922
  B      -1.325391      0.059845     -0.031431
  B       1.321861     -0.063998      0.058643
  B       0.156938      0.877910      0.757912
  B      -0.183255     -0.865814     -0.774253
6
Coordinates from ORCA-job B6_random_3d_seed1003_d1.80_q0_m5_R2SCAN-3C E -148.645442586154
  B       0.237261      0.677454     -0.939085
  B      -0.209505     -0.683294      0.928100
  B      -1.325918      0.058504     -0.031987
  B       1.321678     -0.064552      0.058336
  B       0.158705      0.877380      0.758176
  B      -0.182220     -0.865491     -0.773539
6
Coordinates from ORCA-job B6_random_3d_seed1003_d1.80_q0_m5_R2SCAN-3C E -148.645443940560
  B       0.236391      0.677890     -0.939128
  B      -0.210210     -0.682661      0.928202
  B      -1.326007      0.058221     -0.032345
  B       1.321493     -0.064625      0.058298
  B       0.159802      0.876886      0.758398
  B      -0.181470     -0.865712     -0.773425
6
Coordinates from ORCA-job B6_random_3d_seed1003_d1.80_q0_m5_R2SCAN-3C E -148.645445254613
  B       0.235302      0.678001     -0.938965
  B      -0.210859     -0.682214      0.928234
  B      -1.325932      0.058466     -0.032821
  B       1.321366     -0.064446      0.058145
  B       0.160785      0.876479      0.758830
  B      -0.180662     -0.866286     -0.773423
6
Coordinates from ORCA-job B6_random_3d_seed1003_d1.80_q0_m5_R2SCAN-3C E -148.645447353886
  B       0.233107      0.678319     -0.938408
  B      -0.212270     -0.681409      0.928358
  B      -1.325822      0.058817     -0.034172
  B       1.321059     -0.064481      0.057156
  B       0.162679      0.876042      0.759999
  B      -0.178752     -0.867288     -0.772933
6
Coordinates from ORCA-job B6_random_3d_seed1003_d1.80_q0_m5_R2SCAN-3C E -148.645450056433
  B       0.229785      0.678240     -0.937182
  B      -0.214273     -0.680668      0.928375
  B      -1.325373      0.059856     -0.036505
  B       1.321063     -0.063960      0.055535
  B       0.165240      0.875594      0.761922
  B      -0.176443     -0.869062     -0.772144
6
Coordinates from ORCA-job B6_random_3d_seed1003_d1.80_q0_m5_R2SCAN-3C E -148.645452850493
  B       0.226469      0.678023     -0.935575
  B      -0.216234     -0.680194      0.928498
  B      -1.324713      0.060961     -0.039346
  B       1.321431     -0.063290      0.053552
  B       0.167612      0.875354      0.763966
  B      -0.174565     -0.870854     -0.771095
6
Coordinates from ORCA-job B6_random_3d_seed1003_d1.80_q0_m5_R2SCAN-3C E -148.645455549218
  B       0.223163      0.678221     -0.933507
  B      -0.218443     -0.679572      0.929148
  B      -1.324015      0.061446     -0.042949
  B       1.321927     -0.063049      0.050762
  B       0.170081      0.875251      0.766087
  B      -0.172713     -0.872297     -0.769541
6
Coordinates from ORCA-job B6_random_3d_seed1003_d1.80_q0_m5_R2SCAN-3C E -148.645456931913
  B       0.222141      0.678427     -0.932467
  B      -0.219267     -0.679332      0.929815
  B      -1.323669      0.061350     -0.044776
  B       1.322421     -0.062856      0.049389
  B       0.170906      0.875113      0.766847
  B      -0.172533     -0.872703     -0.768807
6
Coordinates from ORCA-job B6_random_3d_seed1003_d1.80_q0_m5_R2SCAN-3C E -148.645457595851
  B       0.222765      0.678674     -0.932372
  B      -0.219043     -0.679307      0.930378
  B      -1.323663      0.060930     -0.044985
  B       1.322649     -0.062874      0.049183
  B       0.170502      0.874940      0.766573
  B      -0.173210     -0.872363     -0.768777
6
Coordinates from ORCA-job B6_random_3d_seed1003_d1.80_q0_m5_R2SCAN-3C E -148.645457902286
  B       0.222059      0.679186     -0.931856
  B      -0.219720     -0.678775      0.931102
  B      -1.323595      0.060658     -0.046175
  B       1.322697     -0.063002      0.048155
  B       0.171229      0.874501      0.767059
  B      -0.172671     -0.872568     -0.768285
6
Coordinates from ORCA-job B6_random_3d_seed1003_d1.80_q0_m5_R2SCAN-3C E -148.645458013347
  B       0.221682      0.679272     -0.931684
  B      -0.220090     -0.678586      0.931344
  B      -1.323577      0.060778     -0.046584
  B       1.322746     -0.062848      0.047762
  B       0.171583      0.874208      0.767318
  B      -0.172344     -0.872822     -0.768156
6
Coordinates from ORCA-job B6_random_3d_seed1003_d1.80_q0_m5_R2SCAN-3C E -148.645457987454
  B       0.220530      0.679663     -0.931087
  B      -0.221124     -0.678081      0.931884
  B      -1.323506      0.060732     -0.047881
  B       1.322800     -0.062888      0.046566
  B       0.172654      0.873827      0.768059
  B      -0.171354     -0.873254     -0.767541
6
Coordinates from ORCA-job B6_random_3d_seed1003_d1.80_q0_m5_R2SCAN-3C E -148.645458065080
  B       0.220797      0.679555     -0.931300
  B      -0.220974     -0.678246      0.931723
  B      -1.323560      0.060812     -0.047494
  B       1.322802     -0.062835      0.046820
  B       0.172413      0.873888      0.767903
  B      -0.171478     -0.873174     -0.767652
