6
Coordinates from ORCA-job B6_random_3d_seed1003_d1.80_q0_m5_R2SCAN-3C E -148.645458065080
  B           0.22079651336701      0.67955473287286     -0.93130024838931
  B          -0.22097422533085     -0.67824595293837      0.93172345153260
  B          -1.32356000341524      0.06081178338927     -0.04749428038114
  B           1.32280244470237     -0.06283492447403      0.04682041970036
  B           0.17241314560931      0.87388844520485      0.76790261007243
  B          -0.17147787493260     -0.87317408405458     -0.76765194253493
