6
Coordinates from ORCA-job B6_trigonal_prism_d1.60_q0_m5_R2SCAN-3C E -148.572321803974
  B           0.81315420889594      0.49939997738308     -0.82479360614634
  B          -0.81315420904041      0.49939998359337     -0.82479361005800
  B          -0.00000000400777     -0.99879936013098     -0.81854640780230
  B           0.81315420336329      0.49939960842516      0.82479328585586
  B          -0.81315420561417      0.49939960648738      0.82479328147011
  B           0.00000000640313     -0.99879979575801      0.81854705668067
