6
Coordinates from ORCA-job B6_trigonal_prism_d1.60_q0_m5_R2SCAN-3C E -148.557928258192
  B       0.800000      0.461880     -0.800000
  B      -0.800000      0.461880     -0.800000
  B      -0.000000     -0.923760     -0.800000
  B       0.800000      0.461880      0.800000
  B      -0.800000      0.461880      0.800000
  B      -0.000000     -0.923760      0.800000
6
Coordinates from ORCA-job B6_trigonal_prism_d1.60_q0_m5_R2SCAN-3C E -148.567570177007
  B       0.805086      0.476452     -0.813227
  B      -0.805086      0.476452     -0.813227
  B      -0.000000     -0.952904     -0.808490
  B       0.805086      0.476452      0.813227
  B      -0.805086      0.476452      0.813227
  B       0.000000     -0.952904      0.808490
6
Coordinates from ORCA-job B6_trigonal_prism_d1.60_q0_m5_R2SCAN-3C E -148.572044106716
  B       0.811302      0.493223     -0.825728
  B      -0.811302      0.493223     -0.825728
  B       0.000000     -0.986445     -0.816529
  B       0.811302      0.493223      0.825728
  B      -0.811302      0.493223      0.825728
  B       0.000000     -0.986445      0.816529
6
Coordinates from ORCA-job B6_trigonal_prism_d1.60_q0_m5_R2SCAN-3C E -148.572294692277
  B       0.813006      0.497894     -0.827234
  B      -0.813006      0.497894     -0.827234
  B      -0.000000     -0.995787     -0.817715
  B       0.813006      0.497894      0.827234
  B      -0.813006      0.497894      0.827234
  B       0.000000     -0.995787      0.817715
6
Coordinates from ORCA-job B6_trigonal_prism_d1.60_q0_m5_R2SCAN-3C E -148.572314669418
  B       0.813345      0.499073     -0.826496
  B      -0.813345      0.499073     -0.826496
  B      -0.000000     -0.998145     -0.817703
  B       0.813345      0.499073      0.826496
  B      -0.813345      0.499073      0.826496
  B       0.000000     -0.998145      0.817703
6
Coordinates from ORCA-job B6_trigonal_prism_d1.60_q0_m5_R2SCAN-3C E -148.572319976480
  B       0.813358      0.499449     -0.825534
  B      -0.813358      0.499449     -0.825534
  B      -0.000000     -0.998899     -0.817748
  B       0.813358      0.499449      0.825534
  B      -0.813358      0.499449      0.825534
  B       0.000000     -0.998899      0.817748
6
Coordinates from ORCA-job B6_trigonal_prism_d1.60_q0_m5_R2SCAN-3C E -148.572321336531
  B       0.813261      0.499462     -0.824963
  B      -0.813261      0.499462     -0.824963
  B      -0.000000     -0.998924     -0.817989
  B       0.813261      0.499462      0.824963
  B      -0.813261      0.499462      0.824963
  B       0.000000     -0.998924      0.817989
6
Coordinates from ORCA-job B6_trigonal_prism_d1.60_q0_m5_R2SCAN-3C E -148.572321704041
  B       0.813184      0.499415     -0.824773
  B      -0.813184      0.499415     -0.824773
  B      -0.000000     -0.998831     -0.818284
  B       0.813184      0.499415      0.824772
  B      -0.813184      0.499415      0.824772
  B       0.000000     -0.998831      0.818284
6
Coordinates from ORCA-job B6_trigonal_prism_d1.60_q0_m5_R2SCAN-3C E -148.572321793650
  B       0.813153      0.499396     -0.824765
  B      -0.813153      0.499396     -0.824765
  B      -0.000000     -0.998793     -0.818490
  B       0.813153      0.499396      0.824765
  B      -0.813153      0.499396      0.824765
  B       0.000000     -0.998793      0.818490
6
Coordinates from ORCA-job B6_trigonal_prism_d1.60_q0_m5_R2SCAN-3C E -148.572321803974
  B       0.813154      0.499400     -0.824794
  B      -0.813154      0.499400     -0.824794
  B      -0.000000     -0.998799     -0.818546
  B       0.813154      0.499400      0.824793
  B      -0.813154      0.499400      0.824793
  B       0.000000     -0.998800      0.818547
