6
Coordinates from ORCA-job B6_rhombic_planar_d2.50_q0_m1_R2SCAN-3C E -148.153608756940
  B      -3.125000     -1.082532      0.000000
  B      -0.625000     -1.082532      0.000000
  B       1.875000     -1.082532      0.000000
  B      -1.875000      1.082532      0.000000
  B       0.625000      1.082532      0.000000
  B       3.125000      1.082532      0.000000
6
Coordinates from ORCA-job B6_rhombic_planar_d2.50_q0_m1_R2SCAN-3C E -148.182101016659
  B      -3.058928     -1.053977     -0.000000
  B      -0.602295     -1.070259      0.000000
  B       1.831659     -1.057083      0.000000
  B      -1.831659      1.057083      0.000000
  B       0.602295      1.070259      0.000000
  B       3.058928      1.053977     -0.000000
6
Coordinates from ORCA-job B6_rhombic_planar_d2.50_q0_m1_R2SCAN-3C E -148.213192552962
  B      -2.990195     -1.024614     -0.000000
  B      -0.577935     -1.060452      0.000000
  B       1.787864     -1.033330      0.000000
  B      -1.787864      1.033330      0.000000
  B       0.577935      1.060452      0.000000
  B       2.990195      1.024614     -0.000000
6
Coordinates from ORCA-job B6_rhombic_planar_d2.50_q0_m1_R2SCAN-3C E -148.265072201259
  B      -2.882621     -0.980371     -0.000000
  B      -0.539636     -1.047477      0.000000
  B       1.721811     -1.001329      0.000000
  B      -1.721811      1.001329      0.000000
  B       0.539636      1.047477      0.000000
  B       2.882621      0.980371     -0.000000
6
Coordinates from ORCA-job B6_rhombic_planar_d2.50_q0_m1_R2SCAN-3C E -148.352985119089
  B      -2.713724     -0.914800     -0.000000
  B      -0.480262     -1.029376      0.000000
  B       1.622937     -0.960666      0.000000
  B      -1.622937      0.960666      0.000000
  B       0.480262      1.029376      0.000000
  B       2.713724      0.914800     -0.000000
6
Coordinates from ORCA-job B6_rhombic_planar_d2.50_q0_m1_R2SCAN-3C E -148.451564127867
  B      -2.535152     -0.849009     -0.000000
  B      -0.420211     -1.011586      0.000000
  B       1.524004     -0.925573      0.000000
  B      -1.524004      0.925573      0.000000
  B       0.420211      1.011586      0.000000
  B       2.535152      0.849009     -0.000000
6
Coordinates from ORCA-job B6_rhombic_planar_d2.50_q0_m1_R2SCAN-3C E -148.550895323383
  B      -2.352236     -0.784503     -0.000000
  B      -0.363077     -0.993394      0.000000
  B       1.423102     -0.891797      0.000000
  B      -1.423102      0.891797      0.000000
  B       0.363077      0.993394      0.000000
  B       2.352236      0.784503     -0.000000
6
Coordinates from ORCA-job B6_rhombic_planar_d2.50_q0_m1_R2SCAN-3C E -148.610802549547
  B      -2.226993     -0.740236     -0.000000
  B      -0.331553     -0.983509      0.000000
  B       1.355651     -0.864885      0.000000
  B      -1.355651      0.864885      0.000000
  B       0.331553      0.983509      0.000000
  B       2.226993      0.740236     -0.000000
6
Coordinates from ORCA-job B6_rhombic_planar_d2.50_q0_m1_R2SCAN-3C E -148.644588453926
  B      -2.145432     -0.710912     -0.000000
  B      -0.319884     -0.975858      0.000000
  B       1.316275     -0.842723      0.000000
  B      -1.316276      0.842722      0.000000
  B       0.319883      0.975859      0.000000
  B       2.145433      0.710912     -0.000000
6
Coordinates from ORCA-job B6_rhombic_planar_d2.50_q0_m1_R2SCAN-3C E -148.683225609320
  B      -2.032473     -0.670904     -0.000000
  B      -0.321287     -0.962392      0.000000
  B       1.267779     -0.803156      0.000000
  B      -1.267780      0.803158      0.000000
  B       0.321288      0.962393      0.000000
  B       2.032473      0.670901     -0.000000
6
Coordinates from ORCA-job B6_rhombic_planar_d2.50_q0_m1_R2SCAN-3C E -148.704652840669
  B      -1.911473     -0.641934     -0.000000
  B      -0.364769     -0.941204      0.000000
  B       1.196099     -0.736927     -0.000000
  B      -1.196098      0.736956      0.000000
  B       0.364775      0.941194     -0.000000
  B       1.911467      0.641914      0.000000
6
Coordinates from ORCA-job B6_rhombic_planar_d2.50_q0_m1_R2SCAN-3C E -148.704810072200
  B      -1.953362     -0.659100      0.000000
  B      -0.368458     -0.932158     -0.000000
  B       1.137675     -0.700363      0.000000
  B      -1.137722      0.700294      0.000000
  B       0.368420      0.932135     -0.000000
  B       1.953447      0.659191      0.000000
6
Coordinates from ORCA-job B6_rhombic_planar_d2.50_q0_m1_R2SCAN-3C E -148.705457893578
  B      -1.994337     -0.645501      0.000000
  B      -0.386497     -0.946224     -0.000000
  B       1.175117     -0.665926      0.000000
  B      -1.175055      0.665971      0.000000
  B       0.386538      0.946211     -0.000000
  B       1.994235      0.645469      0.000000
6
Coordinates from ORCA-job B6_rhombic_planar_d2.50_q0_m1_R2SCAN-3C E -148.706928819959
  B      -1.953115     -0.667114     -0.000000
  B      -0.410336     -0.972407     -0.000000
  B       1.163773     -0.708348      0.000000
  B      -1.163790      0.708309      0.000000
  B       0.410300      0.972415     -0.000000
  B       1.953168      0.667146      0.000000
6
Coordinates from ORCA-job B6_rhombic_planar_d2.50_q0_m1_R2SCAN-3C E -148.708563198516
  B      -1.947503     -0.651352     -0.000000
  B      -0.393052     -0.987091     -0.000000
  B       1.144559     -0.692860      0.000000
  B      -1.144521      0.692945      0.000000
  B       0.393183      0.987077     -0.000000
  B       1.947334      0.651280     -0.000000
6
Coordinates from ORCA-job B6_rhombic_planar_d2.50_q0_m1_R2SCAN-3C E -148.709150160429
  B      -1.956095     -0.652776     -0.000000
  B      -0.406115     -1.004056      0.000000
  B       1.130530     -0.677486      0.000000
  B      -1.130765      0.676873      0.000000
  B       0.405142      1.004168      0.000000
  B       1.957303      0.653277     -0.000000
6
Coordinates from ORCA-job B6_rhombic_planar_d2.50_q0_m1_R2SCAN-3C E -148.709772425775
  B      -1.962983     -0.655448     -0.000000
  B      -0.418124     -1.039169     -0.000000
  B       1.110411     -0.660813      0.000000
  B      -1.108774      0.664952      0.000000
  B       0.425240      1.038463     -0.000000
  B       1.954229      0.652015      0.000000
6
Coordinates from ORCA-job B6_rhombic_planar_d2.50_q0_m1_R2SCAN-3C E -148.710109524866
  B      -1.953010     -0.653043      0.000000
  B      -0.433944     -1.060602     -0.000000
  B       1.095330     -0.658283      0.000000
  B      -1.096948      0.655131      0.000000
  B       0.427387      1.061269     -0.000000
  B       1.961185      0.655526      0.000000
6
Coordinates from ORCA-job B6_rhombic_planar_d2.50_q0_m1_R2SCAN-3C E -148.710507451234
  B      -1.956074     -0.652710     -0.000000
  B      -0.443161     -1.096002     -0.000000
  B       1.070673     -0.642615      0.000000
  B      -1.070712      0.641500      0.000000
  B       0.444354      1.095505     -0.000000
  B       1.954920      0.654322     -0.000000
6
Coordinates from ORCA-job B6_rhombic_planar_d2.50_q0_m1_R2SCAN-3C E -148.710472485321
  B      -1.954827     -0.659268      0.000000
  B      -0.458359     -1.127345     -0.000000
  B       1.045932     -0.624066      0.000000
  B      -1.038885      0.631226      0.000000
  B       0.453218      1.131871     -0.000000
  B       1.952922      0.647582      0.000000
6
Coordinates from ORCA-job B6_rhombic_planar_d2.50_q0_m1_R2SCAN-3C E -148.710495489153
  B      -1.950972     -0.652853      0.000000
  B      -0.460535     -1.149870     -0.000000
  B       1.018778     -0.619700      0.000000
  B      -1.027402      0.617401      0.000000
  B       0.464873      1.150432     -0.000000
  B       1.955258      0.654589      0.000000
6
Coordinates from ORCA-job B6_rhombic_planar_d2.50_q0_m1_R2SCAN-3C E -148.710605297537
  B      -1.957743     -0.650067      0.000000
  B      -0.453594     -1.124071     -0.000000
  B       1.048438     -0.630869      0.000000
  B      -1.044006      0.627703      0.000000
  B       0.452468      1.119249     -0.000000
  B       1.954437      0.658054      0.000000
6
Coordinates from ORCA-job B6_rhombic_planar_d2.50_q0_m1_R2SCAN-3C E -148.710595797090
  B      -1.954067     -0.658580      0.000000
  B      -0.452134     -1.117116     -0.000000
  B       1.046189     -0.627834      0.000000
  B      -1.050581      0.631954      0.000000
  B       0.453339      1.122559     -0.000000
  B       1.957254      0.649017      0.000000
6
Coordinates from ORCA-job B6_rhombic_planar_d2.50_q0_m1_R2SCAN-3C E -148.710630543872
  B      -1.954928     -0.653763      0.000000
  B      -0.455696     -1.128380     -0.000000
  B       1.041688     -0.626801      0.000000
  B      -1.041467      0.626855      0.000000
  B       0.455442      1.128338     -0.000000
  B       1.954961      0.653751      0.000000
6
Coordinates from ORCA-job B6_rhombic_planar_d2.50_q0_m1_R2SCAN-3C E -148.710630946553
  B      -1.955295     -0.653724      0.000000
  B      -0.454576     -1.126145     -0.000000
  B       1.043211     -0.627791      0.000000
  B      -1.043279      0.627707      0.000000
  B       0.454683      1.126064     -0.000000
  B       1.955256      0.653889      0.000000
6
Coordinates from ORCA-job B6_rhombic_planar_d2.50_q0_m1_R2SCAN-3C E -148.710631037808
  B      -1.955139     -0.653782      0.000000
  B      -0.454865     -1.126594     -0.000000
  B       1.042890     -0.627536      0.000000
  B      -1.042888      0.627536      0.000000
  B       0.454862      1.126593     -0.000000
  B       1.955140      0.653784      0.000000
6
Coordinates from ORCA-job B6_rhombic_planar_d2.50_q0_m1_R2SCAN-3C E -148.710631038120
  B      -1.955154     -0.653785     -0.000000
  B      -0.454876     -1.126666     -0.000000
  B       1.042848     -0.627516      0.000000
  B      -1.042846      0.627522      0.000000
  B       0.454877      1.126663     -0.000000
  B       1.955150      0.653781     -0.000000
