6
Coordinates from ORCA-job B6_rhombic_planar_d2.50_q0_m1_R2SCAN-3C E -148.710631038120
  B          -1.95515374452937     -0.65378471370664     -0.00000000118846
  B          -0.45487564336879     -1.12666557831415     -0.00000000475320
  B           1.04284827366879     -0.62751591652534      0.00000000635949
  B          -1.04284636307970      0.62752243954650      0.00000000558437
  B           0.45487739827859      1.12666303990924     -0.00000000436810
  B           1.95515007903048      0.65378072909038     -0.00000000163410
