6
Coordinates from ORCA-job B6_linear_chain_d3.50_q0_m1_R2SCAN-3C E -147.797342718294
  B      -8.750000      0.000000      0.000000
  B      -5.250000      0.000000      0.000000
  B      -1.750000      0.000000      0.000000
  B       1.750000      0.000000      0.000000
  B       5.250000      0.000000      0.000000
  B       8.750000      0.000000      0.000000
6
Coordinates from ORCA-job B6_linear_chain_d3.50_q0_m1_R2SCAN-3C E -147.805505855149
  B      -8.587721     -0.000000     -0.000000
  B      -5.190843     -0.000000     -0.000000
  B      -1.781528     -0.000000     -0.000000
  B       1.716153      0.000000      0.000000
  B       5.190843      0.000000      0.000000
  B       8.653097      0.000000      0.000000
6
Coordinates from ORCA-job B6_linear_chain_d3.50_q0_m1_R2SCAN-3C E -147.814321083024
  B      -8.425233     -0.000000     -0.000000
  B      -5.132512     -0.000000      0.000000
  B      -1.815701      0.000000      0.000000
  B       1.682826      0.000000      0.000000
  B       5.133092      0.000000     -0.000000
  B       8.557528      0.000000     -0.000000
6
Coordinates from ORCA-job B6_linear_chain_d3.50_q0_m1_R2SCAN-3C E -147.828941736074
  B      -8.181365     -0.000000     -0.000000
  B      -5.046132     -0.000000     -0.000000
  B      -1.870791      0.000000      0.000000
  B       1.633464      0.000000      0.000000
  B       5.048486      0.000000      0.000000
  B       8.416339      0.000000      0.000000
6
Coordinates from ORCA-job B6_linear_chain_d3.50_q0_m1_R2SCAN-3C E -147.847601425305
  B      -7.921425     -0.000000     -0.000000
  B      -4.944945     -0.000000     -0.000000
  B      -1.928357      0.000000      0.000000
  B       1.593120      0.000000      0.000000
  B       4.958668      0.000000      0.000000
  B       8.242939      0.000000      0.000000
6
Coordinates from ORCA-job B6_linear_chain_d3.50_q0_m1_R2SCAN-3C E -147.868720302308
  B      -7.666473     -0.000000     -0.000000
  B      -4.848745     -0.000000     -0.000000
  B      -1.990911      0.000000      0.000000
  B       1.558206      0.000000      0.000000
  B       4.875093      0.000000      0.000000
  B       8.072829      0.000000      0.000000
6
Coordinates from ORCA-job B6_linear_chain_d3.50_q0_m1_R2SCAN-3C E -147.892393735146
  B      -7.416294     -0.000000     -0.000000
  B      -4.757320     -0.000000     -0.000000
  B      -2.058238      0.000000      0.000000
  B       1.526101      0.000000      0.000000
  B       4.796829      0.000000      0.000000
  B       7.908922      0.000000      0.000000
6
Coordinates from ORCA-job B6_linear_chain_d3.50_q0_m1_R2SCAN-3C E -147.918675247568
  B      -7.169717      0.000000     -0.000000
  B      -4.669496      0.000000     -0.000000
  B      -2.129167      0.000000      0.000000
  B       1.495362     -0.000000      0.000000
  B       4.722456     -0.000000      0.000000
  B       7.750562     -0.000000      0.000000
6
Coordinates from ORCA-job B6_linear_chain_d3.50_q0_m1_R2SCAN-3C E -147.947410042180
  B      -6.925594      0.000000     -0.000000
  B      -4.584126      0.000000     -0.000000
  B      -2.202551      0.000000      0.000000
  B       1.464593     -0.000000      0.000000
  B       4.650738     -0.000000      0.000000
  B       7.596940     -0.000000      0.000000
6
Coordinates from ORCA-job B6_linear_chain_d3.50_q0_m1_R2SCAN-3C E -147.978014463559
  B      -6.682864      0.000000     -0.000000
  B      -4.500150      0.000000     -0.000000
  B      -2.277327      0.000000      0.000000
  B       1.432657     -0.000000      0.000000
  B       4.580841     -0.000000      0.000000
  B       7.446843     -0.000000      0.000000
6
Coordinates from ORCA-job B6_linear_chain_d3.50_q0_m1_R2SCAN-3C E -148.009164925376
  B      -6.440575      0.000000      0.000000
  B      -4.416614      0.000000      0.000000
  B      -2.352545      0.000000      0.000000
  B       1.398843     -0.000000      0.000000
  B       4.512506     -0.000000     -0.000000
  B       7.298384     -0.000000     -0.000000
6
Coordinates from ORCA-job B6_linear_chain_d3.50_q0_m1_R2SCAN-3C E -148.038494020629
  B      -6.197113      0.000000     -0.000000
  B      -4.331905      0.000000     -0.000000
  B      -2.426589     -0.000000      0.000000
  B       1.362521     -0.000000      0.000000
  B       4.447627     -0.000000      0.000000
  B       7.145459     -0.000000      0.000000
6
Coordinates from ORCA-job B6_linear_chain_d3.50_q0_m1_R2SCAN-3C E -148.060520879653
  B      -5.955258      0.000000     -0.000000
  B      -4.241336     -0.000000     -0.000000
  B      -2.494773     -0.000000      0.000000
  B       1.322570     -0.000000      0.000000
  B       4.392242      0.000000      0.000000
  B       6.976555      0.000000      0.000000
6
Coordinates from ORCA-job B6_linear_chain_d3.50_q0_m1_R2SCAN-3C E -148.068327119613
  B      -5.872663     -0.000000     -0.000001
  B      -4.106765     -0.000000     -0.000001
  B      -2.518955     -0.000000     -0.000000
  B       1.315786      0.000000      0.000000
  B       4.382004      0.000000      0.000001
  B       6.800592      0.000001      0.000001
6
Coordinates from ORCA-job B6_linear_chain_d3.50_q0_m1_R2SCAN-3C E -148.077448315689
  B      -5.781407      0.000001     -0.000000
  B      -4.138296      0.000000     -0.000000
  B      -2.501646      0.000000      0.000000
  B       1.335613     -0.000000      0.000000
  B       4.417497     -0.000000      0.000000
  B       6.668240     -0.000001      0.000000
6
Coordinates from ORCA-job B6_linear_chain_d3.50_q0_m1_R2SCAN-3C E -148.117318689370
  B      -5.822041      0.000120     -0.000305
  B      -4.126267      0.000076     -0.000192
  B      -2.463672      0.000038     -0.000093
  B       1.396165     -0.000033      0.000082
  B       4.464061     -0.000086      0.000207
  B       6.551755     -0.000115      0.000302
6
Coordinates from ORCA-job B6_linear_chain_d3.50_q0_m1_R2SCAN-3C E -148.125683518836
  B      -5.798209      0.000213     -0.000541
  B      -4.098834      0.000135     -0.000339
  B      -2.457095      0.000067     -0.000164
  B       1.426392     -0.000059      0.000148
  B       4.478912     -0.000153      0.000368
  B       6.448834     -0.000202      0.000528
6
Coordinates from ORCA-job B6_linear_chain_d3.50_q0_m1_R2SCAN-3C E -148.135329481400
  B      -5.691391      0.000243     -0.000615
  B      -4.061419      0.000152     -0.000381
  B      -2.485836      0.000074     -0.000181
  B       1.414226     -0.000069      0.000172
  B       4.439484     -0.000174      0.000413
  B       6.384936     -0.000227      0.000591
6
Coordinates from ORCA-job B6_linear_chain_d3.50_q0_m1_R2SCAN-3C E -148.143263802680
  B      -5.615940      0.000275     -0.000681
  B      -4.047714      0.000173     -0.000422
  B      -2.489173      0.000083     -0.000196
  B       1.462361     -0.000080      0.000198
  B       4.405213     -0.000196      0.000455
  B       6.285254     -0.000254      0.000646
6
Coordinates from ORCA-job B6_linear_chain_d3.50_q0_m1_R2SCAN-3C E -148.152989349095
  B      -5.580109      0.000281     -0.000686
  B      -4.019326      0.000173     -0.000417
  B      -2.464481      0.000079     -0.000186
  B       1.561436     -0.000087      0.000211
  B       4.343587     -0.000196      0.000447
  B       6.158893     -0.000250      0.000631
6
Coordinates from ORCA-job B6_linear_chain_d3.50_q0_m1_R2SCAN-3C E -148.163484637261
  B      -5.532459      0.000290     -0.000698
  B      -3.986759      0.000173     -0.000412
  B      -2.444958      0.000074     -0.000170
  B       1.660558     -0.000095      0.000227
  B       4.262472     -0.000197      0.000437
  B       6.041147     -0.000246      0.000616
6
Coordinates from ORCA-job B6_linear_chain_d3.50_q0_m1_R2SCAN-3C E -148.175958619352
  B      -5.497049      0.000292     -0.000709
  B      -3.954369      0.000171     -0.000405
  B      -2.414717      0.000069     -0.000154
  B       1.755170     -0.000101      0.000240
  B       4.167624     -0.000195      0.000424
  B       5.943341     -0.000236      0.000604
6
Coordinates from ORCA-job B6_linear_chain_d3.50_q0_m1_R2SCAN-3C E -148.188747159867
  B      -5.489087      0.000217     -0.000593
  B      -3.933088      0.000115     -0.000312
  B      -2.381738      0.000036     -0.000094
  B       1.845298     -0.000080      0.000205
  B       4.087479     -0.000137      0.000318
  B       5.871135     -0.000151      0.000476
6
Coordinates from ORCA-job B6_linear_chain_d3.50_q0_m1_R2SCAN-3C E -148.206323682082
  B      -5.447158      0.000153     -0.000426
  B      -3.874062      0.000115     -0.000308
  B      -2.310476      0.000109     -0.000271
  B       1.907461     -0.000038      0.000086
  B       3.993158     -0.000139      0.000293
  B       5.731078     -0.000200      0.000625
6
Coordinates from ORCA-job B6_linear_chain_d3.50_q0_m1_R2SCAN-3C E -148.225088025376
  B      -5.383074      0.000809     -0.002272
  B      -3.810787     -0.001161      0.003261
  B      -2.247918      0.000071     -0.000145
  B       1.966805      0.000414     -0.001171
  B       3.905697      0.000870     -0.002535
  B       5.569276     -0.001002      0.002862
6
Coordinates from ORCA-job B6_linear_chain_d3.50_q0_m1_R2SCAN-3C E -148.244337600181
  B      -5.312499      0.001483     -0.004165
  B      -3.745966     -0.002306      0.006455
  B      -2.187867      0.000258     -0.000647
  B       2.023252      0.000579     -0.001626
  B       3.807174      0.001105     -0.003203
  B       5.415906     -0.001120      0.003186
6
Coordinates from ORCA-job B6_linear_chain_d3.50_q0_m1_R2SCAN-3C E -148.258602184410
  B      -5.222424      0.001669     -0.004716
  B      -3.672094     -0.003161      0.008858
  B      -2.122706      0.000800     -0.002121
  B       2.069135      0.000900     -0.002518
  B       3.694304      0.001259     -0.003640
  B       5.253785     -0.001467      0.004138
6
Coordinates from ORCA-job B6_linear_chain_d3.50_q0_m1_R2SCAN-3C E -148.248610648964
  B      -5.094273      0.002091     -0.005871
  B      -3.565043     -0.003867      0.010795
  B      -2.045981      0.000812     -0.002164
  B       2.018079      0.001169     -0.003257
  B       3.484495      0.001576     -0.004507
  B       5.202722     -0.001780      0.005005
6
Coordinates from ORCA-job B6_linear_chain_d3.50_q0_m1_R2SCAN-3C E -148.261917246665
  B      -5.126455      0.001527     -0.004290
  B      -3.544809     -0.003476      0.009710
  B      -1.975797      0.001216     -0.003292
  B       2.013902      0.001246     -0.003491
  B       3.536844      0.001367     -0.003941
  B       5.096316     -0.001879      0.005305
6
Coordinates from ORCA-job B6_linear_chain_d3.50_q0_m1_R2SCAN-3C E -148.264676103141
  B      -5.050649      0.002916     -0.008199
  B      -3.485155     -0.005084      0.014227
  B      -1.930348      0.001047     -0.002807
  B       1.900597      0.001124     -0.003156
  B       3.491258      0.001727     -0.004942
  B       5.074296     -0.001730      0.004877
6
Coordinates from ORCA-job B6_linear_chain_d3.50_q0_m1_R2SCAN-3C E -148.267981466655
  B      -4.955885      0.004153     -0.011712
  B      -3.400907     -0.007057      0.019792
  B      -1.858339      0.001370     -0.003663
  B       1.813853      0.001297     -0.003660
  B       3.423233      0.002198     -0.006275
  B       4.978046     -0.001962      0.005519
6
Coordinates from ORCA-job B6_linear_chain_d3.50_q0_m1_R2SCAN-3C E -148.273104066283
  B      -4.880115      0.005540     -0.015614
  B      -3.323437     -0.009092      0.025493
  B      -1.782303      0.001570     -0.004203
  B       1.731136      0.001425     -0.004014
  B       3.343697      0.002737     -0.007766
  B       4.911023     -0.002180      0.006104
6
Coordinates from ORCA-job B6_linear_chain_d3.50_q0_m1_R2SCAN-3C E -148.280105885487
  B      -4.793269      0.006865     -0.019361
  B      -3.240342     -0.011100      0.031137
  B      -1.704646      0.001850     -0.004944
  B       1.650039      0.001513     -0.004275
  B       3.262905      0.003343     -0.009462
  B       4.825313     -0.002472      0.006905
6
Coordinates from ORCA-job B6_linear_chain_d3.50_q0_m1_R2SCAN-3C E -148.289363697454
  B      -4.709522      0.008225     -0.023212
  B      -3.157657     -0.013111      0.036788
  B      -1.625926      0.002100     -0.005596
  B       1.570006      0.001545     -0.004371
  B       3.179624      0.004067     -0.011476
  B       4.743476     -0.002827      0.007867
6
Coordinates from ORCA-job B6_linear_chain_d3.50_q0_m1_R2SCAN-3C E -148.301097268601
  B      -4.624729      0.009633     -0.027204
  B      -3.074207     -0.015153      0.042528
  B      -1.546539      0.002335     -0.006197
  B       1.490640      0.001488     -0.004220
  B       3.095772      0.004961     -0.013960
  B       4.659063     -0.003264      0.009053
6
Coordinates from ORCA-job B6_linear_chain_d3.50_q0_m1_R2SCAN-3C E -148.315545450139
  B      -4.540917      0.011098     -0.031360
  B      -2.990907     -0.017219      0.048340
  B      -1.466678      0.002527     -0.006676
  B       1.411746      0.001345     -0.003824
  B       3.011627      0.006046     -0.016971
  B       4.575129     -0.003796      0.010492
6
Coordinates from ORCA-job B6_linear_chain_d3.50_q0_m1_R2SCAN-3C E -148.332880145640
  B      -4.458350      0.012634     -0.035726
  B      -2.908004     -0.019325      0.054265
  B      -1.386513      0.002666     -0.007001
  B       1.333157      0.001112     -0.003177
  B       2.927729      0.007341     -0.020563
  B       4.491981     -0.004428      0.012203
6
Coordinates from ORCA-job B6_linear_chain_d3.50_q0_m1_R2SCAN-3C E -148.353203495583
  B      -4.377430      0.014259     -0.040346
  B      -2.825718     -0.021480      0.060335
  B      -1.306222      0.002735     -0.007131
  B       1.254693      0.000795     -0.002296
  B       2.844357      0.008853     -0.024757
  B       4.410320     -0.005162      0.014194
6
Coordinates from ORCA-job B6_linear_chain_d3.50_q0_m1_R2SCAN-3C E -148.376515788112
  B      -4.298384      0.015988     -0.045263
  B      -2.744159     -0.023702      0.066597
  B      -1.225935      0.002723     -0.007033
  B       1.176224      0.000408     -0.001213
  B       2.761692      0.010581     -0.029549
  B       4.330563     -0.005998      0.016461
6
Coordinates from ORCA-job B6_linear_chain_d3.50_q0_m1_R2SCAN-3C E -148.402601330629
  B      -4.221423      0.017841     -0.050526
  B      -2.663388     -0.026015      0.073117
  B      -1.145739      0.002622     -0.006693
  B       1.097663     -0.000031      0.000018
  B       2.679840      0.012520     -0.034928
  B       4.253047     -0.006937      0.019013
6
Coordinates from ORCA-job B6_linear_chain_d3.50_q0_m1_R2SCAN-3C E -148.430746049371
  B      -4.146721      0.019850     -0.056213
  B      -2.583435     -0.028460      0.079996
  B      -1.065702      0.002420     -0.006093
  B       1.018943     -0.000511      0.001368
  B       2.598830      0.014682     -0.040921
  B       4.178086     -0.007982      0.021862
6
Coordinates from ORCA-job B6_linear_chain_d3.50_q0_m1_R2SCAN-3C E -148.459637182753
  B      -4.074555      0.022087     -0.062517
  B      -2.504325     -0.031108      0.087439
  B      -0.985854      0.002094     -0.005167
  B       0.940035     -0.001041      0.002860
  B       2.518669      0.017114     -0.047653
  B       4.106031     -0.009145      0.025038
6
Coordinates from ORCA-job B6_linear_chain_d3.50_q0_m1_R2SCAN-3C E -148.488172476424
  B      -4.022514      0.026366     -0.074593
  B      -2.419178     -0.037527      0.105442
  B      -0.885417      0.002037     -0.004997
  B       0.881710     -0.001458      0.004075
  B       2.412480      0.024140     -0.067094
  B       4.032919     -0.013559      0.037167
6
Coordinates from ORCA-job B6_linear_chain_d3.50_q0_m1_R2SCAN-3C E -148.503584361202
  B      -3.940424      0.031536     -0.089020
  B      -2.350432     -0.041414      0.116374
  B      -0.837985     -0.000437      0.001799
  B       0.770377     -0.004388      0.012251
  B       2.376266      0.027711     -0.076972
  B       3.982198     -0.013008      0.035568
6
Coordinates from ORCA-job B6_linear_chain_d3.50_q0_m1_R2SCAN-3C E -148.505691205559
  B      -3.899520      0.039543     -0.111779
  B      -2.260857     -0.053448      0.150353
  B      -0.713297     -0.000964      0.003309
  B       0.736828     -0.004495      0.012667
  B       2.237613      0.041116     -0.114152
  B       3.899233     -0.021752      0.059602
6
Coordinates from ORCA-job B6_linear_chain_d3.50_q0_m1_R2SCAN-3C E -148.510567071467
  B      -3.936806      0.041081     -0.116269
  B      -2.308774     -0.053702      0.151272
  B      -0.774617     -0.002746      0.008423
  B       0.773668     -0.006362      0.017835
  B       2.300094      0.041550     -0.115520
  B       3.946435     -0.019821      0.054260
6
Coordinates from ORCA-job B6_linear_chain_d3.50_q0_m1_R2SCAN-3C E -148.511085483530
  B      -3.924692      0.046027     -0.130695
  B      -2.303962     -0.058484      0.165254
  B      -0.772041     -0.005135      0.015357
  B       0.761946     -0.008304      0.023335
  B       2.298616      0.046955     -0.130848
  B       3.940134     -0.021059      0.057597
6
Coordinates from ORCA-job B6_linear_chain_d3.50_q0_m1_R2SCAN-3C E -148.511579829558
  B      -3.912257      0.053003     -0.151251
  B      -2.299254     -0.065851      0.186905
  B      -0.767239     -0.008399      0.024950
  B       0.760410     -0.010185      0.028776
  B       2.290252      0.055322     -0.154693
  B       3.928089     -0.023891      0.065313
6
Coordinates from ORCA-job B6_linear_chain_d3.50_q0_m1_R2SCAN-3C E -148.512468458974
  B      -3.875237      0.071126     -0.205682
  B      -2.294029     -0.085296      0.245027
  B      -0.763063     -0.017515      0.052183
  B       0.760539     -0.014033      0.040266
  B       2.275697      0.077635     -0.219019
  B       3.896093     -0.031918      0.087224
6
Coordinates from ORCA-job B6_linear_chain_d3.50_q0_m1_R2SCAN-3C E -148.512936696823
  B      -3.827811      0.088348     -0.259519
  B      -2.291581     -0.104481      0.304485
  B      -0.764051     -0.027170      0.081948
  B       0.762802     -0.015588      0.045621
  B       2.263605      0.100094     -0.285034
  B       3.857036     -0.041204      0.112500
6
Coordinates from ORCA-job B6_linear_chain_d3.50_q0_m1_R2SCAN-3C E -148.513080953995
  B      -3.797234      0.096995     -0.287737
  B      -2.292624     -0.115080      0.338633
  B      -0.767037     -0.033334      0.101124
  B       0.764500     -0.013314      0.039573
  B       2.259947      0.112758     -0.322708
  B       3.832447     -0.048024      0.131114
6
Coordinates from ORCA-job B6_linear_chain_d3.50_q0_m1_R2SCAN-3C E -148.513163880308
  B      -3.784297      0.099892     -0.297293
  B      -2.293131     -0.119600      0.353438
  B      -0.769002     -0.036734      0.111178
  B       0.764251     -0.009146      0.027416
  B       2.260299      0.118006     -0.338183
  B       3.821880     -0.052418      0.143444
6
Coordinates from ORCA-job B6_linear_chain_d3.50_q0_m1_R2SCAN-3C E -148.513264552837
  B      -3.769336      0.102492     -0.305942
  B      -2.293392     -0.124979      0.371271
  B      -0.769857     -0.041273      0.124170
  B       0.762520     -0.001134      0.003670
  B       2.261554      0.123972     -0.355655
  B       3.808511     -0.059079      0.162487
6
Coordinates from ORCA-job B6_linear_chain_d3.50_q0_m1_R2SCAN-3C E -148.513308558408
  B      -3.759472      0.103561     -0.309617
  B      -2.291569     -0.128377      0.382756
  B      -0.768820     -0.044237      0.132365
  B       0.759855      0.005783     -0.017008
  B       2.261562      0.127474     -0.365753
  B       3.798443     -0.064204      0.177257
6
Coordinates from ORCA-job B6_linear_chain_d3.50_q0_m1_R2SCAN-3C E -148.513316644479
  B      -3.755434      0.103688     -0.310239
  B      -2.290348     -0.129785      0.387643
  B      -0.767277     -0.045102      0.134545
  B       0.758333      0.008999     -0.026659
  B       2.260994      0.128824     -0.369429
  B       3.793732     -0.066625      0.184141
6
Coordinates from ORCA-job B6_linear_chain_d3.50_q0_m1_R2SCAN-3C E -148.513318459057
  B      -3.755056      0.103437     -0.309639
  B      -2.289584     -0.129884      0.388156
  B      -0.766964     -0.044780      0.133440
  B       0.757967      0.009348     -0.027690
  B       2.260565      0.128894     -0.369316
  B       3.793072     -0.067015      0.185050
6
Coordinates from ORCA-job B6_linear_chain_d3.50_q0_m1_R2SCAN-3C E -148.513320868025
  B      -3.754607      0.102982     -0.308655
  B      -2.289115     -0.130024      0.389043
  B      -0.766834     -0.044189      0.131458
  B       0.757747      0.009787     -0.028965
  B       2.260435      0.129093     -0.369308
  B       3.792374     -0.067649      0.186427
6
Coordinates from ORCA-job B6_linear_chain_d3.50_q0_m1_R2SCAN-3C E -148.513326082392
  B      -3.754217      0.101574     -0.305455
  B      -2.288075     -0.130225      0.390898
  B      -0.767065     -0.042570      0.126016
  B       0.757299      0.011068     -0.032714
  B       2.260742      0.129506     -0.368849
  B       3.791316     -0.069353      0.190104
6
Coordinates from ORCA-job B6_linear_chain_d3.50_q0_m1_R2SCAN-3C E -148.513332802020
  B      -3.753995      0.098686     -0.298745
  B      -2.286437     -0.130555      0.394308
  B      -0.767875     -0.039583      0.115912
  B       0.756582      0.013996     -0.041359
  B       2.262136      0.130359     -0.368134
  B       3.789589     -0.072903      0.198018
6
Coordinates from ORCA-job B6_linear_chain_d3.50_q0_m1_R2SCAN-3C E -148.513336166418
  B      -3.755092      0.095685     -0.291871
  B      -2.285165     -0.130387      0.396309
  B      -0.768829     -0.036952      0.107074
  B       0.756172      0.016784     -0.049672
  B       2.264115      0.131108     -0.367072
  B       3.788800     -0.076237      0.205231
6
Coordinates from ORCA-job B6_linear_chain_d3.50_q0_m1_R2SCAN-3C E -148.513337653663
  B      -3.756857      0.093753     -0.287647
  B      -2.284671     -0.129829      0.396302
  B      -0.769237     -0.035688      0.102980
  B       0.756263      0.018305     -0.054287
  B       2.265667      0.131621     -0.366514
  B       3.788835     -0.078163      0.209167
6
Coordinates from ORCA-job B6_linear_chain_d3.50_q0_m1_R2SCAN-3C E -148.513338938392
  B      -3.758586      0.092581     -0.285283
  B      -2.284428     -0.129137      0.395269
  B      -0.769114     -0.035202      0.101664
  B       0.756645      0.018906     -0.056140
  B       2.266626      0.132029     -0.366555
  B       3.788857     -0.079176      0.211044
6
Coordinates from ORCA-job B6_linear_chain_d3.50_q0_m1_R2SCAN-3C E -148.513341814298
  B      -3.762590      0.089609     -0.279671
  B      -2.283539     -0.127262      0.392553
  B      -0.768422     -0.033968      0.098499
  B       0.757677      0.020107     -0.059790
  B       2.268578      0.133248     -0.367042
  B       3.788296     -0.081732      0.215451
6
Coordinates from ORCA-job B6_linear_chain_d3.50_q0_m1_R2SCAN-3C E -148.513346658286
  B      -3.769010      0.083235     -0.268448
  B      -2.281107     -0.123545      0.388472
  B      -0.766794     -0.031136      0.091130
  B       0.759579      0.022774     -0.067729
  B       2.271962      0.136376     -0.368976
  B       3.785369     -0.087705      0.225551
6
Coordinates from ORCA-job B6_linear_chain_d3.50_q0_m1_R2SCAN-3C E -148.513353328327
  B      -3.778966      0.070982     -0.248175
  B      -2.276032     -0.116453      0.381941
  B      -0.763429     -0.025575      0.076894
  B       0.763064      0.027669     -0.081863
  B       2.277516      0.142789     -0.373376
  B       3.777847     -0.099411      0.244578
6
Coordinates from ORCA-job B6_linear_chain_d3.50_q0_m1_R2SCAN-3C E -148.513357787853
  B      -3.786304      0.058138     -0.228889
  B      -2.270386     -0.109121      0.377151
  B      -0.759911     -0.019670      0.062051
  B       0.766321      0.032726     -0.095713
  B       2.282277      0.149930     -0.378414
  B       3.768004     -0.112003      0.263814
6
Coordinates from ORCA-job B6_linear_chain_d3.50_q0_m1_R2SCAN-3C E -148.513360938186
  B      -3.789440      0.047552     -0.215910
  B      -2.265729     -0.103082      0.375587
  B      -0.757251     -0.014955      0.050719
  B       0.768509      0.036909     -0.105892
  B       2.285198      0.156318     -0.382602
  B       3.758714     -0.122742      0.278098
6
Coordinates from ORCA-job B6_linear_chain_d3.50_q0_m1_R2SCAN-3C E -148.513365008756
  B      -3.790968      0.037020     -0.206178
  B      -2.261785     -0.096744      0.375363
  B      -0.755159     -0.010675      0.041333
  B       0.770198      0.040965     -0.114128
  B       2.287429      0.162796     -0.385630
  B       3.750285     -0.133362      0.289240
6
Coordinates from ORCA-job B6_linear_chain_d3.50_q0_m1_R2SCAN-3C E -148.513380848940
  B      -3.793874      0.004714     -0.180961
  B      -2.251315     -0.076141      0.374675
  B      -0.749729      0.001537      0.016625
  B       0.774787      0.052706     -0.135414
  B       2.293563      0.182030     -0.391818
  B       3.726568     -0.164847      0.316893
6
Coordinates from ORCA-job B6_linear_chain_d3.50_q0_m1_R2SCAN-3C E -148.513426845260
  B      -3.789950     -0.044837     -0.154979
  B      -2.237785     -0.042468      0.377039
  B      -0.743019      0.018262     -0.012244
  B       0.780270      0.069388     -0.158955
  B       2.300076      0.211714     -0.396994
  B       3.690409     -0.212058      0.346132
6
Coordinates from ORCA-job B6_linear_chain_d3.50_q0_m1_R2SCAN-3C E -148.513514812498
  B      -3.771517     -0.089551     -0.161841
  B      -2.231202     -0.009142      0.389792
  B      -0.740318      0.029093     -0.019326
  B       0.781316      0.082629     -0.159024
  B       2.298463      0.242060     -0.393594
  B       3.663259     -0.255089      0.343993
6
Coordinates from ORCA-job B6_linear_chain_d3.50_q0_m1_R2SCAN-3C E -148.513586498030
  B      -3.736948     -0.067509     -0.264089
  B      -2.256044     -0.016925      0.421568
  B      -0.753436      0.008566      0.051297
  B       0.767232      0.070987     -0.086123
  B       2.273291      0.241811     -0.368209
  B       3.705904     -0.236931      0.245556
6
Coordinates from ORCA-job B6_linear_chain_d3.50_q0_m1_R2SCAN-3C E -148.513692583639
  B      -3.733928     -0.119326     -0.241960
  B      -2.247142      0.019932      0.418666
  B      -0.750424      0.025435      0.026117
  B       0.770737      0.087224     -0.103751
  B       2.280153      0.270608     -0.359111
  B       3.680604     -0.283873      0.260039
6
Coordinates from ORCA-job B6_linear_chain_d3.50_q0_m1_R2SCAN-3C E -148.513872879539
  B      -3.753892     -0.145513     -0.235685
  B      -2.258020      0.040760      0.406487
  B      -0.761698      0.035687      0.024512
  B       0.767337      0.093574     -0.114256
  B       2.290783      0.275471     -0.319625
  B       3.715489     -0.299980      0.238567
6
Coordinates from ORCA-job B6_linear_chain_d3.50_q0_m1_R2SCAN-3C E -148.513994076144
  B      -3.725329     -0.185139     -0.259836
  B      -2.261092      0.073902      0.413538
  B      -0.761453      0.040998      0.038193
  B       0.766847      0.102070     -0.097739
  B       2.286274      0.304769     -0.302932
  B       3.694753     -0.336599      0.208776
6
Coordinates from ORCA-job B6_linear_chain_d3.50_q0_m1_R2SCAN-3C E -148.514081609956
  B      -3.688514     -0.202988     -0.322800
  B      -2.277444      0.097711      0.417332
  B      -0.764873      0.033557      0.093528
  B       0.763419      0.096357     -0.044454
  B       2.273698      0.324304     -0.275235
  B       3.693714     -0.348941      0.131628
6
Coordinates from ORCA-job B6_linear_chain_d3.50_q0_m1_R2SCAN-3C E -148.514079861928
  B      -3.682156     -0.244953     -0.301935
  B      -2.271245      0.127942      0.409082
  B      -0.763492      0.048564      0.076776
  B       0.767379      0.107350     -0.060173
  B       2.281292      0.346287     -0.269171
  B       3.668222     -0.385190      0.145421
6
Coordinates from ORCA-job B6_linear_chain_d3.50_q0_m1_R2SCAN-3C E -148.514099471869
  B      -3.689527     -0.220115     -0.318790
  B      -2.277593      0.111089      0.409368
  B      -0.764834      0.040536      0.096220
  B       0.765921      0.097645     -0.044370
  B       2.277536      0.331548     -0.272651
  B       3.688496     -0.360703      0.130224
6
Coordinates from ORCA-job B6_linear_chain_d3.50_q0_m1_R2SCAN-3C E -148.514102644313
  B      -3.693736     -0.215179     -0.319315
  B      -2.278676      0.106878      0.407638
  B      -0.764889      0.040927      0.098842
  B       0.766011      0.095770     -0.042235
  B       2.277451      0.326361     -0.274848
  B       3.693839     -0.354756      0.129917
6
Coordinates from ORCA-job B6_linear_chain_d3.50_q0_m1_R2SCAN-3C E -148.514107545344
  B      -3.697723     -0.217403     -0.315292
  B      -2.278700      0.106365      0.404345
  B      -0.764305      0.046166      0.098210
  B       0.766798      0.096614     -0.043360
  B       2.278655      0.322526     -0.278185
  B       3.695275     -0.354267      0.134282
6
Coordinates from ORCA-job B6_linear_chain_d3.50_q0_m1_R2SCAN-3C E -148.514117770648
  B      -3.699029     -0.233443     -0.308092
  B      -2.278267      0.112381      0.399226
  B      -0.763194      0.061737      0.095960
  B       0.768170      0.102993     -0.046546
  B       2.281235      0.319871     -0.282740
  B       3.691085     -0.363539      0.142193
6
Coordinates from ORCA-job B6_linear_chain_d3.50_q0_m1_R2SCAN-3C E -148.514131298749
  B      -3.690190     -0.263168     -0.305197
  B      -2.278344      0.124625      0.397993
  B      -0.762943      0.086027      0.094791
  B       0.768372      0.116535     -0.049849
  B       2.283377      0.320387     -0.285595
  B       3.679729     -0.384404      0.147856
6
Coordinates from ORCA-job B6_linear_chain_d3.50_q0_m1_R2SCAN-3C E -148.514145724561
  B      -3.664932     -0.305755     -0.315119
  B      -2.280680      0.143089      0.403085
  B      -0.764558      0.116708      0.100566
  B       0.766496      0.137408     -0.046934
  B       2.283200      0.325865     -0.284103
  B       3.660475     -0.417315      0.142505
6
Coordinates from ORCA-job B6_linear_chain_d3.50_q0_m1_R2SCAN-3C E -148.514156776109
  B      -3.633465     -0.334827     -0.337310
  B      -2.284615      0.153789      0.416011
  B      -0.767884      0.136326      0.112801
  B       0.762702      0.155664     -0.038784
  B       2.279953      0.332475     -0.280763
  B       3.643309     -0.443428      0.128045
6
Coordinates from ORCA-job B6_linear_chain_d3.50_q0_m1_R2SCAN-3C E -148.514166266338
  B      -3.598312     -0.350177     -0.368684
  B      -2.289550      0.156411      0.434999
  B      -0.772412      0.145304      0.130319
  B       0.757870      0.170811     -0.026414
  B       2.274460      0.339925     -0.277669
  B       3.627945     -0.462275      0.107449
6
Coordinates from ORCA-job B6_linear_chain_d3.50_q0_m1_R2SCAN-3C E -148.514174844440
  B      -3.556755     -0.361160     -0.403260
  B      -2.294238      0.155136      0.458189
  B      -0.777380      0.151049      0.149793
  B       0.752772      0.186366     -0.014606
  B       2.268108      0.349431     -0.278612
  B       3.607493     -0.480821      0.088496
6
Coordinates from ORCA-job B6_linear_chain_d3.50_q0_m1_R2SCAN-3C E -148.514208181885
  B      -3.478966     -0.384295     -0.454504
  B      -2.300725      0.154393      0.495222
  B      -0.784958      0.164494      0.179031
  B       0.744883      0.214370     -0.000175
  B       2.257970      0.368037     -0.285087
  B       3.561795     -0.517000      0.065513
6
Coordinates from ORCA-job B6_linear_chain_d3.50_q0_m1_R2SCAN-3C E -148.514325058611
  B      -3.397002     -0.404147     -0.500750
  B      -2.307224      0.151684      0.529649
  B      -0.793040      0.176740      0.204829
  B       0.736273      0.239985      0.012580
  B       2.247022      0.386226     -0.290566
  B       3.513972     -0.550488      0.044258
6
Coordinates from ORCA-job B6_linear_chain_d3.50_q0_m1_R2SCAN-3C E -148.514597235953
  B      -3.312148     -0.415300     -0.543079
  B      -2.313857      0.144657      0.563084
  B      -0.802344      0.183505      0.227204
  B       0.726503      0.260787      0.024028
  B       2.234797      0.403981     -0.294539
  B       3.467048     -0.577629      0.023302
6
Coordinates from ORCA-job B6_linear_chain_d3.50_q0_m1_R2SCAN-3C E -148.515142654734
  B      -3.225918     -0.414388     -0.581446
  B      -2.320202      0.132039      0.597173
  B      -0.812844      0.181778      0.246102
  B       0.715465      0.275099      0.032835
  B       2.221105      0.421585     -0.298594
  B       3.422394     -0.596112      0.003930
6
Coordinates from ORCA-job B6_linear_chain_d3.50_q0_m1_R2SCAN-3C E -148.516121888987
  B      -3.136181     -0.400829     -0.617842
  B      -2.327494      0.113378      0.631630
  B      -0.825142      0.171535      0.264612
  B       0.702501      0.282471      0.041450
  B       2.204642      0.438458     -0.303110
  B       3.381674     -0.605013     -0.016741
6
Coordinates from ORCA-job B6_linear_chain_d3.50_q0_m1_R2SCAN-3C E -148.517723577215
  B      -3.043466     -0.377299     -0.648983
  B      -2.335332      0.090134      0.665532
  B      -0.839248      0.154665      0.280370
  B       0.687752      0.284101      0.047768
  B       2.186036      0.454515     -0.308351
  B       3.344257     -0.606116     -0.036338
6
Coordinates from ORCA-job B6_linear_chain_d3.50_q0_m1_R2SCAN-3C E -148.520192230618
  B      -2.947208     -0.345735     -0.673993
  B      -2.343952      0.063088      0.697973
  B      -0.855236      0.132677      0.293457
  B       0.671257      0.281045      0.051905
  B       2.165308      0.469614     -0.314444
  B       3.309831     -0.600689     -0.054898
6
Coordinates from ORCA-job B6_linear_chain_d3.50_q0_m1_R2SCAN-3C E -148.523774922457
  B      -2.847479     -0.307735     -0.691914
  B      -2.353468      0.032896      0.728176
  B      -0.873019      0.106673      0.303634
  B       0.653256      0.274246      0.053815
  B       2.142720      0.483780     -0.321408
  B       3.277990     -0.589860     -0.072303
6
Coordinates from ORCA-job B6_linear_chain_d3.50_q0_m1_R2SCAN-3C E -148.528641841321
  B      -2.744828     -0.265266     -0.701796
  B      -2.364003      0.000234      0.755305
  B      -0.892312      0.078111      0.310460
  B       0.634265      0.264982      0.053464
  B       2.118879      0.497118     -0.329059
  B       3.247998     -0.575179     -0.088375
6
Coordinates from ORCA-job B6_linear_chain_d3.50_q0_m1_R2SCAN-3C E -148.534828018430
  B      -2.640319     -0.220402     -0.703196
  B      -2.375792     -0.034416      0.778895
  B      -0.912588      0.048644      0.313504
  B       0.615123      0.254781      0.050903
  B       2.094734      0.509898     -0.337136
  B       3.218841     -0.558505     -0.102969
6
Coordinates from ORCA-job B6_linear_chain_d3.50_q0_m1_R2SCAN-3C E -148.548220784070
  B      -2.249603      0.096777     -0.537862
  B      -2.425975     -0.184064      0.838718
  B      -0.999809     -0.085229      0.293206
  B       0.563259      0.183594      0.006048
  B       2.022353      0.510637     -0.401043
  B       3.089774     -0.521716     -0.199067
6
Coordinates from ORCA-job B6_linear_chain_d3.50_q0_m1_R2SCAN-3C E -148.474194617805
  B      -2.751246     -0.189810     -0.880796
  B      -2.539864     -0.046024      1.055195
  B      -0.855827     -0.034597      0.287490
  B       0.724835      0.200110     -0.007216
  B       2.150270      0.571361     -0.375023
  B       3.271831     -0.501040     -0.079650
6
Coordinates from ORCA-job B6_linear_chain_d3.50_q0_m1_R2SCAN-3C E -148.487027878186
  B      -2.652597     -0.189390     -0.860357
  B      -2.523846     -0.051132      1.051525
  B      -0.872291     -0.032422      0.283394
  B       0.695760      0.209132     -0.013899
  B       2.128312      0.579225     -0.379778
  B       3.224663     -0.515413     -0.080886
6
Coordinates from ORCA-job B6_linear_chain_d3.50_q0_m1_R2SCAN-3C E -148.500464726222
  B      -2.547920     -0.189088     -0.836732
  B      -2.510931     -0.056693      1.048166
  B      -0.889999     -0.030708      0.277360
  B       0.668361      0.219171     -0.022157
  B       2.106770      0.588023     -0.384447
  B       3.173719     -0.530706     -0.082190
6
Coordinates from ORCA-job B6_linear_chain_d3.50_q0_m1_R2SCAN-3C E -148.521042734760
  B      -2.389159     -0.189706     -0.795123
  B      -2.493541     -0.069252      1.042439
  B      -0.915892     -0.027663      0.264797
  B       0.632588      0.240064     -0.039147
  B       2.079411      0.604997     -0.392482
  B       3.086591     -0.558440     -0.080485
6
Coordinates from ORCA-job B6_linear_chain_d3.50_q0_m1_R2SCAN-3C E -148.539111461961
  B      -2.151742     -0.185534     -0.714576
  B      -2.483704     -0.079640      1.023311
  B      -0.953659     -0.030161      0.236895
  B       0.584832      0.255464     -0.061012
  B       2.038875      0.625167     -0.400424
  B       2.965398     -0.585296     -0.084195
6
Coordinates from ORCA-job B6_linear_chain_d3.50_q0_m1_R2SCAN-3C E -148.560154957976
  B      -2.310291     -0.157502     -0.649161
  B      -2.433858     -0.060901      0.962679
  B      -0.915165     -0.069447      0.187366
  B       0.623059      0.190943     -0.050935
  B       2.067740      0.637830     -0.393401
  B       2.968514     -0.540923     -0.056547
6
Coordinates from ORCA-job B6_linear_chain_d3.50_q0_m1_R2SCAN-3C E -148.576752215031
  B      -2.310457     -0.134024     -0.571823
  B      -2.364383     -0.073230      0.914239
  B      -0.886903     -0.108239      0.144399
  B       0.668254      0.165823     -0.062151
  B       2.081874      0.699886     -0.423027
  B       2.811614     -0.550216     -0.001638
6
Coordinates from ORCA-job B6_linear_chain_d3.50_q0_m1_R2SCAN-3C E -148.599733240765
  B      -2.318330     -0.155032     -0.512281
  B      -2.238191     -0.079126      0.870798
  B      -0.848069     -0.139420      0.102713
  B       0.760018      0.162441     -0.070882
  B       2.135545      0.773627     -0.429609
  B       2.509026     -0.562490      0.039260
6
Coordinates from ORCA-job B6_linear_chain_d3.50_q0_m1_R2SCAN-3C E -148.580553155698
  B      -2.344523     -0.165838     -0.440866
  B      -2.094287     -0.061683      0.813727
  B      -0.835332     -0.197290      0.046776
  B       0.861276      0.124128     -0.063921
  B       2.188980      0.831381     -0.421345
  B       2.223886     -0.530698      0.065630
6
Coordinates from ORCA-job B6_linear_chain_d3.50_q0_m1_R2SCAN-3C E -148.626220693859
  B      -2.251608     -0.251841     -0.542813
  B      -2.190661     -0.033130      0.881496
  B      -0.794612     -0.121662      0.128641
  B       0.822339      0.175920     -0.039114
  B       2.182113      0.838272     -0.410111
  B       2.232429     -0.607558     -0.018098
6
Coordinates from ORCA-job B6_linear_chain_d3.50_q0_m1_R2SCAN-3C E -148.625492525035
  B      -2.186741     -0.277429     -0.579133
  B      -2.210520     -0.012756      0.891835
  B      -0.818281     -0.079263      0.169284
  B       0.799775      0.119144     -0.005552
  B       2.178748      0.812628     -0.403084
  B       2.237019     -0.562325     -0.073350
6
Coordinates from ORCA-job B6_linear_chain_d3.50_q0_m1_R2SCAN-3C E -148.619584837625
  B      -2.093138     -0.318850     -0.586093
  B      -2.255466      0.045352      0.879746
  B      -0.758168     -0.078172      0.195452
  B       0.811206      0.048802      0.046405
  B       2.162776      0.910969     -0.402588
  B       2.132790     -0.608102     -0.132922
6
Coordinates from ORCA-job B6_linear_chain_d3.50_q0_m1_R2SCAN-3C E -148.618395923222
  B      -2.308866     -0.444761     -0.540933
  B      -2.232556      0.129051      0.860190
  B      -0.851050     -0.014782      0.138691
  B       0.843053      0.073744      0.024746
  B       2.179174      0.930978     -0.267153
  B       2.370245     -0.674230     -0.215541
6
Coordinates from ORCA-job B6_linear_chain_d3.50_q0_m1_R2SCAN-3C E -148.630316035399
  B      -2.261983     -0.335060     -0.544780
  B      -2.207674      0.043774      0.898002
  B      -0.820077     -0.058200      0.110221
  B       0.811770      0.084697     -0.018468
  B       2.170111      0.874049     -0.339189
  B       2.307854     -0.609260     -0.105785
6
Coordinates from ORCA-job B6_linear_chain_d3.50_q0_m1_R2SCAN-3C E -148.629565641995
  B      -2.234189     -0.416683     -0.532903
  B      -2.177906      0.074234      0.900945
  B      -0.817107     -0.014107      0.091161
  B       0.830572      0.094034     -0.038689
  B       2.198705      0.869774     -0.273727
  B       2.199924     -0.607253     -0.146787
6
Coordinates from ORCA-job B6_linear_chain_d3.50_q0_m1_R2SCAN-3C E -148.631365670058
  B      -2.263323     -0.347602     -0.529375
  B      -2.183249      0.034744      0.919555
  B      -0.818366     -0.038104      0.077780
  B       0.812672      0.079914     -0.083803
  B       2.185699      0.875622     -0.307448
  B       2.266567     -0.604574     -0.076710
6
Coordinates from ORCA-job B6_linear_chain_d3.50_q0_m1_R2SCAN-3C E -148.631376734586
  B      -2.251594     -0.336624     -0.540171
  B      -2.187414      0.035809      0.907821
  B      -0.813498     -0.045028      0.089593
  B       0.814514      0.072172     -0.034820
  B       2.168093      0.873674     -0.330701
  B       2.269899     -0.600002     -0.091723
6
Coordinates from ORCA-job B6_linear_chain_d3.50_q0_m1_R2SCAN-3C E -148.631271426664
  B      -2.274660     -0.339094     -0.523790
  B      -2.151441      0.068806      0.910190
  B      -0.810794     -0.078451      0.067954
  B       0.815045      0.047826     -0.084218
  B       2.156213      0.887721     -0.288168
  B       2.265637     -0.586808     -0.081969
6
Coordinates from ORCA-job B6_linear_chain_d3.50_q0_m1_R2SCAN-3C E -148.631459507595
  B      -2.269833     -0.339105     -0.529556
  B      -2.171038      0.036220      0.918623
  B      -0.816322     -0.042113      0.070430
  B       0.815472      0.064292     -0.077619
  B       2.172081      0.879515     -0.311748
  B       2.269640     -0.598809     -0.070130
6
Coordinates from ORCA-job B6_linear_chain_d3.50_q0_m1_R2SCAN-3C E -148.631475898165
  B      -2.264068     -0.323805     -0.535350
  B      -2.174002      0.030637      0.916723
  B      -0.814542     -0.050360      0.077703
  B       0.814101      0.059744     -0.065855
  B       2.163906      0.877349     -0.326825
  B       2.274606     -0.593565     -0.066396
6
Coordinates from ORCA-job B6_linear_chain_d3.50_q0_m1_R2SCAN-3C E -148.631483873920
  B      -2.267647     -0.319863     -0.535382
  B      -2.170637      0.026844      0.918444
  B      -0.814626     -0.049829      0.074562
  B       0.814915      0.058057     -0.067797
  B       2.162678      0.877291     -0.329258
  B       2.275316     -0.592500     -0.060570
6
Coordinates from ORCA-job B6_linear_chain_d3.50_q0_m1_R2SCAN-3C E -148.631490207206
  B      -2.270740     -0.308033     -0.537068
  B      -2.166921      0.017616      0.921950
  B      -0.814812     -0.050721      0.071904
  B       0.815140      0.053675     -0.071035
  B       2.159278      0.876687     -0.337926
  B       2.278055     -0.589223     -0.047825
6
Coordinates from ORCA-job B6_linear_chain_d3.50_q0_m1_R2SCAN-3C E -148.631491620459
  B      -2.272062     -0.300594     -0.538509
  B      -2.165851      0.011718      0.923455
  B      -0.814835     -0.052086      0.071292
  B       0.815176      0.052743     -0.070752
  B       2.157783      0.875560     -0.344431
  B       2.279789     -0.587341     -0.041057
6
Coordinates from ORCA-job B6_linear_chain_d3.50_q0_m1_R2SCAN-3C E -148.631491940590
  B      -2.271938     -0.298360     -0.539095
  B      -2.165794      0.010283      0.923930
  B      -0.814935     -0.052946      0.071385
  B       0.815018      0.052373     -0.070460
  B       2.157457      0.875376     -0.346398
  B       2.280191     -0.586725     -0.039362
6
Coordinates from ORCA-job B6_linear_chain_d3.50_q0_m1_R2SCAN-3C E -148.631491986178
  B      -2.272050     -0.298185     -0.539120
  B      -2.165842      0.009978      0.924025
  B      -0.814988     -0.053119      0.071306
  B       0.815031      0.052814     -0.070405
  B       2.157827      0.875250     -0.346683
  B       2.280022     -0.586738     -0.039122
6
Coordinates from ORCA-job B6_linear_chain_d3.50_q0_m1_R2SCAN-3C E -148.631489530574
  B      -2.273277     -0.293076     -0.539995
  B      -2.165944      0.003580      0.925618
  B      -0.815405     -0.054161      0.070507
  B       0.815237      0.056356     -0.070076
  B       2.160537      0.873367     -0.352734
  B       2.278852     -0.586066     -0.033320
6
Coordinates from ORCA-job B6_linear_chain_d3.50_q0_m1_R2SCAN-3C E -148.631491978407
  B      -2.272201     -0.297532     -0.539249
  B      -2.165829      0.009093      0.924233
  B      -0.815059     -0.053147      0.071209
  B       0.815077      0.053233     -0.070342
  B       2.158177      0.875017     -0.347504
  B       2.279835     -0.586663     -0.038347
6
Coordinates from ORCA-job B6_linear_chain_d3.50_q0_m1_R2SCAN-3C E -148.631492000298
  B      -2.272105     -0.298120     -0.539131
  B      -2.165809      0.009754      0.924074
  B      -0.815028     -0.053039      0.071258
  B       0.815057      0.052960     -0.070405
  B       2.157997      0.875201     -0.346840
  B       2.279889     -0.586756     -0.038955
6
Coordinates from ORCA-job B6_linear_chain_d3.50_q0_m1_R2SCAN-3C E -148.631492001145
  B      -2.272104     -0.298231     -0.539107
  B      -2.165808      0.009852      0.924054
  B      -0.815030     -0.053036      0.071250
  B       0.815054      0.052976     -0.070409
  B       2.158019      0.875222     -0.346734
  B       2.279869     -0.586783     -0.039054
