6
Coordinates from ORCA-job B6_linear_chain_d3.50_q0_m1_R2SCAN-3C E -148.631492001145
  B          -2.27210358817742     -0.29823087907385     -0.53910726688330
  B          -2.16580839246252      0.00985248344446      0.92405420405732
  B          -0.81502994137809     -0.05303609846582      0.07125034174285
  B           0.81505380152455      0.05297593046372     -0.07040853644902
  B           2.15801945512864      0.87522167629225     -0.34673448196415
  B           2.27986866536484     -0.58678311266077     -0.03905426050369
