6
Coordinates from ORCA-job B6_octahedral_3d_d1.80_q0_m3_R2SCAN-3C E -148.659390320119
  B       1.272792      0.000000      0.000000
  B      -1.272792      0.000000      0.000000
  B       0.000000      1.272792      0.000000
  B       0.000000     -1.272792      0.000000
  B       0.000000      0.000000      1.272792
  B       0.000000      0.000000     -1.272792
6
Coordinates from ORCA-job B6_octahedral_3d_d1.80_q0_m3_R2SCAN-3C E -148.680151891757
  B       1.240387      0.000000     -0.000000
  B      -1.240387     -0.000000      0.000000
  B      -0.000000      1.240387      0.000000
  B      -0.000000     -1.240387     -0.000000
  B      -0.000000      0.000000      1.240387
  B       0.000000      0.000000     -1.240387
6
Coordinates from ORCA-job B6_octahedral_3d_d1.80_q0_m3_R2SCAN-3C E -148.693016732399
  B       1.207982      0.000000      0.000000
  B      -1.207982     -0.000000     -0.000000
  B      -0.000000      1.207982      0.000000
  B      -0.000000     -1.207982      0.000000
  B       0.000000      0.000000      1.207982
  B      -0.000000     -0.000000     -1.207982
6
Coordinates from ORCA-job B6_octahedral_3d_d1.80_q0_m3_R2SCAN-3C E -148.696241721431
  B       1.179635     -0.000000      0.000000
  B      -1.179635     -0.000000     -0.000000
  B       0.000000      1.179635      0.000000
  B      -0.000000     -1.179635      0.000000
  B       0.000000      0.000000      1.179635
  B      -0.000000      0.000000     -1.179635
6
Coordinates from ORCA-job B6_octahedral_3d_d1.80_q0_m3_R2SCAN-3C E -148.696302942970
  B       1.183230     -0.000000      0.000000
  B      -1.183230     -0.000000     -0.000000
  B      -0.000000      1.183230      0.000000
  B       0.000000     -1.183230      0.000000
  B       0.000000      0.000000      1.183230
  B      -0.000000     -0.000000     -1.183230
6
Coordinates from ORCA-job B6_octahedral_3d_d1.80_q0_m3_R2SCAN-3C E -148.696303342982
  B       1.182964      0.000000      0.000000
  B      -1.182964      0.000000     -0.000000
  B      -0.000000      1.182964      0.000000
  B      -0.000000     -1.182964     -0.000000
  B      -0.000000      0.000000      1.182964
  B      -0.000000     -0.000000     -1.182964
