6
Coordinates from ORCA-job B6_octahedral_3d_d1.80_q0_m3_R2SCAN-3C E -148.696303342982
  B           1.18296390876775      0.00000000018232      0.00000000012473
  B          -1.18296390729091      0.00000000002273     -0.00000000067210
  B          -0.00000000024281      1.18296390976630      0.00000000046529
  B          -0.00000000040240     -1.18296390971049     -0.00000000000586
  B          -0.00000000001740      0.00000000010515      1.18296391055017
  B          -0.00000000081423     -0.00000000036600     -1.18296391046224
