6
Coordinates from ORCA-job B6_planar_ring_d3.00_q0_m5_R2SCAN-3C E -148.634893250021
  B           1.09509247010159      0.00109211998461      0.00000024797565
  B           0.87132769212255      1.59246471783048     -0.00000033364292
  B          -0.68076211660065      1.37210605628172     -0.00000042276081
  B          -1.47254285151646     -0.00095938604851      0.00000128961723
  B          -0.68289708450145     -1.37493213300297     -0.00000058449688
  B           0.86978189039443     -1.58977137504532     -0.00000019669226
