6
Coordinates from ORCA-job B6_planar_ring_d3.00_q0_m5_R2SCAN-3C E -147.929046594234
  B       3.000000     -0.000000      0.000000
  B       1.500000      2.598076      0.000000
  B      -1.500000      2.598076      0.000000
  B      -3.000000      0.000000      0.000000
  B      -1.500000     -2.598076      0.000000
  B       1.500000     -2.598076      0.000000
6
Coordinates from ORCA-job B6_planar_ring_d3.00_q0_m5_R2SCAN-3C E -147.944645850875
  B       2.935188      0.000000      0.000000
  B       1.467591      2.541951     -0.000000
  B      -1.467591      2.541951     -0.000000
  B      -2.935188      0.000000      0.000000
  B      -1.467591     -2.541951     -0.000000
  B       1.467591     -2.541951     -0.000000
6
Coordinates from ORCA-job B6_planar_ring_d3.00_q0_m5_R2SCAN-3C E -147.961118452878
  B       2.870320      0.000000      0.000000
  B       1.435185      2.485858     -0.000000
  B      -1.435185      2.485858     -0.000000
  B      -2.870320     -0.000000      0.000000
  B      -1.435185     -2.485858     -0.000000
  B       1.435185     -2.485858     -0.000000
6
Coordinates from ORCA-job B6_planar_ring_d3.00_q0_m5_R2SCAN-3C E -147.987557603123
  B       2.773117      0.000000      0.000000
  B       1.386584      2.401654     -0.000000
  B      -1.386584      2.401654     -0.000000
  B      -2.773117     -0.000000      0.000000
  B      -1.386584     -2.401654     -0.000000
  B       1.386584     -2.401654     -0.000000
6
Coordinates from ORCA-job B6_planar_ring_d3.00_q0_m5_R2SCAN-3C E -148.031185072159
  B       2.627405      0.000000      0.000000
  B       1.313674      2.275301     -0.000000
  B      -1.313674      2.275301     -0.000000
  B      -2.627405     -0.000000      0.000000
  B      -1.313674     -2.275301     -0.000000
  B       1.313674     -2.275301     -0.000000
6
Coordinates from ORCA-job B6_planar_ring_d3.00_q0_m5_R2SCAN-3C E -148.081253630057
  B       2.476267      0.000000      0.000000
  B       1.238077      2.144276     -0.000000
  B      -1.238077      2.144276     -0.000000
  B      -2.476267     -0.000000      0.000000
  B      -1.238077     -2.144277      0.000000
  B       1.238077     -2.144276     -0.000000
6
Coordinates from ORCA-job B6_planar_ring_d3.00_q0_m5_R2SCAN-3C E -148.134977606932
  B       2.325171      0.000000      0.000000
  B       1.162471      2.013234     -0.000000
  B      -1.162471      2.013234     -0.000000
  B      -2.325171     -0.000000      0.000000
  B      -1.162471     -2.013234     -0.000000
  B       1.162471     -2.013234     -0.000000
6
Coordinates from ORCA-job B6_planar_ring_d3.00_q0_m5_R2SCAN-3C E -148.188518267720
  B       2.174111      0.000000      0.000000
  B       1.086893      1.882154     -0.000000
  B      -1.086893      1.882154     -0.000000
  B      -2.174110     -0.000000      0.000000
  B      -1.086893     -1.882155     -0.000000
  B       1.086893     -1.882154     -0.000000
6
Coordinates from ORCA-job B6_planar_ring_d3.00_q0_m5_R2SCAN-3C E -148.361281921286
  B       2.022756      0.000000      0.000000
  B       1.011283      1.751257     -0.000000
  B      -1.011293      1.751275      0.000000
  B      -2.022735      0.000000      0.000000
  B      -1.011294     -1.751275     -0.000000
  B       1.011283     -1.751257     -0.000000
6
Coordinates from ORCA-job B6_planar_ring_d3.00_q0_m5_R2SCAN-3C E -148.473586301348
  B       1.864435      0.000000      0.000000
  B       0.946606      1.629429     -0.000000
  B      -0.929395      1.599454      0.000001
  B      -1.898856      0.000000     -0.000001
  B      -0.929395     -1.599454      0.000001
  B       0.946606     -1.629430     -0.000000
6
Coordinates from ORCA-job B6_planar_ring_d3.00_q0_m5_R2SCAN-3C E -148.535800475854
  B       1.762476     -0.000001      0.000000
  B       0.895633      1.552355     -0.000000
  B      -0.883019      1.507906      0.000001
  B      -1.787704     -0.000001     -0.000001
  B      -0.883017     -1.507905      0.000001
  B       0.895631     -1.552354     -0.000000
6
Coordinates from ORCA-job B6_planar_ring_d3.00_q0_m5_R2SCAN-3C E -148.606133047563
  B       1.560610      0.000003      0.000001
  B       0.830215      1.460629     -0.000001
  B      -0.819298      1.405538      0.000000
  B      -1.582434     -0.000002      0.000000
  B      -0.819304     -1.405543      0.000000
  B       0.830210     -1.460625     -0.000001
6
Coordinates from ORCA-job B6_planar_ring_d3.00_q0_m5_R2SCAN-3C E -148.620147315562
  B       1.335677      0.000122      0.000001
  B       0.765656      1.470031     -0.000001
  B      -0.724783      1.410461      0.000000
  B      -1.416942     -0.000113      0.000000
  B      -0.725030     -1.410657      0.000000
  B       0.765422     -1.469844     -0.000001
6
Coordinates from ORCA-job B6_planar_ring_d3.00_q0_m5_R2SCAN-3C E -148.625941142776
  B       1.186162      0.000293      0.000001
  B       0.845190      1.508046     -0.000001
  B      -0.746883      1.416146      0.000001
  B      -1.381315     -0.000286     -0.000000
  B      -0.747539     -1.416964      0.000001
  B       0.844386     -1.507235     -0.000001
6
Coordinates from ORCA-job B6_planar_ring_d3.00_q0_m5_R2SCAN-3C E -148.622160144955
  B       1.200470      0.000671      0.000001
  B       0.837423      1.657761     -0.000001
  B      -0.754522      1.404962      0.000000
  B      -1.362961     -0.000880      0.000000
  B      -0.756258     -1.406490      0.000000
  B       0.835847     -1.656024     -0.000001
6
Coordinates from ORCA-job B6_planar_ring_d3.00_q0_m5_R2SCAN-3C E -148.630326219262
  B       1.164597      0.000819      0.000001
  B       0.855745      1.621771     -0.000001
  B      -0.717607      1.447418      0.000000
  B      -1.437062     -0.000554      0.000000
  B      -0.719613     -1.449839      0.000000
  B       0.853941     -1.619616     -0.000001
6
Coordinates from ORCA-job B6_planar_ring_d3.00_q0_m5_R2SCAN-3C E -148.634012388008
  B       1.103382      0.001147      0.000001
  B       0.856807      1.576501     -0.000001
  B      -0.695011      1.407429      0.000000
  B      -1.421863     -0.001227      0.000000
  B      -0.697665     -1.410105      0.000000
  B       0.854350     -1.573744     -0.000001
6
Coordinates from ORCA-job B6_planar_ring_d3.00_q0_m5_R2SCAN-3C E -148.634724108120
  B       1.082409     -0.000816      0.000001
  B       0.869545      1.591287     -0.000000
  B      -0.687659      1.386954     -0.000001
  B      -1.446413      0.003764      0.000002
  B      -0.688107     -1.392106     -0.000001
  B       0.870225     -1.589084     -0.000000
6
Coordinates from ORCA-job B6_planar_ring_d3.00_q0_m5_R2SCAN-3C E -148.631590717112
  B       1.075612      0.025288      0.000001
  B       0.896851      1.609935     -0.000000
  B      -0.659513      1.371519     -0.000001
  B      -1.477942     -0.049614      0.000002
  B      -0.697289     -1.362942     -0.000001
  B       0.862280     -1.594187     -0.000000
6
Coordinates from ORCA-job B6_planar_ring_d3.00_q0_m5_R2SCAN-3C E -148.634860784662
  B       1.090075      0.000994      0.000001
  B       0.875900      1.596441     -0.000000
  B      -0.680768      1.372540     -0.000001
  B      -1.473311     -0.003728      0.000002
  B      -0.679676     -1.375166     -0.000001
  B       0.867781     -1.591082     -0.000000
6
Coordinates from ORCA-job B6_planar_ring_d3.00_q0_m5_R2SCAN-3C E -148.630763809077
  B       1.094899      0.004599      0.000001
  B       0.831320      1.580149     -0.000000
  B      -0.652905      1.371499     -0.000001
  B      -1.468272      0.022251      0.000002
  B      -0.712371     -1.380102     -0.000001
  B       0.907328     -1.598396     -0.000000
6
Coordinates from ORCA-job B6_planar_ring_d3.00_q0_m5_R2SCAN-3C E -148.634858689218
  B       1.094755      0.005654      0.000000
  B       0.871220      1.590471     -0.000000
  B      -0.680781      1.371710     -0.000001
  B      -1.471234      0.001023      0.000002
  B      -0.684661     -1.377346     -0.000001
  B       0.870702     -1.591512     -0.000000
6
Coordinates from ORCA-job B6_planar_ring_d3.00_q0_m5_R2SCAN-3C E -148.631551394374
  B       1.094533     -0.048053      0.000000
  B       0.865180      1.610375     -0.000000
  B      -0.681574      1.385918     -0.000001
  B      -1.473251     -0.014388      0.000002
  B      -0.681188     -1.360361     -0.000001
  B       0.876300     -1.573490     -0.000000
6
Coordinates from ORCA-job B6_planar_ring_d3.00_q0_m5_R2SCAN-3C E -148.634887084499
  B       1.095198     -0.000487      0.000000
  B       0.871116      1.594681     -0.000000
  B      -0.680468      1.372500     -0.000001
  B      -1.472697     -0.001681      0.000001
  B      -0.682608     -1.374582     -0.000001
  B       0.869458     -1.590430     -0.000000
6
Coordinates from ORCA-job B6_planar_ring_d3.00_q0_m5_R2SCAN-3C E -148.634892808844
  B       1.094469      0.001346      0.000000
  B       0.871497      1.592005     -0.000000
  B      -0.680716      1.372069     -0.000001
  B      -1.472093     -0.000849      0.000001
  B      -0.683084     -1.375257     -0.000001
  B       0.869926     -1.589313     -0.000000
6
Coordinates from ORCA-job B6_planar_ring_d3.00_q0_m5_R2SCAN-3C E -148.634893245221
  B       1.095104      0.001136      0.000000
  B       0.871369      1.592507     -0.000000
  B      -0.680711      1.372069     -0.000001
  B      -1.472545     -0.001008      0.000001
  B      -0.682942     -1.375001     -0.000001
  B       0.869724     -1.589702     -0.000000
6
Coordinates from ORCA-job B6_planar_ring_d3.00_q0_m5_R2SCAN-3C E -148.634893250021
  B       1.095092      0.001092      0.000000
  B       0.871328      1.592465     -0.000000
  B      -0.680762      1.372106     -0.000000
  B      -1.472543     -0.000959      0.000001
  B      -0.682897     -1.374932     -0.000001
  B       0.869782     -1.589771     -0.000000
