6
Coordinates from ORCA-job B6_rectangular_planar_d1.60_q0_m5_R2SCAN-3C E -148.558183955643
  B      -1.600000     -0.800000      0.000000
  B       0.000000     -0.800000      0.000000
  B       1.600000     -0.800000      0.000000
  B      -1.600000      0.800000      0.000000
  B       0.000000      0.800000      0.000000
  B       1.600000      0.800000      0.000000
6
Coordinates from ORCA-job B6_rectangular_planar_d1.60_q0_m5_R2SCAN-3C E -148.575590364408
  B      -1.594088     -0.791899      0.000000
  B       0.000000     -0.851457     -0.000000
  B       1.594088     -0.791899      0.000000
  B      -1.594088      0.791899      0.000000
  B      -0.000000      0.851457     -0.000000
  B       1.594088      0.791899      0.000000
6
Coordinates from ORCA-job B6_rectangular_planar_d1.60_q0_m5_R2SCAN-3C E -148.591018604297
  B      -1.579270     -0.777267      0.000000
  B       0.000000     -0.917182     -0.000000
  B       1.579270     -0.777267      0.000000
  B      -1.579270      0.777267      0.000000
  B      -0.000000      0.917182     -0.000000
  B       1.579270      0.777267      0.000000
6
Coordinates from ORCA-job B6_rectangular_planar_d1.60_q0_m5_R2SCAN-3C E -148.598018356415
  B      -1.567895     -0.770571      0.000000
  B       0.000000     -0.962466     -0.000000
  B       1.567895     -0.770571      0.000000
  B      -1.567895      0.770571      0.000000
  B      -0.000000      0.962466     -0.000000
  B       1.567895      0.770571      0.000000
6
Coordinates from ORCA-job B6_rectangular_planar_d1.60_q0_m5_R2SCAN-3C E -148.605493523892
  B      -1.551487     -0.765594      0.000000
  B       0.000000     -1.032479     -0.000001
  B       1.551487     -0.765594      0.000000
  B      -1.551487      0.765594      0.000000
  B      -0.000000      1.032479     -0.000001
  B       1.551487      0.765594      0.000000
6
Coordinates from ORCA-job B6_rectangular_planar_d1.60_q0_m5_R2SCAN-3C E -148.611369456365
  B      -1.530801     -0.761264      0.000003
  B       0.000000     -1.116481     -0.000006
  B       1.530801     -0.761264      0.000003
  B      -1.530801      0.761264      0.000003
  B      -0.000000      1.116481     -0.000006
  B       1.530801      0.761264      0.000003
6
Coordinates from ORCA-job B6_rectangular_planar_d1.60_q0_m5_R2SCAN-3C E -148.614771028086
  B      -1.511026     -0.761531      0.000015
  B       0.000000     -1.200060     -0.000031
  B       1.511027     -0.761531      0.000015
  B      -1.511027      0.761531      0.000015
  B      -0.000000      1.200060     -0.000031
  B       1.511026      0.761531      0.000015
6
Coordinates from ORCA-job B6_rectangular_planar_d1.60_q0_m5_R2SCAN-3C E -148.616168366692
  B      -1.495933     -0.766568      0.000061
  B       0.000000     -1.271946     -0.000122
  B       1.495934     -0.766568      0.000061
  B      -1.495934      0.766568      0.000061
  B      -0.000000      1.271946     -0.000122
  B       1.495933      0.766568      0.000061
6
Coordinates from ORCA-job B6_rectangular_planar_d1.60_q0_m5_R2SCAN-3C E -148.625147486746
  B      -1.494996     -0.769042      0.000271
  B       0.000000     -1.287286     -0.000541
  B       1.494996     -0.769042      0.000271
  B      -1.494996      0.769042      0.000271
  B      -0.000000      1.287285     -0.000541
  B       1.494995      0.769042      0.000271
6
Coordinates from ORCA-job B6_rectangular_planar_d1.60_q0_m5_R2SCAN-3C E -148.625524051916
  B      -1.494204     -0.775461     -0.000374
  B       0.000001     -1.312494      0.000754
  B       1.494204     -0.775461     -0.000374
  B      -1.494208      0.775463     -0.000390
  B       0.000000      1.312492      0.000774
  B       1.494207      0.775461     -0.000390
6
Coordinates from ORCA-job B6_rectangular_planar_d1.60_q0_m5_R2SCAN-3C E -148.625549655392
  B      -1.498274     -0.776822      0.001126
  B       0.000000     -1.307124     -0.002245
  B       1.498275     -0.776824      0.001126
  B      -1.498278      0.776826      0.001109
  B      -0.000001      1.307119     -0.002225
  B       1.498277      0.776825      0.001109
6
Coordinates from ORCA-job B6_rectangular_planar_d1.60_q0_m5_R2SCAN-3C E -148.625547519980
  B      -1.499190     -0.777088     -0.002484
  B       0.000002     -1.305542      0.004976
  B       1.499192     -0.777088     -0.002484
  B      -1.499198      0.777093     -0.002502
  B      -0.000000      1.305536      0.004996
  B       1.499195      0.777089     -0.002502
6
Coordinates from ORCA-job B6_rectangular_planar_d1.60_q0_m5_R2SCAN-3C E -148.625550613944
  B      -1.498805     -0.776974     -0.000044
  B       0.000002     -1.306132      0.000096
  B       1.498808     -0.776975     -0.000044
  B      -1.498814      0.776979     -0.000061
  B      -0.000000      1.306125      0.000116
  B       1.498810      0.776976     -0.000061
6
Coordinates from ORCA-job B6_rectangular_planar_d1.60_q0_m5_R2SCAN-3C E -148.625550613103
  B      -1.498781     -0.776973     -0.000005
  B       0.000003     -1.306142      0.000018
  B       1.498786     -0.776977     -0.000005
  B      -1.498793      0.776982     -0.000022
  B      -0.000002      1.306133      0.000038
  B       1.498787      0.776976     -0.000022
