6
Coordinates from ORCA-job B6_rectangular_planar_d1.60_q0_m5_R2SCAN-3C E -148.625550613103
  B          -1.49878141376204     -0.77697264091590     -0.00000543134029
  B           0.00000289300477     -1.30614245990826      0.00001769216067
  B           1.49878602539612     -0.77697656018850     -0.00000543888549
  B          -1.49879291440153      0.77698197416440     -0.00002220003807
  B          -0.00000202822680      1.30613324137300      0.00003756534391
  B           1.49878743798948      0.77697644547525     -0.00002218724074
