6
Coordinates from ORCA-job B6_trigonal_prism_d1.80_q0_m5_R2SCAN-3C E -148.547370512368
  B       0.900000      0.519615     -0.900000
  B      -0.900000      0.519615     -0.900000
  B      -0.000000     -1.039230     -0.900000
  B       0.900000      0.519615      0.900000
  B      -0.900000      0.519615      0.900000
  B      -0.000000     -1.039230      0.900000
6
Coordinates from ORCA-job B6_trigonal_prism_d1.80_q0_m5_R2SCAN-3C E -148.567263916665
  B       0.890043      0.494287     -0.884665
  B      -0.890043      0.494287     -0.884665
  B      -0.000000     -0.988574     -0.905345
  B       0.890043      0.494287      0.884665
  B      -0.890043      0.494287      0.884665
  B      -0.000000     -0.988574      0.905345
6
Coordinates from ORCA-job B6_trigonal_prism_d1.80_q0_m5_R2SCAN-3C E -148.580256274366
  B       0.880453      0.469007     -0.871321
  B      -0.880453      0.469007     -0.871321
  B      -0.000000     -0.938015     -0.916502
  B       0.880453      0.469007      0.871321
  B      -0.880453      0.469007      0.871321
  B      -0.000000     -0.938015      0.916502
6
Coordinates from ORCA-job B6_trigonal_prism_d1.80_q0_m5_R2SCAN-3C E -148.584113892120
  B       0.872234      0.445536     -0.855717
  B      -0.872234      0.445536     -0.855717
  B      -0.000000     -0.891072     -0.938336
  B       0.872234      0.445536      0.855717
  B      -0.872234      0.445536      0.855717
  B       0.000000     -0.891072      0.938336
6
Coordinates from ORCA-job B6_trigonal_prism_d1.80_q0_m5_R2SCAN-3C E -148.584933959238
  B       0.874394      0.449227     -0.853076
  B      -0.874394      0.449227     -0.853076
  B      -0.000000     -0.898454     -0.947862
  B       0.874394      0.449227      0.853076
  B      -0.874394      0.449227      0.853076
  B      -0.000000     -0.898454      0.947862
6
Coordinates from ORCA-job B6_trigonal_prism_d1.80_q0_m5_R2SCAN-3C E -148.586346677586
  B       0.876804      0.452082     -0.841773
  B      -0.876804      0.452082     -0.841773
  B       0.000000     -0.904164     -0.986929
  B       0.876804      0.452082      0.841773
  B      -0.876804      0.452082      0.841773
  B      -0.000000     -0.904164      0.986929
6
Coordinates from ORCA-job B6_trigonal_prism_d1.80_q0_m5_R2SCAN-3C E -148.587262913616
  B       0.875914      0.450655     -0.833837
  B      -0.875914      0.450655     -0.833837
  B       0.000000     -0.901311     -1.030065
  B       0.875914      0.450655      0.833837
  B      -0.875914      0.450655      0.833837
  B      -0.000000     -0.901311      1.030065
6
Coordinates from ORCA-job B6_trigonal_prism_d1.80_q0_m5_R2SCAN-3C E -148.588717845011
  B       0.871582      0.444790     -0.825410
  B      -0.871582      0.444790     -0.825410
  B       0.000000     -0.889579     -1.109495
  B       0.871582      0.444790      0.825410
  B      -0.871582      0.444790      0.825410
  B      -0.000000     -0.889579      1.109495
6
Coordinates from ORCA-job B6_trigonal_prism_d1.80_q0_m5_R2SCAN-3C E -148.590091774484
  B       0.867595      0.438237     -0.822749
  B      -0.867595      0.438237     -0.822749
  B       0.000000     -0.876474     -1.173038
  B       0.867595      0.438237      0.822749
  B      -0.867595      0.438237      0.822749
  B      -0.000000     -0.876474      1.173038
6
Coordinates from ORCA-job B6_trigonal_prism_d1.80_q0_m5_R2SCAN-3C E -148.591314195551
  B       0.865689      0.433534     -0.820052
  B      -0.865689      0.433534     -0.820052
  B       0.000000     -0.867068     -1.214927
  B       0.865689      0.433534      0.820052
  B      -0.865689      0.433534      0.820052
  B      -0.000000     -0.867068      1.214927
6
Coordinates from ORCA-job B6_trigonal_prism_d1.80_q0_m5_R2SCAN-3C E -148.592908217105
  B       0.864132      0.428494     -0.817183
  B      -0.864132      0.428494     -0.817183
  B       0.000000     -0.856987     -1.256577
  B       0.864132      0.428494      0.817183
  B      -0.864132      0.428494      0.817183
  B      -0.000000     -0.856987      1.256577
6
Coordinates from ORCA-job B6_trigonal_prism_d1.80_q0_m5_R2SCAN-3C E -148.596113717643
  B       0.861557      0.420228     -0.812575
  B      -0.861557      0.420227     -0.812575
  B       0.000000     -0.840455     -1.318513
  B       0.861557      0.420227      0.812575
  B      -0.861557      0.420228      0.812575
  B      -0.000000     -0.840455      1.318513
6
Coordinates from ORCA-job B6_trigonal_prism_d1.80_q0_m5_R2SCAN-3C E -148.602097539549
  B       0.857576      0.406517     -0.803776
  B      -0.857576      0.406517     -0.803776
  B       0.000000     -0.813034     -1.399317
  B       0.857576      0.406517      0.803776
  B      -0.857576      0.406517      0.803776
  B      -0.000000     -0.813034      1.399317
6
Coordinates from ORCA-job B6_trigonal_prism_d1.80_q0_m5_R2SCAN-3C E -148.610860230475
  B       0.851856      0.384818     -0.787899
  B      -0.851856      0.384817     -0.787899
  B       0.000000     -0.769635     -1.490646
  B       0.851856      0.384817      0.787899
  B      -0.851856      0.384818      0.787899
  B      -0.000000     -0.769635      1.490646
6
Coordinates from ORCA-job B6_trigonal_prism_d1.80_q0_m5_R2SCAN-3C E -148.619777631339
  B       0.849702      0.369238     -0.791680
  B      -0.849702      0.369238     -0.791680
  B       0.000000     -0.738476     -1.570266
  B       0.849702      0.369238      0.791680
  B      -0.849702      0.369238      0.791680
  B      -0.000000     -0.738476      1.570266
6
Coordinates from ORCA-job B6_trigonal_prism_d1.80_q0_m5_R2SCAN-3C E -148.626687479082
  B       0.853177      0.355295     -0.796320
  B      -0.853176      0.355294     -0.796319
  B       0.000000     -0.710589     -1.629418
  B       0.853176      0.355294      0.796319
  B      -0.853177      0.355295      0.796320
  B      -0.000000     -0.710589      1.629418
6
Coordinates from ORCA-job B6_trigonal_prism_d1.80_q0_m5_R2SCAN-3C E -148.631076416374
  B       0.854544      0.345794     -0.798638
  B      -0.854544      0.345793     -0.798637
  B       0.000000     -0.691587     -1.668417
  B       0.854544      0.345793      0.798637
  B      -0.854544      0.345794      0.798638
  B      -0.000000     -0.691587      1.668417
6
Coordinates from ORCA-job B6_trigonal_prism_d1.80_q0_m5_R2SCAN-3C E -148.637372696704
  B       0.854737      0.330966     -0.801102
  B      -0.854737      0.330966     -0.801101
  B       0.000000     -0.661932     -1.725973
  B       0.854737      0.330966      0.801101
  B      -0.854737      0.330966      0.801102
  B      -0.000000     -0.661932      1.725973
6
Coordinates from ORCA-job B6_trigonal_prism_d1.80_q0_m5_R2SCAN-3C E -148.645963924854
  B       0.856401      0.306829     -0.804153
  B      -0.856401      0.306829     -0.804152
  B       0.000000     -0.613658     -1.805697
  B       0.856400      0.306828      0.804152
  B      -0.856401      0.306829      0.804153
  B      -0.000000     -0.613657      1.805696
6
Coordinates from ORCA-job B6_trigonal_prism_d1.80_q0_m5_R2SCAN-3C E -148.656360632651
  B       0.845931      0.271639     -0.798031
  B      -0.845930      0.271638     -0.798029
  B       0.000000     -0.543279     -1.894333
  B       0.845911      0.271627      0.798045
  B      -0.845913      0.271627      0.798047
  B      -0.000000     -0.543252      1.894302
6
Coordinates from ORCA-job B6_trigonal_prism_d1.80_q0_m5_R2SCAN-3C E -148.666279295102
  B       0.869242      0.224002     -0.796125
  B      -0.869239      0.224001     -0.796122
  B       0.000000     -0.448009     -1.965836
  B       0.869213      0.223989      0.796145
  B      -0.869215      0.223990      0.796147
  B      -0.000000     -0.447974      1.965791
6
Coordinates from ORCA-job B6_trigonal_prism_d1.80_q0_m5_R2SCAN-3C E -148.671856906536
  B       0.847420      0.198001     -0.778829
  B      -0.847417      0.198000     -0.778826
  B       0.000000     -0.396008     -2.018482
  B       0.847425      0.198008      0.778811
  B      -0.847428      0.198009      0.778814
  B      -0.000000     -0.396011      2.018512
6
Coordinates from ORCA-job B6_trigonal_prism_d1.80_q0_m5_R2SCAN-3C E -148.678063222964
  B       0.848256      0.153499     -0.786209
  B      -0.848251      0.153498     -0.786206
  B       0.000000     -0.307002     -2.093702
  B       0.848243      0.153498      0.786206
  B      -0.848248      0.153499      0.786210
  B      -0.000000     -0.306992      2.093701
6
Coordinates from ORCA-job B6_trigonal_prism_d1.80_q0_m5_R2SCAN-3C E -148.682223999623
  B       0.848709      0.111666     -0.786258
  B      -0.848702      0.111665     -0.786253
  B      -0.000000     -0.223336     -2.128536
  B       0.848705      0.111670      0.786240
  B      -0.848712      0.111671      0.786246
  B       0.000000     -0.223335      2.128561
6
Coordinates from ORCA-job B6_trigonal_prism_d1.80_q0_m5_R2SCAN-3C E -148.684931948670
  B       0.852749      0.075699     -0.785296
  B      -0.852740      0.075699     -0.785289
  B      -0.000000     -0.151402     -2.138493
  B       0.852729      0.075700      0.785291
  B      -0.852739      0.075700      0.785298
  B       0.000000     -0.151395      2.138490
6
Coordinates from ORCA-job B6_trigonal_prism_d1.80_q0_m5_R2SCAN-3C E -148.686377946132
  B       0.850311      0.041357     -0.784019
  B      -0.850298      0.041357     -0.784009
  B      -0.000001     -0.082719     -2.149923
  B       0.850291      0.041360      0.784006
  B      -0.850304      0.041359      0.784016
  B       0.000001     -0.082714      2.149929
6
Coordinates from ORCA-job B6_trigonal_prism_d1.80_q0_m5_R2SCAN-3C E -148.686951610128
  B       0.855151      0.015187     -0.784315
  B      -0.855134      0.015189     -0.784302
  B      -0.000001     -0.030382     -2.149447
  B       0.855127      0.015192      0.784300
  B      -0.855145      0.015190      0.784313
  B       0.000001     -0.030377      2.149451
6
Coordinates from ORCA-job B6_trigonal_prism_d1.80_q0_m5_R2SCAN-3C E -148.687034966831
  B       0.852000      0.000618     -0.783213
  B      -0.851979      0.000621     -0.783197
  B      -0.000001     -0.001244     -2.151053
  B       0.851968      0.000623      0.783203
  B      -0.851989      0.000621      0.783218
  B       0.000001     -0.001239      2.151043
6
Coordinates from ORCA-job B6_trigonal_prism_d1.80_q0_m5_R2SCAN-3C E -148.687043587380
  B       0.853702      0.000048     -0.783202
  B      -0.853680      0.000050     -0.783185
  B      -0.000001     -0.000104     -2.148634
  B       0.853673      0.000053      0.783186
  B      -0.853695      0.000051      0.783202
  B       0.000001     -0.000099      2.148633
6
Coordinates from ORCA-job B6_trigonal_prism_d1.80_q0_m5_R2SCAN-3C E -148.687043753805
  B       0.853565      0.000042     -0.783307
  B      -0.853542      0.000044     -0.783290
  B      -0.000001     -0.000091     -2.149051
  B       0.853527      0.000046      0.783299
  B      -0.853551      0.000044      0.783317
  B       0.000001     -0.000086      2.149031
6
Coordinates from ORCA-job B6_trigonal_prism_d1.80_q0_m5_R2SCAN-3C E -148.687043756054
  B       0.853559      0.000005     -0.783303
  B      -0.853534      0.000007     -0.783284
  B      -0.000002     -0.000017     -2.149003
  B       0.853526      0.000009      0.783288
  B      -0.853551      0.000007      0.783306
  B       0.000002     -0.000011      2.148996
