6
Coordinates from ORCA-job B6_trigonal_prism_d1.80_q0_m5_R2SCAN-3C E -148.687043756054
  B           0.85355893741545      0.00000494434919     -0.78330286967852
  B          -0.85353440318904      0.00000665769269     -0.78328437211209
  B          -0.00000151269331     -0.00001659499457     -2.14900288739571
  B           0.85352637185341      0.00000898858253      0.78328788274422
  B          -0.85355091880571      0.00000728803986      0.78330637837479
  B           0.00000152541920     -0.00001128366969      2.14899586806730
