6
Coordinates from ORCA-job B6_octahedral_3d_d3.00_q0_m1_R2SCAN-3C E -147.989131414894
  B       2.121320      0.000000      0.000000
  B      -2.121320      0.000000      0.000000
  B       0.000000      2.121320      0.000000
  B       0.000000     -2.121320      0.000000
  B       0.000000      0.000000      2.121320
  B       0.000000      0.000000     -2.121320
6
Coordinates from ORCA-job B6_octahedral_3d_d3.00_q0_m1_R2SCAN-3C E -148.004942734154
  B       2.090294      0.007707      0.007491
  B      -2.090239     -0.007860     -0.007960
  B       0.007925      2.090101     -0.007564
  B      -0.007642     -2.090198      0.007755
  B       0.007556     -0.007534      2.090383
  B      -0.007895      0.007785     -2.090105
6
Coordinates from ORCA-job B6_octahedral_3d_d3.00_q0_m1_R2SCAN-3C E -148.021633812344
  B       2.059385      0.015727      0.015266
  B      -2.059257     -0.016059     -0.016267
  B       0.016190      2.058973     -0.015429
  B      -0.015595     -2.059185      0.015824
  B       0.015405     -0.015354      2.059584
  B      -0.016128      0.015899     -2.058977
6
Coordinates from ORCA-job B6_octahedral_3d_d3.00_q0_m1_R2SCAN-3C E -148.048454114730
  B       2.013085      0.027905      0.027045
  B      -2.012818     -0.028535     -0.028913
  B       0.028763      2.012321     -0.027368
  B      -0.027677     -2.012726      0.028071
  B       0.027303     -0.027202      2.013471
  B      -0.028655      0.028237     -2.012307
6
Coordinates from ORCA-job B6_octahedral_3d_d3.00_q0_m1_R2SCAN-3C E -148.093034783598
  B       1.943782      0.046451      0.044909
  B      -1.943230     -0.047580     -0.048240
  B       0.047952      1.942427     -0.045532
  B      -0.046081     -1.943173      0.046699
  B       0.045364     -0.045179      1.944501
  B      -0.047788      0.047054     -1.942336
6
Coordinates from ORCA-job B6_octahedral_3d_d3.00_q0_m1_R2SCAN-3C E -148.145184596824
  B       1.872442      0.066625      0.064190
  B      -1.871442     -0.068370     -0.069400
  B       0.068903      1.870311     -0.065244
  B      -0.066096     -1.871515      0.066914
  B       0.064896     -0.064607      1.873604
  B      -0.068704      0.067557     -1.870063
6
Coordinates from ORCA-job B6_octahedral_3d_d3.00_q0_m1_R2SCAN-3C E -148.203391652304
  B       1.801587      0.087280      0.083730
  B      -1.799943     -0.089698     -0.091202
  B       0.090412      1.798495     -0.085358
  B      -0.086573     -1.800277      0.087523
  B       0.084737     -0.084349      1.803296
  B      -0.090219      0.088550     -1.797988
6
Coordinates from ORCA-job B6_octahedral_3d_d3.00_q0_m1_R2SCAN-3C E -148.267034479178
  B       1.731018      0.107620      0.102704
  B      -1.728516     -0.110685     -0.112796
  B       0.111616      1.726784     -0.105064
  B      -0.106704     -1.729268      0.107674
  B       0.104069     -0.103612      1.733383
  B      -0.111483      0.109162     -1.725900
6
Coordinates from ORCA-job B6_octahedral_3d_d3.00_q0_m1_R2SCAN-3C E -148.333731000220
  B       1.660456      0.126713      0.120203
  B      -1.656923     -0.130303     -0.133155
  B       0.131499      1.654958     -0.123421
  B      -0.125546     -1.658239      0.126402
  B       0.121982     -0.121508      1.663557
  B      -0.131469      0.128379     -1.653586
6
Coordinates from ORCA-job B6_octahedral_3d_d3.00_q0_m1_R2SCAN-3C E -148.401592760575
  B       1.589590      0.143452      0.135188
  B      -1.584835     -0.147384     -0.151129
  B       0.148867      1.582743     -0.139421
  B      -0.142020     -1.586914      0.142593
  B       0.137432     -0.137002      1.593493
  B      -0.149033      0.145106     -1.580725
6
Coordinates from ORCA-job B6_octahedral_3d_d3.00_q0_m1_R2SCAN-3C E -148.465644407296
  B       1.518253      0.157354      0.147390
  B      -1.512434     -0.161450     -0.166062
  B       0.163234      1.510237     -0.152570
  B      -0.155641     -1.515177      0.155913
  B       0.150121     -0.149786      1.522902
  B      -0.163533      0.158823     -1.507573
6
Coordinates from ORCA-job B6_octahedral_3d_d3.00_q0_m1_R2SCAN-3C E -148.521136719833
  B       1.445773      0.169453      0.158343
  B      -1.439008     -0.174157     -0.179451
  B       0.175846      1.436840     -0.164780
  B      -0.167802     -1.442341      0.167967
  B       0.161566     -0.161322      1.451181
  B      -0.176374      0.171528     -1.433260
6
Coordinates from ORCA-job B6_octahedral_3d_d3.00_q0_m1_R2SCAN-3C E -148.556924097475
  B       1.370632      0.173944      0.165750
  B      -1.366060     -0.181634     -0.185279
  B       0.181846      1.363642     -0.171714
  B      -0.173544     -1.367288      0.175618
  B       0.168888     -0.167915      1.375452
  B      -0.181761      0.179250     -1.359827
6
Coordinates from ORCA-job B6_octahedral_3d_d3.00_q0_m1_R2SCAN-3C E -148.565111358798
  B       1.311025      0.160086      0.166837
  B      -1.316974     -0.179009     -0.174475
  B       0.173264      1.314396     -0.167941
  B      -0.165085     -1.309367      0.174167
  B       0.168485     -0.163503      1.313155
  B      -0.170714      0.177397     -1.311742
6
Coordinates from ORCA-job B6_octahedral_3d_d3.00_q0_m1_R2SCAN-3C E -148.565693072122
  B       1.304900      0.149236      0.150716
  B      -1.311378     -0.167987     -0.165543
  B       0.165113      1.311001     -0.152403
  B      -0.152672     -1.305000      0.159580
  B       0.154908     -0.149140      1.312140
  B      -0.160871      0.161891     -1.304489
6
Coordinates from ORCA-job B6_octahedral_3d_d3.00_q0_m1_R2SCAN-3C E -148.565743627406
  B       1.299528      0.136437      0.145722
  B      -1.315497     -0.166701     -0.159682
  B       0.158416      1.313976     -0.153581
  B      -0.143695     -1.300461      0.158413
  B       0.152007     -0.146929      1.311458
  B      -0.150759      0.163678     -1.302330
6
Coordinates from ORCA-job B6_octahedral_3d_d3.00_q0_m1_R2SCAN-3C E -148.565898227678
  B       1.293988      0.131399      0.140268
  B      -1.319382     -0.171087     -0.163754
  B       0.162460      1.319024     -0.151038
  B      -0.139801     -1.295131      0.154559
  B       0.152498     -0.144181      1.316615
  B      -0.149761      0.159977     -1.296649
6
Coordinates from ORCA-job B6_octahedral_3d_d3.00_q0_m1_R2SCAN-3C E -148.566383642482
  B       1.281989      0.119840      0.130910
  B      -1.330146     -0.178942     -0.168495
  B       0.167055      1.328778     -0.153624
  B      -0.130869     -1.284422      0.151122
  B       0.154490     -0.144253      1.325891
  B      -0.142519      0.158999     -1.285805
6
Coordinates from ORCA-job B6_octahedral_3d_d3.00_q0_m1_R2SCAN-3C E -148.567911316193
  B       1.261083      0.100524      0.117618
  B      -1.348240     -0.192630     -0.176997
  B       0.174785      1.347621     -0.157287
  B      -0.117416     -1.264415      0.142966
  B       0.160722     -0.144724      1.341351
  B      -0.130934      0.153624     -1.267651
6
Coordinates from ORCA-job B6_octahedral_3d_d3.00_q0_m1_R2SCAN-3C E -148.571015488973
  B       1.238242      0.086921      0.104839
  B      -1.370557     -0.210608     -0.190507
  B       0.188340      1.369204     -0.165844
  B      -0.107796     -1.243287      0.135131
  B       0.172026     -0.150630      1.362608
  B      -0.120256      0.148400     -1.246226
6
Coordinates from ORCA-job B6_octahedral_3d_d3.00_q0_m1_R2SCAN-3C E -148.573899643975
  B       1.224253      0.083165      0.099465
  B      -1.384132     -0.224003     -0.203268
  B       0.200482      1.383851     -0.172290
  B      -0.105769     -1.229726      0.130570
  B       0.182897     -0.156951      1.377791
  B      -0.117732      0.143664     -1.232267
6
Coordinates from ORCA-job B6_octahedral_3d_d3.00_q0_m1_R2SCAN-3C E -148.576031953947
  B       1.214802      0.081387      0.096038
  B      -1.392646     -0.232841     -0.212316
  B       0.208835      1.393119     -0.176886
  B      -0.104778     -1.220646      0.127921
  B       0.190388     -0.161666      1.387909
  B      -0.116601      0.140647     -1.222665
6
Coordinates from ORCA-job B6_octahedral_3d_d3.00_q0_m1_R2SCAN-3C E -148.578266626057
  B       1.205258      0.079111      0.092574
  B      -1.401476     -0.241520     -0.221103
  B       0.216781      1.402489     -0.181713
  B      -0.103420     -1.211519      0.125488
  B       0.197826     -0.166496      1.397856
  B      -0.114969      0.137935     -1.213103
6
Coordinates from ORCA-job B6_octahedral_3d_d3.00_q0_m1_R2SCAN-3C E -148.581732938476
  B       1.190706      0.073932      0.087091
  B      -1.415616     -0.254075     -0.233152
  B       0.227398      1.416953     -0.189316
  B      -0.100200     -1.197710      0.122042
  B       0.208542     -0.173638      1.412281
  B      -0.110830      0.134538     -1.198946
6
Coordinates from ORCA-job B6_octahedral_3d_d3.00_q0_m1_R2SCAN-3C E -148.587044131504
  B       1.168570      0.064584      0.078966
  B      -1.437135     -0.272775     -0.250226
  B       0.242149      1.438800     -0.201196
  B      -0.094729     -1.176710      0.117211
  B       0.224391     -0.184277      1.433026
  B      -0.103247      0.130378     -1.177782
6
Coordinates from ORCA-job B6_octahedral_3d_d3.00_q0_m1_R2SCAN-3C E -148.594622554849
  B       1.136335      0.050793      0.068719
  B      -1.469294     -0.302135     -0.276145
  B       0.264227      1.471918     -0.220762
  B      -0.088346     -1.145600      0.111204
  B       0.249378     -0.201238      1.463511
  B      -0.092300      0.126262     -1.146527
6
Coordinates from ORCA-job B6_octahedral_3d_d3.00_q0_m1_R2SCAN-3C E -148.603139214505
  B       1.114062      0.060507      0.071041
  B      -1.496123     -0.338924     -0.316052
  B       0.298982      1.501526     -0.246290
  B      -0.101009     -1.120060      0.112247
  B       0.285487     -0.227663      1.496779
  B      -0.101398      0.124613     -1.117726
6
Coordinates from ORCA-job B6_octahedral_3d_d3.00_q0_m1_R2SCAN-3C E -148.610620062602
  B       1.093034      0.072649      0.078692
  B      -1.522647     -0.370941     -0.359277
  B       0.332764      1.527627     -0.276938
  B      -0.108567     -1.096506      0.124233
  B       0.321802     -0.261525      1.526527
  B      -0.116387      0.128697     -1.093237
6
Coordinates from ORCA-job B6_octahedral_3d_d3.00_q0_m1_R2SCAN-3C E -148.619594800468
  B       1.062780      0.094115      0.088854
  B      -1.560836     -0.427996     -0.411416
  B       0.384305      1.569624     -0.328534
  B      -0.132248     -1.063054      0.137242
  B       0.372176     -0.314208      1.570319
  B      -0.126178      0.141519     -1.056464
6
Coordinates from ORCA-job B6_octahedral_3d_d3.00_q0_m1_R2SCAN-3C E -148.625690104540
  B       1.037037      0.105838      0.125888
  B      -1.591666     -0.468489     -0.477333
  B       0.426993      1.609255     -0.381155
  B      -0.142802     -1.025919      0.160700
  B       0.432651     -0.368672      1.603149
  B      -0.162213      0.147987     -1.031250
6
Coordinates from ORCA-job B6_octahedral_3d_d3.00_q0_m1_R2SCAN-3C E -148.629876215634
  B       1.006382      0.154084      0.131898
  B      -1.620990     -0.522964     -0.519743
  B       0.478698      1.627082     -0.440138
  B      -0.172297     -1.004762      0.184831
  B       0.473778     -0.433125      1.639358
  B      -0.165570      0.179684     -0.996207
6
Coordinates from ORCA-job B6_octahedral_3d_d3.00_q0_m1_R2SCAN-3C E -148.632035755113
  B       0.981042      0.166390      0.167155
  B      -1.630208     -0.562718     -0.558321
  B       0.514997      1.657674     -0.490165
  B      -0.198508     -0.970575      0.193447
  B       0.519309     -0.478410      1.656680
  B      -0.186632      0.187639     -0.968796
6
Coordinates from ORCA-job B6_octahedral_3d_d3.00_q0_m1_R2SCAN-3C E -148.632833083627
  B       0.954063      0.189616      0.192703
  B      -1.644637     -0.587776     -0.596809
  B       0.543626      1.665650     -0.534392
  B      -0.201592     -0.948287      0.224891
  B       0.552599     -0.526205      1.666542
  B      -0.204059      0.207004     -0.952936
6
Coordinates from ORCA-job B6_octahedral_3d_d3.00_q0_m1_R2SCAN-3C E -148.633145360745
  B       0.941412      0.216003      0.210879
  B      -1.644878     -0.608150     -0.614457
  B       0.567062      1.665282     -0.557570
  B      -0.221317     -0.934015      0.227976
  B       0.575360     -0.551281      1.669802
  B      -0.217639      0.212160     -0.936631
6
Coordinates from ORCA-job B6_octahedral_3d_d3.00_q0_m1_R2SCAN-3C E -148.633233783521
  B       0.931259      0.218234      0.217596
  B      -1.644345     -0.614809     -0.616636
  B       0.571795      1.668570     -0.571342
  B      -0.224110     -0.927994      0.229934
  B       0.580580     -0.562670      1.670546
  B      -0.215179      0.218669     -0.930099
6
Coordinates from ORCA-job B6_octahedral_3d_d3.00_q0_m1_R2SCAN-3C E -148.633250081702
  B       0.927920      0.222372      0.221742
  B      -1.645618     -0.616681     -0.618519
  B       0.575220      1.669328     -0.576421
  B      -0.223526     -0.926111      0.231562
  B       0.582709     -0.568076      1.670264
  B      -0.216705      0.219169     -0.928629
6
Coordinates from ORCA-job B6_octahedral_3d_d3.00_q0_m1_R2SCAN-3C E -148.633267822020
  B       0.923894      0.228226      0.227611
  B      -1.646837     -0.616964     -0.618450
  B       0.577894      1.668976     -0.582978
  B      -0.221662     -0.925019      0.230847
  B       0.584157     -0.574594      1.670798
  B      -0.217445      0.219374     -0.927829
6
Coordinates from ORCA-job B6_octahedral_3d_d3.00_q0_m1_R2SCAN-3C E -148.633282622855
  B       0.921685      0.232959      0.231749
  B      -1.647686     -0.614617     -0.613980
  B       0.578227      1.668495     -0.586780
  B      -0.217798     -0.926573      0.227451
  B       0.581608     -0.578205      1.670585
  B      -0.216036      0.217941     -0.929023
6
Coordinates from ORCA-job B6_octahedral_3d_d3.00_q0_m1_R2SCAN-3C E -148.633290647948
  B       0.922233      0.234282      0.232967
  B      -1.647826     -0.610424     -0.607850
  B       0.575591      1.667484     -0.586725
  B      -0.213667     -0.929841      0.222811
  B       0.577092     -0.577626      1.670667
  B      -0.213422      0.216124     -0.931870
6
Coordinates from ORCA-job B6_octahedral_3d_d3.00_q0_m1_R2SCAN-3C E -148.633292031589
  B       0.923680      0.233245      0.231689
  B      -1.647360     -0.608444     -0.604956
  B       0.573702      1.667294     -0.584821
  B      -0.212235     -0.931657      0.221063
  B       0.574329     -0.575576      1.670348
  B      -0.212116      0.215138     -0.933324
6
Coordinates from ORCA-job B6_octahedral_3d_d3.00_q0_m1_R2SCAN-3C E -148.633292127542
  B       0.924118      0.232674      0.231254
  B      -1.647328     -0.608304     -0.604872
  B       0.573305      1.667186     -0.584262
  B      -0.212276     -0.931841      0.220900
  B       0.574157     -0.574913      1.670430
  B      -0.211976      0.215198     -0.933450
