6
Coordinates from ORCA-job B6_octahedral_3d_d3.00_q0_m1_R2SCAN-3C E -148.633292127542
  B           0.92411809959782      0.23267415681959      0.23125373881511
  B          -1.64732769243728     -0.60830366028637     -0.60487182063197
  B           0.57330474217911      1.66718556043478     -0.58426197777523
  B          -0.21227614922284     -0.93184111034175      0.22089999210955
  B           0.57415739152291     -0.57491342757657      1.67043021348289
  B          -0.21197639163973      0.21519848095032     -0.93345014600034
