6
Coordinates from ORCA-job B6_planar_ring_d1.80_q0_m3_R2SCAN-3C E -148.527314910918
  B       1.800000     -0.000000      0.000000
  B       0.900000      1.558846      0.000000
  B      -0.900000      1.558846      0.000000
  B      -1.800000      0.000000      0.000000
  B      -0.900000     -1.558846      0.000000
  B       0.900000     -1.558846      0.000000
6
Coordinates from ORCA-job B6_planar_ring_d1.80_q0_m3_R2SCAN-3C E -148.582982687992
  B       1.735203      0.000000     -0.000000
  B       0.867604      1.502705     -0.000000
  B      -0.867604      1.502705      0.000000
  B      -1.735203     -0.000000     -0.000000
  B      -0.867604     -1.502705      0.000000
  B       0.867604     -1.502705      0.000000
6
Coordinates from ORCA-job B6_planar_ring_d1.80_q0_m3_R2SCAN-3C E -148.627874618474
  B       1.670504     -0.000000     -0.000000
  B       0.835212      1.446505     -0.000000
  B      -0.835212      1.446505      0.000000
  B      -1.670504      0.000000     -0.000000
  B      -0.835212     -1.446505     -0.000000
  B       0.835212     -1.446505      0.000000
6
Coordinates from ORCA-job B6_planar_ring_d1.80_q0_m3_R2SCAN-3C E -148.664597583362
  B       1.573304     -0.000000      0.000000
  B       0.786622      1.362294      0.000000
  B      -0.786622      1.362294     -0.000000
  B      -1.573304      0.000000      0.000000
  B      -0.786622     -1.362294      0.000000
  B       0.786622     -1.362294     -0.000000
6
Coordinates from ORCA-job B6_planar_ring_d1.80_q0_m3_R2SCAN-3C E -148.665985544399
  B       1.544879      0.000000     -0.000000
  B       0.772313      1.337411      0.000000
  B      -0.772313      1.337411      0.000000
  B      -1.544879     -0.000000     -0.000000
  B      -0.772313     -1.337411      0.000000
  B       0.772313     -1.337411     -0.000000
6
Coordinates from ORCA-job B6_planar_ring_d1.80_q0_m3_R2SCAN-3C E -148.666120797939
  B       1.551750      0.000000      0.000000
  B       0.775705      1.343263      0.000000
  B      -0.775705      1.343263     -0.000000
  B      -1.551750      0.000000      0.000000
  B      -0.775706     -1.343263      0.000000
  B       0.775706     -1.343263     -0.000000
6
Coordinates from ORCA-job B6_planar_ring_d1.80_q0_m3_R2SCAN-3C E -148.666121192724
  B       1.551528     -0.000002     -0.000000
  B       0.775539      1.342911      0.000000
  B      -0.775539      1.342911      0.000000
  B      -1.551528     -0.000002     -0.000000
  B      -0.775535     -1.342909      0.000000
  B       0.775535     -1.342909      0.000000
6
Coordinates from ORCA-job B6_planar_ring_d1.80_q0_m3_R2SCAN-3C E -148.666121219669
  B       1.551631      0.000008      0.000000
  B       0.775524      1.342826      0.000000
  B      -0.775524      1.342826     -0.000000
  B      -1.551631      0.000008      0.000000
  B      -0.775538     -1.342834     -0.000000
  B       0.775538     -1.342834     -0.000000
