6
Coordinates from ORCA-job B6_planar_ring_d1.80_q0_m3_R2SCAN-3C E -148.666121219669
  B           1.55163133061484      0.00000800332677      0.00000002922554
  B           0.77552384037847      1.34282641179697      0.00000000065867
  B          -0.77552384332056      1.34282641368206     -0.00000003076227
  B          -1.55163133251200      0.00000800582259      0.00000003098157
  B          -0.77553769111273     -1.34283441401508     -0.00000000109789
  B           0.77553769595199     -1.34283442061330     -0.00000002900562
