6
Coordinates from ORCA-job B6_rectangular_planar_d1.60_q0_m1_R2SCAN-3C E -148.683838081357
  B          -1.57318515382324     -0.74409692509124     -0.00002402560361
  B          -0.00000013244351     -0.90616307944354      0.00004801576470
  B           1.57318527964266     -0.74409707287179     -0.00002398988942
  B          -1.57319031669488      0.74409709411343     -0.00002398175908
  B          -0.00000012756072      0.90616273453683      0.00004800090475
  B           1.57319045087969      0.74409724875630     -0.00002401941735
