6
Coordinates from ORCA-job B6_rectangular_planar_d1.60_q0_m1_R2SCAN-3C E -148.663242191604
  B      -1.600000     -0.800000      0.000000
  B       0.000000     -0.800000      0.000000
  B       1.600000     -0.800000      0.000000
  B      -1.600000      0.800000      0.000000
  B       0.000000      0.800000      0.000000
  B       1.600000      0.800000      0.000000
6
Coordinates from ORCA-job B6_rectangular_planar_d1.60_q0_m1_R2SCAN-3C E -148.675843488971
  B      -1.595293     -0.770180     -0.000000
  B       0.000000     -0.820272      0.000000
  B       1.595293     -0.770180     -0.000000
  B      -1.595293      0.770180     -0.000000
  B      -0.000000      0.820272      0.000000
  B       1.595293      0.770180     -0.000000
6
Coordinates from ORCA-job B6_rectangular_planar_d1.60_q0_m1_R2SCAN-3C E -148.681967786442
  B      -1.579880     -0.735738      0.000000
  B       0.000000     -0.857839     -0.000000
  B       1.579880     -0.735738      0.000000
  B      -1.579880      0.735738      0.000000
  B      -0.000000      0.857839     -0.000000
  B       1.579880      0.735738      0.000000
6
Coordinates from ORCA-job B6_rectangular_planar_d1.60_q0_m1_R2SCAN-3C E -148.683062439015
  B      -1.576423     -0.741364     -0.000000
  B       0.000000     -0.870654      0.000000
  B       1.576423     -0.741364     -0.000000
  B      -1.576423      0.741364     -0.000000
  B      -0.000000      0.870654      0.000000
  B       1.576423      0.741364     -0.000000
6
Coordinates from ORCA-job B6_rectangular_planar_d1.60_q0_m1_R2SCAN-3C E -148.683761906866
  B      -1.571970     -0.744391      0.000001
  B       0.000000     -0.895015     -0.000002
  B       1.571970     -0.744391      0.000001
  B      -1.571970      0.744391      0.000001
  B       0.000000      0.895015     -0.000002
  B       1.571970      0.744391      0.000001
6
Coordinates from ORCA-job B6_rectangular_planar_d1.60_q0_m1_R2SCAN-3C E -148.683830943699
  B      -1.572273     -0.744372     -0.000009
  B      -0.000000     -0.903417      0.000017
  B       1.572273     -0.744372     -0.000009
  B      -1.572273      0.744372     -0.000009
  B      -0.000000      0.903417      0.000017
  B       1.572273      0.744372     -0.000009
6
Coordinates from ORCA-job B6_rectangular_planar_d1.60_q0_m1_R2SCAN-3C E -148.683837934210
  B      -1.572946     -0.744154      0.000076
  B       0.000000     -0.906110     -0.000151
  B       1.572945     -0.744153      0.000076
  B      -1.572948      0.744153      0.000076
  B       0.000000      0.906111     -0.000151
  B       1.572948      0.744152      0.000076
6
Coordinates from ORCA-job B6_rectangular_planar_d1.60_q0_m1_R2SCAN-3C E -148.683837780344
  B      -1.573144     -0.744101     -0.000538
  B      -0.000000     -0.906243      0.001076
  B       1.573144     -0.744101     -0.000538
  B      -1.573145      0.744101     -0.000538
  B      -0.000000      0.906244      0.001075
  B       1.573145      0.744101     -0.000538
6
Coordinates from ORCA-job B6_rectangular_planar_d1.60_q0_m1_R2SCAN-3C E -148.683837940531
  B      -1.573351     -0.744048      0.000165
  B      -0.000001     -0.906309     -0.000329
  B       1.573352     -0.744050      0.000165
  B      -1.573353      0.744048      0.000165
  B      -0.000001      0.906308     -0.000329
  B       1.573353      0.744050      0.000165
6
Coordinates from ORCA-job B6_rectangular_planar_d1.60_q0_m1_R2SCAN-3C E -148.683838073055
  B      -1.573138     -0.744110      0.000033
  B      -0.000000     -0.906126     -0.000067
  B       1.573138     -0.744111      0.000033
  B      -1.573146      0.744109      0.000033
  B      -0.000000      0.906129     -0.000067
  B       1.573146      0.744109      0.000033
6
Coordinates from ORCA-job B6_rectangular_planar_d1.60_q0_m1_R2SCAN-3C E -148.683838081357
  B      -1.573185     -0.744097     -0.000024
  B      -0.000000     -0.906163      0.000048
  B       1.573185     -0.744097     -0.000024
  B      -1.573190      0.744097     -0.000024
  B      -0.000000      0.906163      0.000048
  B       1.573190      0.744097     -0.000024
