6
Coordinates from ORCA-job B6_random_3d_seed1001_d3.00_q0_m1_R2SCAN-3C E -148.633284357702
  B          -0.19765198214108     -0.93929423850550     -0.20169365810135
  B           0.58683161274799      1.74623795173560      0.23939997453802
  B           0.00441312172395      0.55745765233203     -0.80611894957105
  B           0.19204290659540     -1.17972346397898      1.42176162284266
  B           0.82452954605353      0.09967625876726      0.52231365279257
  B          -1.41016520497980     -0.28435417035041     -1.17566264250086
