6
Coordinates from ORCA-job B6_random_3d_seed1001_d3.00_q0_m1_R2SCAN-3C E -147.982392353555
  B       0.181632     -2.098600     -0.648278
  B      -0.100497      1.964798      0.689348
  B       0.542113      0.756971     -1.897970
  B      -0.602019     -0.907444      1.950645
  B       2.039705      0.085770      0.619872
  B      -2.060933      0.198505     -0.713617
6
Coordinates from ORCA-job B6_random_3d_seed1001_d3.00_q0_m1_R2SCAN-3C E -147.998343516035
  B       0.170786     -2.077116     -0.631542
  B      -0.086109      1.935612      0.669293
  B       0.524452      0.755792     -1.865056
  B      -0.585722     -0.907696      1.924355
  B       2.007588      0.095168      0.618762
  B      -2.030994      0.198240     -0.715812
6
Coordinates from ORCA-job B6_random_3d_seed1001_d3.00_q0_m1_R2SCAN-3C E -148.015227661579
  B       0.159921     -2.056057     -0.614823
  B      -0.071096      1.906541      0.649205
  B       0.506297      0.755021     -1.832204
  B      -0.569355     -0.908037      1.898339
  B       1.975207      0.104714      0.617932
  B      -2.000974      0.197817     -0.718448
6
Coordinates from ORCA-job B6_random_3d_seed1001_d3.00_q0_m1_R2SCAN-3C E -148.042420645178
  B       0.143889     -2.024662     -0.589970
  B      -0.048230      1.863007      0.619397
  B       0.478731      0.754035     -1.783109
  B      -0.544991     -0.908156      1.859557
  B       1.926180      0.118869      0.616624
  B      -1.955579      0.196906     -0.722498
6
Coordinates from ORCA-job B6_random_3d_seed1001_d3.00_q0_m1_R2SCAN-3C E -148.087703748358
  B       0.120486     -1.977833     -0.553170
  B      -0.013427      1.797723      0.575553
  B       0.436784      0.752703     -1.709809
  B      -0.508979     -0.907379      1.801880
  B       1.851863      0.139726      0.614265
  B      -1.886727      0.195059     -0.728719
6
Coordinates from ORCA-job B6_random_3d_seed1001_d3.00_q0_m1_R2SCAN-3C E -148.140657989488
  B       0.096911     -1.930551     -0.515363
  B       0.024202      1.729898      0.530908
  B       0.391826      0.752019     -1.633987
  B      -0.472235     -0.906074      1.743276
  B       1.774135      0.161712      0.611579
  B      -1.814840      0.192995     -0.736414
6
Coordinates from ORCA-job B6_random_3d_seed1001_d3.00_q0_m1_R2SCAN-3C E -148.199502971692
  B       0.074662     -1.884149     -0.478117
  B       0.062193      1.661560      0.487625
  B       0.346221      0.751047     -1.558131
  B      -0.436573     -0.903750      1.685787
  B       1.696046      0.183832      0.607545
  B      -1.742550      0.191462     -0.744709
6
Coordinates from ORCA-job B6_random_3d_seed1001_d3.00_q0_m1_R2SCAN-3C E -148.262687486707
  B       0.054430     -1.837740     -0.441561
  B       0.098560      1.592578      0.446443
  B       0.301001      0.748312     -1.482147
  B      -0.402358     -0.899716      1.628907
  B       1.617993      0.205316      0.600937
  B      -1.669626      0.191250     -0.752580
6
Coordinates from ORCA-job B6_random_3d_seed1001_d3.00_q0_m1_R2SCAN-3C E -148.328190160890
  B       0.036810     -1.790223     -0.405647
  B       0.131244      1.523022      0.407603
  B       0.257554      0.742662     -1.405976
  B      -0.369678     -0.893347      1.571779
  B       1.540382      0.225006      0.590972
  B      -1.596312      0.192879     -0.758731
6
Coordinates from ORCA-job B6_random_3d_seed1001_d3.00_q0_m1_R2SCAN-3C E -148.391357127136
  B       0.022160     -1.740032     -0.370218
  B       0.158330      1.453661      0.372095
  B       0.217084      0.732660     -1.330444
  B      -0.338074     -0.883744      1.512984
  B       1.463205      0.241151      0.577479
  B      -1.522706      0.196303     -0.761896
6
Coordinates from ORCA-job B6_random_3d_seed1001_d3.00_q0_m1_R2SCAN-3C E -148.447184400199
  B       0.009221     -1.683501     -0.334198
  B       0.176301      1.388861      0.339000
  B       0.175984      0.717340     -1.254701
  B      -0.302194     -0.868856      1.449241
  B       1.388319      0.245877      0.565329
  B      -1.447632      0.200278     -0.764672
6
Coordinates from ORCA-job B6_random_3d_seed1001_d3.00_q0_m1_R2SCAN-3C E -148.489579878647
  B      -0.001979     -1.610686     -0.294097
  B       0.175859      1.336968      0.313944
  B       0.147048      0.694536     -1.189800
  B      -0.259440     -0.844829      1.370216
  B       1.320168      0.226303      0.558380
  B      -1.381655      0.197709     -0.758644
6
Coordinates from ORCA-job B6_random_3d_seed1001_d3.00_q0_m1_R2SCAN-3C E -148.519405239488
  B      -0.012555     -1.522415     -0.266197
  B       0.164760      1.302950      0.309021
  B       0.146902      0.663497     -1.150821
  B      -0.212883     -0.803873      1.286262
  B       1.257122      0.185128      0.559539
  B      -1.343346      0.174713     -0.737803
6
Coordinates from ORCA-job B6_random_3d_seed1001_d3.00_q0_m1_R2SCAN-3C E -148.541845779526
  B      -0.024991     -1.433342     -0.274540
  B       0.149640      1.285379      0.320203
  B       0.163111      0.622197     -1.129490
  B      -0.166105     -0.743437      1.225716
  B       1.197608      0.133892      0.567221
  B      -1.319263      0.135311     -0.709111
6
Coordinates from ORCA-job B6_random_3d_seed1001_d3.00_q0_m1_R2SCAN-3C E -148.553731491401
  B      -0.039142     -1.369450     -0.297256
  B       0.135279      1.289619      0.327225
  B       0.185336      0.590004     -1.115296
  B      -0.142029     -0.706315      1.200761
  B       1.165658      0.098683      0.568156
  B      -1.305102      0.097459     -0.683590
6
Coordinates from ORCA-job B6_random_3d_seed1001_d3.00_q0_m1_R2SCAN-3C E -148.560515049211
  B      -0.052987     -1.322278     -0.314869
  B       0.128060      1.302498      0.335148
  B       0.203883      0.564578     -1.108524
  B      -0.139604     -0.696037      1.193257
  B       1.155773      0.085144      0.560492
  B      -1.295124      0.066093     -0.665503
6
Coordinates from ORCA-job B6_random_3d_seed1001_d3.00_q0_m1_R2SCAN-3C E -148.569318446512
  B      -0.074349     -1.250082     -0.340749
  B       0.119393      1.328656      0.340011
  B       0.228004      0.528689     -1.092460
  B      -0.139102     -0.694945      1.196165
  B       1.145032      0.067196      0.543641
  B      -1.278978      0.020486     -0.646609
6
Coordinates from ORCA-job B6_random_3d_seed1001_d3.00_q0_m1_R2SCAN-3C E -148.578509527223
  B      -0.096889     -1.150182     -0.363561
  B       0.117524      1.383750      0.342609
  B       0.261884      0.476432     -1.060368
  B      -0.126401     -0.718405      1.211758
  B       1.115628      0.042881      0.511576
  B      -1.271746     -0.034476     -0.642015
6
Coordinates from ORCA-job B6_random_3d_seed1001_d3.00_q0_m1_R2SCAN-3C E -148.586926137361
  B      -0.086320     -1.083944     -0.362937
  B       0.118099      1.450089      0.329864
  B       0.290984      0.432004     -1.017057
  B      -0.095352     -0.764690      1.237788
  B       1.072672      0.013768      0.478099
  B      -1.300083     -0.047228     -0.665756
6
Coordinates from ORCA-job B6_random_3d_seed1001_d3.00_q0_m1_R2SCAN-3C E -148.596861028901
  B      -0.078712     -1.055235     -0.345831
  B       0.136156      1.521745      0.305533
  B       0.305251      0.412896     -0.974014
  B      -0.051101     -0.834386      1.273817
  B       1.034574      0.001047      0.460304
  B      -1.346167     -0.046067     -0.719809
6
Coordinates from ORCA-job B6_random_3d_seed1001_d3.00_q0_m1_R2SCAN-3C E -148.608353190733
  B      -0.096349     -1.062666     -0.325741
  B       0.179896      1.582697      0.282121
  B       0.280616      0.428240     -0.956267
  B      -0.004238     -0.913419      1.320857
  B       1.015705      0.015042      0.474874
  B      -1.375629     -0.049894     -0.795844
6
Coordinates from ORCA-job B6_random_3d_seed1001_d3.00_q0_m1_R2SCAN-3C E -148.617827865591
  B      -0.120443     -1.044436     -0.304451
  B       0.243977      1.624200      0.272020
  B       0.239105      0.427521     -0.927797
  B       0.040776     -0.983549      1.355188
  B       0.982282      0.047500      0.479667
  B      -1.385697     -0.071236     -0.874627
6
Coordinates from ORCA-job B6_random_3d_seed1001_d3.00_q0_m1_R2SCAN-3C E -148.622856423267
  B      -0.132257     -1.034988     -0.273803
  B       0.290441      1.639696      0.260884
  B       0.205289      0.447119     -0.917024
  B       0.069473     -1.027258      1.367954
  B       0.956000      0.063296      0.488279
  B      -1.388947     -0.087865     -0.926290
6
Coordinates from ORCA-job B6_random_3d_seed1001_d3.00_q0_m1_R2SCAN-3C E -148.627829945078
  B      -0.154345     -0.997958     -0.252423
  B       0.359162      1.669930      0.255084
  B       0.159293      0.453433     -0.895913
  B       0.121952     -1.078479      1.394344
  B       0.916301      0.074836      0.506069
  B      -1.402363     -0.121762     -1.007161
6
Coordinates from ORCA-job B6_random_3d_seed1001_d3.00_q0_m1_R2SCAN-3C E -148.630420438458
  B      -0.179885     -0.983385     -0.217655
  B       0.437167      1.702425      0.242365
  B       0.137543      0.491899     -0.857993
  B       0.153222     -1.130939      1.396587
  B       0.873967      0.098925      0.507869
  B      -1.422013     -0.178925     -1.071174
6
Coordinates from ORCA-job B6_random_3d_seed1001_d3.00_q0_m1_R2SCAN-3C E -148.632171856843
  B      -0.194943     -0.962360     -0.196162
  B       0.488954      1.736503      0.235260
  B       0.085014      0.506458     -0.855679
  B       0.186318     -1.167150      1.410649
  B       0.850383      0.090697      0.529282
  B      -1.415726     -0.204147     -1.123349
6
Coordinates from ORCA-job B6_random_3d_seed1001_d3.00_q0_m1_R2SCAN-3C E -148.632742654949
  B      -0.213084     -0.948184     -0.197185
  B       0.531844      1.737806      0.234420
  B       0.055449      0.520419     -0.835780
  B       0.205749     -1.182132      1.419438
  B       0.835630      0.106663      0.536914
  B      -1.415587     -0.234572     -1.157807
6
Coordinates from ORCA-job B6_random_3d_seed1001_d3.00_q0_m1_R2SCAN-3C E -148.633035170170
  B      -0.221295     -0.938132     -0.188266
  B       0.559553      1.751814      0.223871
  B       0.038188      0.537542     -0.818216
  B       0.215667     -1.198914      1.418910
  B       0.817737      0.104277      0.539228
  B      -1.409850     -0.256587     -1.175526
6
Coordinates from ORCA-job B6_random_3d_seed1001_d3.00_q0_m1_R2SCAN-3C E -148.633138649997
  B      -0.221273     -0.933526     -0.181804
  B       0.580906      1.754418      0.225183
  B       0.019355      0.543936     -0.809678
  B       0.217680     -1.203305      1.416114
  B       0.810331      0.109045      0.538156
  B      -1.406999     -0.270568     -1.187972
6
Coordinates from ORCA-job B6_random_3d_seed1001_d3.00_q0_m1_R2SCAN-3C E -148.633183522054
  B      -0.219525     -0.930574     -0.183411
  B       0.589572      1.752956      0.225961
  B       0.010617      0.549642     -0.804311
  B       0.217407     -1.201397      1.417136
  B       0.808504      0.107693      0.537198
  B      -1.406574     -0.278319     -1.192574
6
Coordinates from ORCA-job B6_random_3d_seed1001_d3.00_q0_m1_R2SCAN-3C E -148.633228469787
  B      -0.213794     -0.930475     -0.188215
  B       0.595338      1.750906      0.229725
  B       0.003430      0.554824     -0.800922
  B       0.211949     -1.195341      1.418534
  B       0.810787      0.105317      0.533585
  B      -1.407711     -0.285231     -1.192708
6
Coordinates from ORCA-job B6_random_3d_seed1001_d3.00_q0_m1_R2SCAN-3C E -148.633268752269
  B      -0.203926     -0.933968     -0.196406
  B       0.594193      1.747625      0.235607
  B       0.000533      0.558308     -0.801395
  B       0.200904     -1.185534      1.420776
  B       0.817793      0.101530      0.527020
  B      -1.409497     -0.287961     -1.185603
6
Coordinates from ORCA-job B6_random_3d_seed1001_d3.00_q0_m1_R2SCAN-3C E -148.633283193420
  B      -0.197646     -0.938373     -0.201835
  B       0.588560      1.745773      0.239464
  B       0.002917      0.558236     -0.804831
  B       0.192664     -1.179261      1.421878
  B       0.824027      0.099438      0.522625
  B      -1.410524     -0.285813     -1.177301
6
Coordinates from ORCA-job B6_random_3d_seed1001_d3.00_q0_m1_R2SCAN-3C E -148.633284288935
  B      -0.197452     -0.939267     -0.201917
  B       0.586974      1.746076      0.239536
  B       0.004202      0.557579     -0.805943
  B       0.191897     -1.179372      1.421775
  B       0.824665      0.099550      0.522268
  B      -1.410286     -0.284566     -1.175719
6
Coordinates from ORCA-job B6_random_3d_seed1001_d3.00_q0_m1_R2SCAN-3C E -148.633284357702
  B      -0.197652     -0.939294     -0.201694
  B       0.586832      1.746238      0.239400
  B       0.004413      0.557458     -0.806119
  B       0.192043     -1.179723      1.421762
  B       0.824530      0.099676      0.522314
  B      -1.410165     -0.284354     -1.175663
