6
Coordinates from ORCA-job B6_octahedral_3d_d3.50_q0_m1_R2SCAN-3C E -148.633291763517
  B           1.68326026570419     -0.55672649314292      0.55331495959136
  B          -0.93831444256143      0.20473092318987     -0.20258174282961
  B          -0.60321508725910      1.65135400327680      0.59824749015631
  B           0.23208605328019     -0.92597433195121     -0.22456621052400
  B           0.23453399661850      0.22446060748160      0.92527661337251
  B          -0.60835078578235     -0.59784470885413     -1.64969110976657
