6
Coordinates from ORCA-job B6_octahedral_3d_d3.50_q0_m1_R2SCAN-3C E -147.862558795491
  B       2.474874      0.000000      0.000000
  B      -2.474874      0.000000      0.000000
  B       0.000000      2.474874      0.000000
  B       0.000000     -2.474874      0.000000
  B       0.000000      0.000000      2.474874
  B       0.000000      0.000000     -2.474874
6
Coordinates from ORCA-job B6_octahedral_3d_d3.50_q0_m1_R2SCAN-3C E -147.872221787162
  B       2.443494     -0.006933      0.006755
  B      -2.443402      0.007137     -0.007454
  B      -0.007042      2.443597      0.007377
  B       0.007028     -2.443491     -0.006685
  B       0.007065      0.006876      2.443375
  B      -0.007144     -0.007187     -2.443369
6
Coordinates from ORCA-job B6_octahedral_3d_d3.50_q0_m1_R2SCAN-3C E -147.882368598436
  B       2.412230     -0.014236      0.013863
  B      -2.412025      0.014688     -0.015361
  B      -0.014481      2.412441      0.015195
  B       0.014443     -2.412218     -0.013715
  B       0.014529      0.014117      2.411973
  B      -0.014695     -0.014793     -2.411955
6
Coordinates from ORCA-job B6_octahedral_3d_d3.50_q0_m1_R2SCAN-3C E -147.898557665846
  B       2.365413     -0.025448      0.024773
  B      -2.365012      0.026320     -0.027568
  B      -0.025931      2.365783      0.027252
  B       0.025837     -2.365375     -0.024498
  B       0.026017      0.025234      2.364933
  B      -0.026324     -0.026514     -2.364891
6
Coordinates from ORCA-job B6_octahedral_3d_d3.50_q0_m1_R2SCAN-3C E -147.925223782736
  B       2.295354     -0.042751      0.041598
  B      -2.294576      0.044362     -0.046567
  B      -0.043669      2.295943      0.045983
  B       0.043446     -2.295244     -0.041113
  B       0.043805      0.042392      2.294492
  B      -0.044360     -0.044702     -2.294395
6
Coordinates from ORCA-job B6_octahedral_3d_d3.50_q0_m1_R2SCAN-3C E -147.956466817563
  B       2.223275     -0.062121      0.060397
  B      -2.221905      0.064736     -0.068182
  B      -0.063655      2.224072      0.067221
  B       0.063208     -2.223039     -0.059644
  B       0.063827      0.061604      2.221886
  B      -0.064750     -0.065252     -2.221677
6
Coordinates from ORCA-job B6_octahedral_3d_d3.50_q0_m1_R2SCAN-3C E -147.992022236255
  B       2.151904     -0.082879      0.080507
  B      -2.149626      0.086758     -0.091754
  B      -0.085226      2.152830      0.090276
  B       0.084430     -2.151456     -0.079433
  B       0.085385      0.082214      2.149801
  B      -0.086868     -0.087468     -2.149397
6
Coordinates from ORCA-job B6_octahedral_3d_d3.50_q0_m1_R2SCAN-3C E -148.032431488302
  B       2.081157     -0.104441      0.101348
  B      -2.077584      0.109835     -0.116679
  B      -0.107805      2.082058      0.114541
  B       0.106512     -2.080374     -0.099914
  B       0.107865      0.103658      2.078134
  B      -0.110145     -0.110736     -2.077430
6
Coordinates from ORCA-job B6_octahedral_3d_d3.50_q0_m1_R2SCAN-3C E -148.078211697473
  B       2.010862     -0.126060      0.122182
  B      -2.005541      0.133124     -0.142131
  B      -0.130598      2.011525      0.139170
  B       0.128666     -2.009597     -0.120357
  B       0.130445      0.125210      2.006704
  B      -0.133835     -0.134201     -2.005568
6
Coordinates from ORCA-job B6_octahedral_3d_d3.50_q0_m1_R2SCAN-3C E -148.129472613653
  B       1.940804     -0.146917      0.142203
  B      -1.933248      0.155670     -0.167142
  B      -0.152710      1.940961      0.163194
  B       0.150017     -1.938896     -0.139979
  B       0.152213      0.146076      1.935307
  B      -0.157076     -0.156894     -1.933584
6
Coordinates from ORCA-job B6_octahedral_3d_d3.50_q0_m1_R2SCAN-3C E -148.185849932196
  B       1.870718     -0.166133      0.160564
  B      -1.860487      0.176414     -0.190613
  B      -0.173143      1.870092      0.185547
  B       0.169633     -1.868012     -0.157923
  B       0.172183      0.165391      1.863703
  B      -0.178904     -0.177752     -1.861279
6
Coordinates from ORCA-job B6_octahedral_3d_d3.50_q0_m1_R2SCAN-3C E -148.246581501467
  B       1.800375     -0.182887      0.176410
  B      -1.787086      0.194311     -0.211492
  B      -0.190944      1.798720      0.205187
  B       0.186604     -1.796690     -0.173372
  B       0.189411      0.182304      1.791740
  B      -0.198360     -0.195758     -1.788474
6
Coordinates from ORCA-job B6_octahedral_3d_d3.50_q0_m1_R2SCAN-3C E -148.309662760684
  B       1.729581     -0.196499      0.189076
  B      -1.713038      0.208536     -0.228774
  B      -0.205317      1.726695      0.221233
  B       0.200207     -1.724742     -0.185676
  B       0.203119      0.196114      1.719300
  B      -0.214552     -0.210103     -1.715160
6
Coordinates from ORCA-job B6_octahedral_3d_d3.50_q0_m1_R2SCAN-3C E -148.373767732078
  B       1.658210     -0.206342      0.197929
  B      -1.638316      0.218429     -0.241555
  B      -0.215620      1.653932      0.232842
  B       0.209778     -1.652005     -0.194280
  B       0.212613      0.206118      1.646395
  B      -0.226665     -0.220131     -1.641332
6
Coordinates from ORCA-job B6_octahedral_3d_d3.50_q0_m1_R2SCAN-3C E -148.436012061682
  B       1.586393     -0.212726      0.203282
  B      -1.563416      0.224463     -0.249834
  B      -0.222191      1.580615      0.240402
  B       0.215660     -1.578676     -0.199518
  B       0.218219      0.212648      1.573114
  B      -0.234666     -0.226324     -1.567445
6
Coordinates from ORCA-job B6_octahedral_3d_d3.50_q0_m1_R2SCAN-3C E -148.492660614187
  B       1.512605     -0.217527      0.206763
  B      -1.487480      0.229636     -0.254572
  B      -0.227528      1.505501      0.245993
  B       0.219842     -1.503006     -0.203216
  B       0.221895      0.217105      1.497976
  B      -0.239334     -0.231709     -1.492944
6
Coordinates from ORCA-job B6_octahedral_3d_d3.50_q0_m1_R2SCAN-3C E -148.536042551149
  B       1.437743     -0.217215      0.205894
  B      -1.412851      0.232069     -0.250581
  B      -0.229270      1.429943      0.245820
  B       0.218802     -1.426017     -0.203069
  B       0.221127      0.215696      1.421976
  B      -0.235552     -0.234475     -1.420041
6
Coordinates from ORCA-job B6_octahedral_3d_d3.50_q0_m1_R2SCAN-3C E -148.558035571019
  B       1.361733     -0.204679      0.196006
  B      -1.344243      0.226832     -0.229347
  B      -0.221503      1.357905      0.233614
  B       0.206275     -1.348669     -0.192409
  B       0.212012      0.199526      1.345805
  B      -0.214276     -0.230914     -1.353669
6
Coordinates from ORCA-job B6_octahedral_3d_d3.50_q0_m1_R2SCAN-3C E -148.563556150574
  B       1.328484     -0.174741      0.173871
  B      -1.314560      0.197391     -0.205257
  B      -0.192750      1.332161      0.211126
  B       0.177322     -1.312012     -0.160261
  B       0.190779      0.165670      1.310549
  B      -0.189276     -0.208470     -1.330027
6
Coordinates from ORCA-job B6_octahedral_3d_d3.50_q0_m1_R2SCAN-3C E -148.566196607130
  B       1.322602     -0.148699      0.128316
  B      -1.283427      0.171872     -0.160511
  B      -0.171399      1.318901      0.189850
  B       0.141774     -1.282213     -0.121628
  B       0.140851      0.130596      1.286636
  B      -0.150402     -0.190457     -1.322663
6
Coordinates from ORCA-job B6_octahedral_3d_d3.50_q0_m1_R2SCAN-3C E -148.567284178447
  B       1.331453     -0.135671      0.137403
  B      -1.271907      0.144463     -0.167721
  B      -0.159587      1.341281      0.196753
  B       0.119147     -1.262616     -0.097370
  B       0.143109      0.104151      1.267116
  B      -0.162216     -0.191609     -1.336181
6
Coordinates from ORCA-job B6_octahedral_3d_d3.50_q0_m1_R2SCAN-3C E -148.572458186572
  B       1.371957     -0.131290      0.159120
  B      -1.233501      0.110613     -0.168141
  B      -0.165409      1.396695      0.237176
  B       0.080754     -1.215298     -0.057092
  B       0.135413      0.063296      1.213726
  B      -0.189215     -0.224017     -1.384789
6
Coordinates from ORCA-job B6_octahedral_3d_d3.50_q0_m1_R2SCAN-3C E -148.580457492710
  B       1.418963     -0.140405      0.175973
  B      -1.192393      0.084057     -0.165003
  B      -0.175582      1.443870      0.285250
  B       0.053317     -1.171188     -0.045919
  B       0.113739      0.051168      1.171034
  B      -0.218043     -0.267503     -1.421335
6
Coordinates from ORCA-job B6_octahedral_3d_d3.50_q0_m1_R2SCAN-3C E -148.588636145802
  B       1.450594     -0.162289      0.196750
  B      -1.169258      0.088113     -0.157255
  B      -0.199682      1.480057      0.323631
  B       0.054281     -1.149824     -0.044532
  B       0.105262      0.050505      1.138916
  B      -0.241197     -0.306562     -1.457510
6
Coordinates from ORCA-job B6_octahedral_3d_d3.50_q0_m1_R2SCAN-3C E -148.595657275371
  B       1.471722     -0.189598      0.202366
  B      -1.152799      0.113580     -0.145122
  B      -0.230297      1.484702      0.345360
  B       0.068612     -1.144082     -0.058931
  B       0.093326      0.069114      1.127929
  B      -0.250564     -0.333715     -1.471602
6
Coordinates from ORCA-job B6_octahedral_3d_d3.50_q0_m1_R2SCAN-3C E -148.599699050529
  B       1.484528     -0.207671      0.210516
  B      -1.136176      0.126244     -0.142010
  B      -0.252208      1.490115      0.356673
  B       0.075870     -1.131573     -0.061623
  B       0.090580      0.071731      1.116850
  B      -0.262593     -0.348846     -1.480406
6
Coordinates from ORCA-job B6_octahedral_3d_d3.50_q0_m1_R2SCAN-3C E -148.605121177975
  B       1.507015     -0.232216      0.228659
  B      -1.115983      0.137992     -0.143735
  B      -0.281020      1.505579      0.377642
  B       0.083494     -1.116585     -0.069038
  B       0.091943      0.078251      1.104297
  B      -0.285450     -0.373021     -1.497824
6
Coordinates from ORCA-job B6_octahedral_3d_d3.50_q0_m1_R2SCAN-3C E -148.612235219140
  B       1.539936     -0.267114      0.260014
  B      -1.088694      0.147849     -0.148830
  B      -0.319880      1.533088      0.409341
  B       0.093232     -1.093126     -0.077228
  B       0.097612      0.085823      1.083154
  B      -0.322207     -0.406520     -1.526451
6
Coordinates from ORCA-job B6_octahedral_3d_d3.50_q0_m1_R2SCAN-3C E -148.620816323236
  B       1.582941     -0.323402      0.312978
  B      -1.051696      0.165495     -0.160747
  B      -0.380005      1.566018      0.456797
  B       0.112403     -1.061160     -0.104637
  B       0.115699      0.111104      1.059096
  B      -0.379341     -0.458055     -1.563487
6
Coordinates from ORCA-job B6_octahedral_3d_d3.50_q0_m1_R2SCAN-3C E -148.626551220608
  B       1.623792     -0.376239      0.368533
  B      -1.021440      0.172021     -0.173744
  B      -0.433395      1.607821      0.500680
  B       0.134510     -1.025701     -0.112854
  B       0.135189      0.120646      1.020545
  B      -0.438655     -0.498547     -1.603160
6
Coordinates from ORCA-job B6_octahedral_3d_d3.50_q0_m1_R2SCAN-3C E -148.630458978266
  B       1.653582     -0.438779      0.424758
  B      -0.988519      0.200421     -0.186760
  B      -0.497634      1.613531      0.533542
  B       0.161311     -0.995226     -0.155774
  B       0.165350      0.160718      1.004170
  B      -0.494090     -0.540665     -1.619936
6
Coordinates from ORCA-job B6_octahedral_3d_d3.50_q0_m1_R2SCAN-3C E -148.631993125068
  B       1.673747     -0.480910      0.472030
  B      -0.961143      0.194492     -0.206346
  B      -0.534990      1.647342      0.581684
  B       0.177044     -0.966344     -0.185116
  B       0.184582      0.186418      0.976442
  B      -0.539239     -0.580998     -1.638693
6
Coordinates from ORCA-job B6_octahedral_3d_d3.50_q0_m1_R2SCAN-3C E -148.632074849591
  B       1.680153     -0.538999      0.517129
  B      -0.952815      0.224963     -0.212533
  B      -0.592780      1.656932      0.597238
  B       0.233464     -0.941813     -0.188154
  B       0.222409      0.199417      0.945730
  B      -0.590432     -0.600499     -1.659409
6
Coordinates from ORCA-job B6_octahedral_3d_d3.50_q0_m1_R2SCAN-3C E -148.632977871545
  B       1.690432     -0.538853      0.527324
  B      -0.934696      0.221371     -0.209296
  B      -0.591284      1.637355      0.594327
  B       0.212806     -0.927970     -0.202414
  B       0.216031      0.209046      0.939229
  B      -0.593289     -0.600949     -1.649171
6
Coordinates from ORCA-job B6_octahedral_3d_d3.50_q0_m1_R2SCAN-3C E -148.633063212934
  B       1.684280     -0.541682      0.532673
  B      -0.936024      0.214787     -0.216481
  B      -0.594033      1.657821      0.612025
  B       0.215934     -0.932035     -0.218465
  B       0.224180      0.215721      0.942178
  B      -0.594337     -0.614612     -1.651930
6
Coordinates from ORCA-job B6_octahedral_3d_d3.50_q0_m1_R2SCAN-3C E -148.633207639659
  B       1.685222     -0.550075      0.537492
  B      -0.933301      0.217930     -0.215205
  B      -0.600081      1.651168      0.609063
  B       0.223959     -0.926166     -0.215308
  B       0.225668      0.219038      0.935500
  B      -0.601466     -0.611895     -1.651542
6
Coordinates from ORCA-job B6_octahedral_3d_d3.50_q0_m1_R2SCAN-3C E -148.633233516454
  B       1.685899     -0.554337      0.544360
  B      -0.932070      0.219112     -0.213634
  B      -0.604803      1.649541      0.607993
  B       0.226242     -0.922668     -0.218953
  B       0.230660      0.220321      0.931384
  B      -0.605928     -0.611968     -1.651151
6
Coordinates from ORCA-job B6_octahedral_3d_d3.50_q0_m1_R2SCAN-3C E -148.633259164422
  B       1.684987     -0.560081      0.551548
  B      -0.930995      0.216481     -0.212322
  B      -0.608215      1.649017      0.608605
  B       0.231374     -0.919648     -0.223102
  B       0.234193      0.225419      0.926264
  B      -0.611344     -0.611188     -1.650993
6
Coordinates from ORCA-job B6_octahedral_3d_d3.50_q0_m1_R2SCAN-3C E -148.633277652791
  B       1.684225     -0.562367      0.556177
  B      -0.932607      0.212472     -0.209310
  B      -0.609333      1.650583      0.606962
  B       0.233926     -0.919759     -0.226644
  B       0.236885      0.227337      0.923168
  B      -0.613096     -0.608266     -1.650353
6
Coordinates from ORCA-job B6_octahedral_3d_d3.50_q0_m1_R2SCAN-3C E -148.633288240995
  B       1.683537     -0.560546      0.557040
  B      -0.935963      0.207474     -0.205456
  B      -0.606575      1.651444      0.603149
  B       0.234109     -0.922518     -0.227215
  B       0.236744      0.227127      0.922598
  B      -0.611853     -0.602981     -1.650117
6
Coordinates from ORCA-job B6_octahedral_3d_d3.50_q0_m1_R2SCAN-3C E -148.633290709898
  B       1.683340     -0.558258      0.555144
  B      -0.938032      0.205315     -0.203428
  B      -0.604279      1.651787      0.600256
  B       0.233060     -0.924830     -0.226067
  B       0.235378      0.225587      0.923535
  B      -0.609467     -0.599601     -1.649440
6
Coordinates from ORCA-job B6_octahedral_3d_d3.50_q0_m1_R2SCAN-3C E -148.633291180052
  B       1.683417     -0.557071      0.554317
  B      -0.938580      0.204946     -0.202988
  B      -0.603250      1.651437      0.599272
  B       0.232417     -0.925604     -0.225221
  B       0.234817      0.224921      0.924323
  B      -0.608820     -0.598628     -1.649702
6
Coordinates from ORCA-job B6_octahedral_3d_d3.50_q0_m1_R2SCAN-3C E -148.633291442106
  B       1.683354     -0.556764      0.553658
  B      -0.938563      0.204870     -0.202791
  B      -0.603092      1.651408      0.598769
  B       0.232155     -0.925856     -0.224818
  B       0.234531      0.224567      0.924767
  B      -0.608387     -0.598226     -1.649586
6
Coordinates from ORCA-job B6_octahedral_3d_d3.50_q0_m1_R2SCAN-3C E -148.633291763517
  B       1.683260     -0.556726      0.553315
  B      -0.938314      0.204731     -0.202582
  B      -0.603215      1.651354      0.598247
  B       0.232086     -0.925974     -0.224566
  B       0.234534      0.224461      0.925277
  B      -0.608351     -0.597845     -1.649691
