6
Coordinates from ORCA-job B6_random_3d_seed1001_d2.00_q0_m1_R2SCAN-3C E -148.455466057143
  B       0.133175     -1.426550     -0.406501
  B      -0.061056      1.307615      0.443008
  B       0.356401      0.501936     -1.266060
  B      -0.409652     -0.635690      1.312881
  B       1.359553      0.096169      0.423928
  B      -1.378422      0.156520     -0.507256
6
Coordinates from ORCA-job B6_random_3d_seed1001_d2.00_q0_m1_R2SCAN-3C E -148.486788482518
  B       0.119069     -1.407060     -0.382473
  B      -0.049777      1.290231      0.421095
  B       0.340263      0.506708     -1.236781
  B      -0.390003     -0.642889      1.281756
  B       1.328782      0.099151      0.424132
  B      -1.348334      0.153859     -0.507729
6
Coordinates from ORCA-job B6_random_3d_seed1001_d2.00_q0_m1_R2SCAN-3C E -148.520517250659
  B       0.115113     -1.387434     -0.359189
  B      -0.048604      1.269642      0.402679
  B       0.331270      0.506257     -1.209404
  B      -0.381667     -0.647741      1.253122
  B       1.293731      0.100257      0.409326
  B      -1.309843      0.159019     -0.496534
6
Coordinates from ORCA-job B6_random_3d_seed1001_d2.00_q0_m1_R2SCAN-3C E -148.551738431597
  B       0.112932     -1.367340     -0.338947
  B      -0.049150      1.247748      0.387892
  B       0.324089      0.502268     -1.183393
  B      -0.375432     -0.649773      1.226236
  B       1.257168      0.102102      0.391732
  B      -1.269608      0.164995     -0.483519
6
Coordinates from ORCA-job B6_random_3d_seed1001_d2.00_q0_m1_R2SCAN-3C E -148.591751825439
  B       0.110219     -1.334774     -0.314176
  B      -0.053139      1.215202      0.371429
  B       0.315900      0.491074     -1.147240
  B      -0.367921     -0.647361      1.187198
  B       1.201865      0.104008      0.363805
  B      -1.206922      0.171852     -0.461016
6
Coordinates from ORCA-job B6_random_3d_seed1001_d2.00_q0_m1_R2SCAN-3C E -148.630643607444
  B       0.107640     -1.277434     -0.291255
  B      -0.065948      1.168942      0.361455
  B       0.311311      0.462601     -1.100985
  B      -0.358922     -0.626841      1.129093
  B       1.120852      0.100343      0.322186
  B      -1.114933      0.172389     -0.420494
6
Coordinates from ORCA-job B6_random_3d_seed1001_d2.00_q0_m1_R2SCAN-3C E -148.644867193096
  B       0.106071     -1.219258     -0.297810
  B      -0.081727      1.143460      0.375499
  B       0.320298      0.428420     -1.080599
  B      -0.356017     -0.582523      1.084637
  B       1.065188      0.083212      0.296388
  B      -1.053813      0.146690     -0.378115
6
Coordinates from ORCA-job B6_random_3d_seed1001_d2.00_q0_m1_R2SCAN-3C E -148.652509214580
  B       0.103613     -1.182204     -0.323605
  B      -0.091376      1.144734      0.400733
  B       0.331382      0.406240     -1.089070
  B      -0.357270     -0.536351      1.065274
  B       1.045131      0.061075      0.296352
  B      -1.031481      0.106506     -0.349685
6
Coordinates from ORCA-job B6_random_3d_seed1001_d2.00_q0_m1_R2SCAN-3C E -148.658301183875
  B       0.102315     -1.162496     -0.362823
  B      -0.103686      1.160571      0.432113
  B       0.344251      0.389992     -1.115336
  B      -0.356095     -0.489365      1.066330
  B       1.038356      0.034833      0.310125
  B      -1.025142      0.066464     -0.330409
6
Coordinates from ORCA-job B6_random_3d_seed1001_d2.00_q0_m1_R2SCAN-3C E -148.659439778532
  B       0.105850     -1.165458     -0.383106
  B      -0.111779      1.169612      0.443122
  B       0.351466      0.387157     -1.128171
  B      -0.351047     -0.472512      1.080558
  B       1.037026      0.022228      0.317408
  B      -1.031517      0.058973     -0.329812
6
Coordinates from ORCA-job B6_random_3d_seed1001_d2.00_q0_m1_R2SCAN-3C E -148.659576441794
  B       0.105250     -1.163803     -0.394178
  B      -0.115692      1.169943      0.446252
  B       0.355819      0.385647     -1.129400
  B      -0.349323     -0.461044      1.085168
  B       1.033578      0.016970      0.318380
  B      -1.029633      0.052286     -0.326222
6
Coordinates from ORCA-job B6_random_3d_seed1001_d2.00_q0_m1_R2SCAN-3C E -148.659620570694
  B       0.105021     -1.165377     -0.398300
  B      -0.117018      1.169327      0.444460
  B       0.357709      0.387984     -1.127847
  B      -0.349198     -0.457745      1.089682
  B       1.033894      0.015137      0.317869
  B      -1.030408      0.050674     -0.325863
6
Coordinates from ORCA-job B6_random_3d_seed1001_d2.00_q0_m1_R2SCAN-3C E -148.659670220373
  B       0.104230     -1.166053     -0.402798
  B      -0.117979      1.167323      0.439852
  B       0.359199      0.393171     -1.124053
  B      -0.348612     -0.452780      1.094979
  B       1.033755      0.011317      0.317531
  B      -1.030593      0.047022     -0.325512
6
Coordinates from ORCA-job B6_random_3d_seed1001_d2.00_q0_m1_R2SCAN-3C E -148.659741573869
  B       0.103116     -1.165980     -0.408445
  B      -0.117956      1.163928      0.430164
  B       0.360204      0.404709     -1.117039
  B      -0.348070     -0.444459      1.102550
  B       1.033886      0.002963      0.317771
  B      -1.031181      0.038839     -0.325001
6
Coordinates from ORCA-job B6_random_3d_seed1001_d2.00_q0_m1_R2SCAN-3C E -148.659803548078
  B       0.103023     -1.164577     -0.413268
  B      -0.116130      1.160963      0.418875
  B       0.359634      0.419408     -1.109776
  B      -0.348269     -0.434692      1.109240
  B       1.034054     -0.008639      0.319110
  B      -1.032313      0.027538     -0.324181
6
Coordinates from ORCA-job B6_random_3d_seed1001_d2.00_q0_m1_R2SCAN-3C E -148.659837305884
  B       0.104581     -1.163171     -0.414394
  B      -0.113539      1.160816      0.414092
  B       0.357672      0.427179     -1.107569
  B      -0.349607     -0.429782      1.110564
  B       1.034282     -0.015761      0.320678
  B      -1.033390      0.020719     -0.323371
6
Coordinates from ORCA-job B6_random_3d_seed1001_d2.00_q0_m1_R2SCAN-3C E -148.659852981410
  B       0.106798     -1.162501     -0.413258
  B      -0.110894      1.162194      0.414363
  B       0.355180      0.428744     -1.108636
  B      -0.351493     -0.429069      1.108638
  B       1.034600     -0.017927      0.321869
  B      -1.034191      0.018559     -0.322976
6
Coordinates from ORCA-job B6_random_3d_seed1001_d2.00_q0_m1_R2SCAN-3C E -148.659854921398
  B       0.107660     -1.162616     -0.413011
  B      -0.109844      1.162538      0.414898
  B       0.354125      0.428461     -1.108891
  B      -0.352293     -0.429134      1.107974
  B       1.034655     -0.017754      0.322085
  B      -1.034303      0.018505     -0.323055
6
Coordinates from ORCA-job B6_random_3d_seed1001_d2.00_q0_m1_R2SCAN-3C E -148.659855819201
  B       0.108427     -1.162840     -0.413316
  B      -0.109066      1.162616      0.415123
  B       0.353290      0.428312     -1.108725
  B      -0.352953     -0.428762      1.107820
  B       1.034572     -0.017718      0.322171
  B      -1.034270      0.018392     -0.323074
6
Coordinates from ORCA-job B6_random_3d_seed1001_d2.00_q0_m1_R2SCAN-3C E -148.659856041005
  B       0.108735     -1.163019     -0.413787
  B      -0.108868      1.162626      0.415061
  B       0.353052      0.428363     -1.108466
  B      -0.353169     -0.428332      1.108016
  B       1.034471     -0.017864      0.322188
  B      -1.034221      0.018227     -0.323011
6
Coordinates from ORCA-job B6_random_3d_seed1001_d2.00_q0_m1_R2SCAN-3C E -148.659856087946
  B       0.108815     -1.163103     -0.414167
  B      -0.108865      1.162655      0.414857
  B       0.353041      0.428568     -1.108250
  B      -0.353203     -0.427987      1.108250
  B       1.034413     -0.018120      0.322227
  B      -1.034200      0.017986     -0.322917
