6
Coordinates from ORCA-job B6_random_3d_seed1001_d2.00_q0_m1_R2SCAN-3C E -148.659856087946
  B           0.10881514623161     -1.16310297589972     -0.41416657571686
  B          -0.10886507490421      1.16265498629848      0.41485668318881
  B           0.35304058253107      0.42856841469880     -1.10825013556280
  B          -0.35320311824047     -0.42798667583918      1.10824961642209
  B           1.03441291264870     -0.01811998022888      0.32222726214779
  B          -1.03420044826671      0.01798623097050     -0.32291686047902
