6
Coordinates from ORCA-job B6_planar_ring_d2.50_q0_m3_R2SCAN-3C E -148.743337426637
  B           2.03781552654679     -0.10624226867250     -0.00929008241386
  B           0.64784504205371      0.68527190495436     -0.02573062036764
  B          -0.88501537924553      1.09484467128246     -0.02875369434333
  B          -2.03763388422266      0.10466857401390      0.00923401756299
  B          -0.64798120557997     -0.68703501715086      0.02571652023602
  B           0.88496990044766     -1.09628404146273      0.02882385932583
