6
Coordinates from ORCA-job B6_planar_ring_d2.50_q0_m3_R2SCAN-3C E -148.092029652793
  B       2.500000     -0.000000      0.000000
  B       1.250000      2.165064      0.000000
  B      -1.250000      2.165064      0.000000
  B      -2.500000      0.000000      0.000000
  B      -1.250000     -2.165064      0.000000
  B       1.250000     -2.165064      0.000000
6
Coordinates from ORCA-job B6_planar_ring_d2.50_q0_m3_R2SCAN-3C E -148.122339267350
  B       2.424771     -0.000000      0.000000
  B       1.211027      2.120133     -0.000000
  B      -1.211027      2.120133      0.000000
  B      -2.424770      0.000000     -0.000000
  B      -1.211027     -2.120133      0.000000
  B       1.211027     -2.120133     -0.000000
6
Coordinates from ORCA-job B6_planar_ring_d2.50_q0_m3_R2SCAN-3C E -148.154841206838
  B       2.351183     -0.000000      0.000000
  B       1.171926      2.074322     -0.000000
  B      -1.171927      2.074322     -0.000000
  B      -2.351182      0.000000     -0.000000
  B      -1.171927     -2.074322      0.000000
  B       1.171927     -2.074322     -0.000000
6
Coordinates from ORCA-job B6_planar_ring_d2.50_q0_m3_R2SCAN-3C E -148.207697527174
  B       2.244639      0.000000      0.000000
  B       1.113149      2.003454     -0.000000
  B      -1.113149      2.003455      0.000000
  B      -2.244637     -0.000001     -0.000000
  B      -1.113149     -2.003455      0.000000
  B       1.113148     -2.003454     -0.000000
6
Coordinates from ORCA-job B6_planar_ring_d2.50_q0_m3_R2SCAN-3C E -148.290314101407
  B       2.101290      0.000001     -0.000000
  B       1.033776      1.892233     -0.000000
  B      -1.033768      1.892242      0.000000
  B      -2.101298     -0.000005     -0.000000
  B      -1.033772     -1.892242      0.000000
  B       1.033772     -1.892230      0.000000
6
Coordinates from ORCA-job B6_planar_ring_d2.50_q0_m3_R2SCAN-3C E -148.381868431092
  B       1.965776     -0.000000     -0.000000
  B       0.954397      1.768074     -0.000000
  B      -0.954394      1.768081      0.000000
  B      -1.965777     -0.000005     -0.000000
  B      -0.954397     -1.768080     -0.000000
  B       0.954394     -1.768071      0.000000
6
Coordinates from ORCA-job B6_planar_ring_d2.50_q0_m3_R2SCAN-3C E -148.468868738139
  B       1.833224     -0.000001     -0.000000
  B       0.875021      1.631677     -0.000000
  B      -0.875017      1.631685      0.000000
  B      -1.833226     -0.000005     -0.000000
  B      -0.875019     -1.631683      0.000000
  B       0.875018     -1.631674      0.000000
6
Coordinates from ORCA-job B6_planar_ring_d2.50_q0_m3_R2SCAN-3C E -148.524838639938
  B       1.738895     -0.000002     -0.000000
  B       0.834054      1.478577     -0.000000
  B      -0.834051      1.478586      0.000000
  B      -1.738897     -0.000006     -0.000000
  B      -0.834047     -1.478582      0.000000
  B       0.834046     -1.478573      0.000000
6
Coordinates from ORCA-job B6_planar_ring_d2.50_q0_m3_R2SCAN-3C E -148.529277802324
  B       1.679101      0.000001      0.000000
  B       0.854005      1.341256     -0.000000
  B      -0.854004      1.341267      0.000000
  B      -1.679100     -0.000003     -0.000000
  B      -0.854014     -1.341265      0.000000
  B       0.854013     -1.341256     -0.000000
6
Coordinates from ORCA-job B6_planar_ring_d2.50_q0_m3_R2SCAN-3C E -148.654765579599
  B       1.636461     -0.000007      0.000006
  B       0.782481      1.385396     -0.000005
  B      -0.782501      1.385399      0.000005
  B      -1.636444      0.000011     -0.000006
  B      -0.782477     -1.385400      0.000005
  B       0.782480     -1.385399     -0.000005
6
Coordinates from ORCA-job B6_planar_ring_d2.50_q0_m3_R2SCAN-3C E -148.642820651040
  B       1.538010      0.000003      0.000105
  B       0.711680      1.349028     -0.000063
  B      -0.711668      1.349037     -0.000030
  B      -1.537994     -0.000035      0.000081
  B      -0.711688     -1.349020     -0.000039
  B       0.711660     -1.349014     -0.000054
6
Coordinates from ORCA-job B6_planar_ring_d2.50_q0_m3_R2SCAN-3C E -148.665507899863
  B       1.565451     -0.000005      0.000119
  B       0.764411      1.324057     -0.000072
  B      -0.764414      1.324067     -0.000035
  B      -1.565436     -0.000017      0.000094
  B      -0.764409     -1.324055     -0.000046
  B       0.764396     -1.324047     -0.000061
6
Coordinates from ORCA-job B6_planar_ring_d2.50_q0_m3_R2SCAN-3C E -148.666040788209
  B       1.576093      0.000049      0.000305
  B       0.773328      1.331272     -0.000171
  B      -0.773386      1.331323     -0.000121
  B      -1.576130      0.000175      0.000279
  B      -0.773441     -1.331433     -0.000144
  B       0.773536     -1.331385     -0.000148
6
Coordinates from ORCA-job B6_planar_ring_d2.50_q0_m3_R2SCAN-3C E -148.666084524248
  B       1.572063     -0.000064      0.000582
  B       0.777073      1.331053     -0.000318
  B      -0.775789      1.330628     -0.000248
  B      -1.571547     -0.002665      0.000548
  B      -0.776025     -1.329269     -0.000282
  B       0.774226     -1.329683     -0.000283
6
Coordinates from ORCA-job B6_planar_ring_d2.50_q0_m3_R2SCAN-3C E -148.664711853203
  B       1.560919     -0.007350      0.001408
  B       0.767528      1.323259     -0.000758
  B      -0.786492      1.326099     -0.000618
  B      -1.564024      0.027407      0.001361
  B      -0.770902     -1.336142     -0.000714
  B       0.792972     -1.333272     -0.000678
6
Coordinates from ORCA-job B6_planar_ring_d2.50_q0_m3_R2SCAN-3C E -148.666004019243
  B       1.566744      0.006541      0.001289
  B       0.774699      1.329073     -0.000693
  B      -0.770244      1.331794     -0.000577
  B      -1.569955      0.001631      0.001251
  B      -0.780219     -1.335927     -0.000651
  B       0.778976     -1.333112     -0.000619
6
Coordinates from ORCA-job B6_planar_ring_d2.50_q0_m3_R2SCAN-3C E -148.656798477147
  B       1.592132     -0.061081      0.002204
  B       0.786409      1.373739     -0.001199
  B      -0.817698      1.346378     -0.001039
  B      -1.561498     -0.033092      0.002115
  B      -0.737441     -1.300259     -0.001068
  B       0.738096     -1.325686     -0.001013
6
Coordinates from ORCA-job B6_planar_ring_d2.50_q0_m3_R2SCAN-3C E -148.665995266238
  B       1.573157     -0.005485      0.002823
  B       0.773648      1.339599     -0.001489
  B      -0.779153      1.333225     -0.001243
  B      -1.565873     -0.001957      0.002766
  B      -0.776466     -1.329539     -0.001471
  B       0.774688     -1.335843     -0.001386
6
Coordinates from ORCA-job B6_planar_ring_d2.50_q0_m3_R2SCAN-3C E -148.655459500941
  B       1.535645      0.028768      0.006506
  B       0.825886      1.299168     -0.003359
  B      -0.784557      1.350116     -0.003150
  B      -1.593104      0.005569      0.006806
  B      -0.737782     -1.365528     -0.003578
  B       0.753912     -1.318094     -0.003226
6
Coordinates from ORCA-job B6_planar_ring_d2.50_q0_m3_R2SCAN-3C E -148.665820909316
  B       1.557702     -0.005124      0.007454
  B       0.778622      1.330433     -0.003873
  B      -0.773219      1.343443     -0.003595
  B      -1.573147     -0.001024      0.007434
  B      -0.770956     -1.340556     -0.003927
  B       0.780999     -1.327172     -0.003494
6
Coordinates from ORCA-job B6_planar_ring_d2.50_q0_m3_R2SCAN-3C E -148.658114713154
  B       1.603678      0.031003      0.011356
  B       0.768340      1.358746     -0.005673
  B      -0.793374      1.292536     -0.005011
  B      -1.526975      0.008977      0.010354
  B      -0.794014     -1.313236     -0.005642
  B       0.742345     -1.378026     -0.005384
6
Coordinates from ORCA-job B6_planar_ring_d2.50_q0_m3_R2SCAN-3C E -148.666091540906
  B       1.567275      0.003779      0.015365
  B       0.775594      1.338500     -0.008134
  B      -0.775798      1.334123     -0.007322
  B      -1.562160     -0.000242      0.015264
  B      -0.777764     -1.335801     -0.007621
  B       0.772853     -1.340358     -0.007553
6
Coordinates from ORCA-job B6_planar_ring_d2.50_q0_m3_R2SCAN-3C E -148.666330009480
  B       1.559320     -0.000694      0.039395
  B       0.775476      1.335795     -0.020439
  B      -0.775336      1.336723     -0.019120
  B      -1.560405      0.000065      0.039276
  B      -0.775414     -1.336379     -0.019616
  B       0.776359     -1.335510     -0.019497
6
Coordinates from ORCA-job B6_planar_ring_d2.50_q0_m3_R2SCAN-3C E -148.666562220807
  B       1.520583     -0.016104      0.140280
  B       0.775034      1.322354     -0.071832
  B      -0.773883      1.341487     -0.070302
  B      -1.542677      0.001081      0.142989
  B      -0.766796     -1.334115     -0.072883
  B       0.787739     -1.314704     -0.068252
6
Coordinates from ORCA-job B6_planar_ring_d2.50_q0_m3_R2SCAN-3C E -148.667061199530
  B       1.542963     -0.011140      0.107199
  B       0.774007      1.325985     -0.053245
  B      -0.775907      1.338925     -0.059322
  B      -1.556558      0.001974      0.117293
  B      -0.768240     -1.332331     -0.062266
  B       0.783736     -1.323414     -0.049660
6
Coordinates from ORCA-job B6_planar_ring_d2.50_q0_m3_R2SCAN-3C E -148.668064684510
  B       1.558900     -0.012589      0.124721
  B       0.769448      1.315755     -0.055012
  B      -0.778899      1.329130     -0.087917
  B      -1.568711      0.004604      0.160840
  B      -0.764961     -1.317262     -0.090918
  B       0.784223     -1.319638     -0.051713
6
Coordinates from ORCA-job B6_planar_ring_d2.50_q0_m3_R2SCAN-3C E -148.669382608482
  B       1.574723     -0.016059      0.153446
  B       0.762607      1.297938     -0.052935
  B      -0.782986      1.311824     -0.132391
  B      -1.579612      0.009138      0.217444
  B      -0.761112     -1.293664     -0.117990
  B       0.786380     -1.309177     -0.067574
6
Coordinates from ORCA-job B6_planar_ring_d2.50_q0_m3_R2SCAN-3C E -148.671503666876
  B       1.599678     -0.022231      0.179338
  B       0.750331      1.269284     -0.037978
  B      -0.791185      1.292227     -0.180818
  B      -1.599298      0.019886      0.259518
  B      -0.752921     -1.262522     -0.120144
  B       0.793396     -1.296645     -0.099915
6
Coordinates from ORCA-job B6_planar_ring_d2.50_q0_m3_R2SCAN-3C E -148.675679028425
  B       1.628851     -0.034024      0.194035
  B       0.730943      1.228247     -0.030866
  B      -0.812340      1.287880     -0.202547
  B      -1.625072      0.034878      0.273214
  B      -0.733834     -1.221204     -0.110963
  B       0.811452     -1.295777     -0.122873
6
Coordinates from ORCA-job B6_planar_ring_d2.50_q0_m3_R2SCAN-3C E -148.680302323021
  B       1.650269     -0.045067      0.202920
  B       0.714939      1.193970     -0.027947
  B      -0.832055      1.284271     -0.213649
  B      -1.643045      0.047886      0.279893
  B      -0.718965     -1.185603     -0.105245
  B       0.828856     -1.295456     -0.135973
6
Coordinates from ORCA-job B6_planar_ring_d2.50_q0_m3_R2SCAN-3C E -148.685491134789
  B       1.673110     -0.055365      0.211608
  B       0.700057      1.157338     -0.025984
  B      -0.849916      1.276897     -0.223583
  B      -1.662606      0.059798      0.286255
  B      -0.705599     -1.148203     -0.100147
  B       0.844953     -1.290465     -0.148149
6
Coordinates from ORCA-job B6_planar_ring_d2.50_q0_m3_R2SCAN-3C E -148.690780878925
  B       1.697580     -0.063964      0.219959
  B       0.686837      1.118813     -0.024781
  B      -0.864701      1.265653     -0.232461
  B      -1.684070      0.069833      0.292281
  B      -0.694066     -1.109642     -0.095538
  B       0.858418     -1.280694     -0.159460
6
Coordinates from ORCA-job B6_planar_ring_d2.50_q0_m3_R2SCAN-3C E -148.698630969701
  B       1.734525     -0.076017      0.230178
  B       0.668856      1.057189     -0.023106
  B      -0.886757      1.245043     -0.243300
  B      -1.716245      0.083940      0.298882
  B      -0.678839     -1.048249     -0.088752
  B       0.878459     -1.261906     -0.173902
6
Coordinates from ORCA-job B6_planar_ring_d2.50_q0_m3_R2SCAN-3C E -148.708967089492
  B       1.785931     -0.091313      0.245845
  B       0.639934      0.963260     -0.020131
  B      -0.913946      1.214832     -0.260563
  B      -1.762517      0.102056      0.308846
  B      -0.652781     -0.955848     -0.076701
  B       0.903377     -1.232987     -0.197296
6
Coordinates from ORCA-job B6_planar_ring_d2.50_q0_m3_R2SCAN-3C E -148.720322288912
  B       1.850490     -0.106069      0.269955
  B       0.589377      0.825290     -0.015681
  B      -0.940034      1.178849     -0.287298
  B      -1.823139      0.120774      0.322942
  B      -0.603740     -0.822604     -0.054479
  B       0.927046     -1.196239     -0.235440
6
Coordinates from ORCA-job B6_planar_ring_d2.50_q0_m3_R2SCAN-3C E -147.887193243968
  B       2.130023     -0.180924      0.128389
  B       0.654497      0.134701      0.012996
  B      -1.067022      0.804766     -0.160271
  B      -2.051234      0.184881      0.114976
  B      -0.724064     -0.148966      0.072598
  B       1.057802     -0.794459     -0.168689
6
Coordinates from ORCA-job B6_planar_ring_d2.50_q0_m3_R2SCAN-3C E -148.547558114544
  B       2.168781     -0.166478      0.136850
  B       0.587468      0.293454      0.037299
  B      -1.067243      0.963520     -0.203139
  B      -2.119480      0.165660      0.127864
  B      -0.652102     -0.307719      0.102316
  B       1.082576     -0.953213     -0.201190
6
Coordinates from ORCA-job B6_planar_ring_d2.50_q0_m3_R2SCAN-3C E -148.597930027950
  B       2.204640     -0.159490      0.134264
  B       0.610353      0.319866      0.033386
  B      -1.076293      1.003677     -0.199072
  B      -2.162295      0.156644      0.126595
  B      -0.669934     -0.332466      0.100212
  B       1.093529     -0.993007     -0.195385
6
Coordinates from ORCA-job B6_planar_ring_d2.50_q0_m3_R2SCAN-3C E -148.637845085830
  B       2.222487     -0.148908      0.139782
  B       0.627215      0.354905      0.027444
  B      -1.070035      1.044640     -0.201898
  B      -2.186473      0.139856      0.132275
  B      -0.681646     -0.362731      0.099174
  B       1.088452     -1.032538     -0.196778
6
Coordinates from ORCA-job B6_planar_ring_d2.50_q0_m3_R2SCAN-3C E -148.665269288150
  B       2.218823     -0.132087      0.143519
  B       0.633203      0.393257      0.020965
  B      -1.042518      1.078965     -0.202128
  B      -2.191367      0.118471      0.135573
  B      -0.681409     -0.396244      0.098323
  B       1.063267     -1.067139     -0.196252
6
Coordinates from ORCA-job B6_planar_ring_d2.50_q0_m3_R2SCAN-3C E -148.683101189078
  B       2.200169     -0.119236      0.143028
  B       0.636074      0.434572      0.009283
  B      -1.011710      1.104186     -0.193077
  B      -2.180815      0.097347      0.134327
  B      -0.673156     -0.429597      0.092258
  B       1.029438     -1.092049     -0.185819
6
Coordinates from ORCA-job B6_planar_ring_d2.50_q0_m3_R2SCAN-3C E -148.713436269038
  B       2.118035     -0.090576      0.133482
  B       0.633572      0.549989     -0.036212
  B      -0.918659      1.155521     -0.146960
  B      -2.119003      0.040358      0.121451
  B      -0.629346     -0.521642      0.062883
  B       0.915401     -1.138427     -0.134644
6
Coordinates from ORCA-job B6_planar_ring_d2.50_q0_m3_R2SCAN-3C E -148.722300172441
  B       2.097666     -0.100705      0.098386
  B       0.635095      0.579904     -0.044923
  B      -0.911647      1.154756     -0.106941
  B      -2.104736      0.032951      0.087438
  B      -0.615178     -0.534331      0.055766
  B       0.898800     -1.137351     -0.089726
6
Coordinates from ORCA-job B6_planar_ring_d2.50_q0_m3_R2SCAN-3C E -148.732429600959
  B       2.048678     -0.127607      0.076196
  B       0.634761      0.625389     -0.070195
  B      -0.911929      1.138171     -0.062623
  B      -2.069556      0.031010      0.061209
  B      -0.581700     -0.546053      0.040393
  B       0.879746     -1.125686     -0.044980
6
Coordinates from ORCA-job B6_planar_ring_d2.50_q0_m3_R2SCAN-3C E -148.727535096471
  B       1.954869     -0.182456      0.025271
  B       0.639588      0.723276     -0.094901
  B      -0.921230      1.085399      0.005382
  B      -2.008311      0.040580      0.015769
  B      -0.522210     -0.560309      0.012254
  B       0.857293     -1.111266      0.036225
6
Coordinates from ORCA-job B6_planar_ring_d2.50_q0_m3_R2SCAN-3C E -148.736163090427
  B       2.005010     -0.151945      0.028853
  B       0.639845      0.683907     -0.085267
  B      -0.922847      1.100848     -0.006273
  B      -2.045335      0.049575      0.023201
  B      -0.557048     -0.555121      0.012405
  B       0.880375     -1.132040      0.027081
6
Coordinates from ORCA-job B6_planar_ring_d2.50_q0_m3_R2SCAN-3C E -148.738052459092
  B       2.012511     -0.131826      0.031881
  B       0.637089      0.676132     -0.079266
  B      -0.910319      1.104212     -0.015329
  B      -2.051545      0.058239      0.030662
  B      -0.568066     -0.571500      0.009880
  B       0.880330     -1.140033      0.022172
6
Coordinates from ORCA-job B6_planar_ring_d2.50_q0_m3_R2SCAN-3C E -148.740172817864
  B       2.025016     -0.104082      0.026361
  B       0.632705      0.661362     -0.065855
  B      -0.900140      1.095355     -0.023438
  B      -2.062380      0.088680      0.036651
  B      -0.591149     -0.598957      0.000956
  B       0.895948     -1.147134      0.025325
6
Coordinates from ORCA-job B6_planar_ring_d2.50_q0_m3_R2SCAN-3C E -148.741068469340
  B       2.024338     -0.091927      0.023349
  B       0.630316      0.665096     -0.060997
  B      -0.892147      1.086488     -0.025709
  B      -2.060300      0.108118      0.041229
  B      -0.601963     -0.624762     -0.008634
  B       0.899757     -1.147789      0.030761
6
Coordinates from ORCA-job B6_planar_ring_d2.50_q0_m3_R2SCAN-3C E -148.741641909736
  B       2.025844     -0.091729      0.022642
  B       0.631097      0.670960     -0.058661
  B      -0.891473      1.080904     -0.027554
  B      -2.057616      0.118649      0.044036
  B      -0.610201     -0.642142     -0.013067
  B       0.902349     -1.141419      0.032605
6
Coordinates from ORCA-job B6_planar_ring_d2.50_q0_m3_R2SCAN-3C E -148.742245623408
  B       2.028851     -0.097943      0.024772
  B       0.634952      0.680621     -0.057104
  B      -0.891605      1.079781     -0.031429
  B      -2.053292      0.122000      0.046782
  B      -0.619715     -0.660690     -0.012616
  B       0.900809     -1.128546      0.029594
6
Coordinates from ORCA-job B6_planar_ring_d2.50_q0_m3_R2SCAN-3C E -148.742771023253
  B       2.034237     -0.106006      0.027337
  B       0.641352      0.688237     -0.054724
  B      -0.891208      1.084355     -0.036294
  B      -2.048985      0.117880      0.047164
  B      -0.631587     -0.677122     -0.006116
  B       0.896191     -1.112119      0.022634
6
Coordinates from ORCA-job B6_planar_ring_d2.50_q0_m3_R2SCAN-3C E -148.743075445086
  B       2.038616     -0.109867      0.026107
  B       0.647215      0.690577     -0.051323
  B      -0.888994      1.091276     -0.038197
  B      -2.044782      0.110524      0.043180
  B      -0.642399     -0.687586      0.002404
  B       0.890345     -1.099702      0.017828
6
Coordinates from ORCA-job B6_planar_ring_d2.50_q0_m3_R2SCAN-3C E -148.743203765489
  B       2.039485     -0.109081      0.020158
  B       0.650222      0.689388     -0.048011
  B      -0.886513      1.095518     -0.035388
  B      -2.041183      0.105491      0.035903
  B      -0.648255     -0.690983      0.008199
  B       0.886243     -1.095109      0.019139
6
Coordinates from ORCA-job B6_planar_ring_d2.50_q0_m3_R2SCAN-3C E -148.743266376882
  B       2.038240     -0.106692      0.011796
  B       0.651155      0.687341     -0.044975
  B      -0.884700      1.096733     -0.030015
  B      -2.038304      0.103300      0.027299
  B      -0.650477     -0.690635      0.011714
  B       0.884086     -1.094823      0.024181
6
Coordinates from ORCA-job B6_planar_ring_d2.50_q0_m3_R2SCAN-3C E -148.743290542346
  B       2.036971     -0.105119      0.005288
  B       0.650724      0.686101     -0.042801
  B      -0.884027      1.095719     -0.025683
  B      -2.036964      0.103515      0.020995
  B      -0.650430     -0.689207      0.013493
  B       0.883726     -1.095785      0.028708
6
Coordinates from ORCA-job B6_planar_ring_d2.50_q0_m3_R2SCAN-3C E -148.743301407549
  B       2.036682     -0.104797      0.001457
  B       0.650028      0.685762     -0.041142
  B      -0.883886      1.094364     -0.023463
  B      -2.036655      0.104275      0.017160
  B      -0.650036     -0.688351      0.015077
  B       0.883867     -1.096029      0.030911
6
Coordinates from ORCA-job B6_planar_ring_d2.50_q0_m3_R2SCAN-3C E -148.743310476021
  B       2.037161     -0.105130     -0.001740
  B       0.649249      0.685664     -0.039092
  B      -0.883865      1.093034     -0.022170
  B      -2.036859      0.104972      0.013573
  B      -0.649703     -0.687745      0.017676
  B       0.884017     -1.095571      0.031752
6
Coordinates from ORCA-job B6_planar_ring_d2.50_q0_m3_R2SCAN-3C E -148.743317587417
  B       2.038167     -0.105773     -0.003842
  B       0.648646      0.685520     -0.036935
  B      -0.883921      1.092281     -0.022007
  B      -2.037525      0.105265      0.010756
  B      -0.649469     -0.687306      0.020930
  B       0.884101     -1.094762      0.031098
6
Coordinates from ORCA-job B6_planar_ring_d2.50_q0_m3_R2SCAN-3C E -148.743322565940
  B       2.039096     -0.106372     -0.004724
  B       0.648361      0.685252     -0.035060
  B      -0.884082      1.092267     -0.022792
  B      -2.038338      0.105137      0.009129
  B      -0.649193     -0.686934      0.023978
  B       0.884155     -1.094127      0.029469
6
Coordinates from ORCA-job B6_planar_ring_d2.50_q0_m3_R2SCAN-3C E -148.743325908005
  B       2.039421     -0.106569     -0.004939
  B       0.648340      0.684941     -0.033664
  B      -0.884259      1.092739     -0.023872
  B      -2.038872      0.104898      0.008525
  B      -0.648876     -0.686721      0.025991
  B       0.884247     -1.094064      0.027959
6
Coordinates from ORCA-job B6_planar_ring_d2.50_q0_m3_R2SCAN-3C E -148.743329205917
  B       2.039161     -0.106455     -0.005210
  B       0.648417      0.684669     -0.032120
  B      -0.884474      1.093505     -0.025152
  B      -2.039099      0.104711      0.008242
  B      -0.648439     -0.686674      0.027553
  B       0.884434     -1.094531      0.026688
6
Coordinates from ORCA-job B6_planar_ring_d2.50_q0_m3_R2SCAN-3C E -148.743332118044
  B       2.038393     -0.106128     -0.005874
  B       0.648466      0.684636     -0.030519
  B      -0.884685      1.094273     -0.026233
  B      -2.038863      0.104721      0.008070
  B      -0.648021     -0.686884      0.028363
  B       0.884710     -1.095395      0.026193
6
Coordinates from ORCA-job B6_planar_ring_d2.50_q0_m3_R2SCAN-3C E -148.743334165476
  B       2.037518     -0.105785     -0.006948
  B       0.648378      0.684884     -0.028994
  B      -0.884837      1.094830     -0.026928
  B      -2.038274      0.104899      0.007875
  B      -0.647790     -0.687287      0.028474
  B       0.885004     -1.096317      0.026521
6
Coordinates from ORCA-job B6_planar_ring_d2.50_q0_m3_R2SCAN-3C E -148.743335213820
  B       2.037165     -0.105735     -0.007705
  B       0.648206      0.685251     -0.028271
  B      -0.884913      1.094990     -0.027096
  B      -2.037778      0.105018      0.007874
  B      -0.647826     -0.687558      0.027979
  B       0.885146     -1.096741      0.027219
6
Coordinates from ORCA-job B6_planar_ring_d2.50_q0_m3_R2SCAN-3C E -148.743335912195
  B       2.037241     -0.105899     -0.008137
  B       0.647992      0.685532     -0.027881
  B      -0.884979      1.094999     -0.027197
  B      -2.037498      0.104993      0.008009
  B      -0.647946     -0.687580      0.027448
  B       0.885190     -1.096820      0.027758
6
Coordinates from ORCA-job B6_planar_ring_d2.50_q0_m3_R2SCAN-3C E -148.743336420499
  B       2.037439     -0.106181     -0.009022
  B       0.647676      0.685936     -0.026963
  B      -0.885044      1.095148     -0.027492
  B      -2.037074      0.104783      0.008160
  B      -0.648135     -0.687576      0.026691
  B       0.885139     -1.096885      0.028626
6
Coordinates from ORCA-job B6_planar_ring_d2.50_q0_m3_R2SCAN-3C E -148.743336690493
  B       2.037654     -0.106234     -0.008834
  B       0.647683      0.685766     -0.026924
  B      -0.885079      1.095126     -0.027720
  B      -2.037264      0.104734      0.008384
  B      -0.648140     -0.687418      0.026665
  B       0.885147     -1.096751      0.028430
6
Coordinates from ORCA-job B6_planar_ring_d2.50_q0_m3_R2SCAN-3C E -148.743337071506
  B       2.038155     -0.106375     -0.008170
  B       0.647696      0.685236     -0.026634
  B      -0.885156      1.095043     -0.028749
  B      -2.037798      0.104555      0.009446
  B      -0.647992     -0.686855      0.026285
  B       0.885095     -1.096380      0.027822
6
Coordinates from ORCA-job B6_planar_ring_d2.50_q0_m3_R2SCAN-3C E -148.743337220475
  B       2.038036     -0.106335     -0.008564
  B       0.647719      0.685289     -0.026386
  B      -0.885110      1.095025     -0.028652
  B      -2.037662      0.104568      0.009246
  B      -0.648028     -0.686950      0.026220
  B       0.885045     -1.096374      0.028136
6
Coordinates from ORCA-job B6_planar_ring_d2.50_q0_m3_R2SCAN-3C E -148.743337394490
  B       2.037828     -0.106244     -0.009364
  B       0.647799      0.685288     -0.025732
  B      -0.885024      1.094906     -0.028649
  B      -2.037544      0.104636      0.009034
  B      -0.648024     -0.687048      0.025921
  B       0.884965     -1.096314      0.028790
6
Coordinates from ORCA-job B6_planar_ring_d2.50_q0_m3_R2SCAN-3C E -148.743337426637
  B       2.037816     -0.106242     -0.009290
  B       0.647845      0.685272     -0.025731
  B      -0.885015      1.094845     -0.028754
  B      -2.037634      0.104669      0.009234
  B      -0.647981     -0.687035      0.025717
  B       0.884970     -1.096284      0.028824
