6
Coordinates from ORCA-job B6_random_3d_seed1000_d2.20_q0_m3_R2SCAN-3C E -148.347703812994
  B       0.672779     -0.697438      1.381913
  B       1.755413     -0.196714     -0.496730
  B      -0.037105     -1.604077     -0.604332
  B      -0.749191      0.786207      1.173302
  B      -0.106844      1.668577     -0.743057
  B      -1.535052      0.043445     -0.711097
6
Coordinates from ORCA-job B6_random_3d_seed1000_d2.20_q0_m3_R2SCAN-3C E -148.381035171877
  B       0.652154     -0.671450      1.350867
  B       1.723443     -0.199389     -0.483492
  B      -0.042410     -1.565090     -0.595230
  B      -0.726098      0.762262      1.146613
  B      -0.112912      1.634150     -0.725239
  B      -1.494177      0.039517     -0.693520
6
Coordinates from ORCA-job B6_random_3d_seed1000_d2.20_q0_m3_R2SCAN-3C E -148.414790831946
  B       0.631996     -0.645672      1.320093
  B       1.691882     -0.202755     -0.470172
  B      -0.047924     -1.525470     -0.586350
  B      -0.703079      0.738887      1.120187
  B      -0.120023      1.599367     -0.707285
  B      -1.452851      0.035643     -0.676473
6
Coordinates from ORCA-job B6_random_3d_seed1000_d2.20_q0_m3_R2SCAN-3C E -148.465297159838
  B       0.603909     -0.608856      1.273912
  B       1.643360     -0.208782     -0.449853
  B      -0.055573     -1.464170     -0.572753
  B      -0.669723      0.705971      1.080896
  B      -0.131168      1.546418     -0.680096
  B      -1.390805      0.029419     -0.652106
6
Coordinates from ORCA-job B6_random_3d_seed1000_d2.20_q0_m3_R2SCAN-3C E -148.535209407905
  B       0.569379     -0.555219      1.203890
  B       1.575647     -0.230761     -0.413724
  B      -0.065042     -1.368612     -0.553915
  B      -0.621653      0.659988      1.022624
  B      -0.161352      1.470450     -0.640311
  B      -1.296979      0.024154     -0.618564
6
Coordinates from ORCA-job B6_random_3d_seed1000_d2.20_q0_m3_R2SCAN-3C E -148.593086581127
  B       0.561809     -0.517528      1.127509
  B       1.506068     -0.267221     -0.363263
  B      -0.068008     -1.262798     -0.529384
  B      -0.585038      0.624541      0.959854
  B      -0.206423      1.393242     -0.602798
  B      -1.208409      0.029763     -0.591919
6
Coordinates from ORCA-job B6_random_3d_seed1000_d2.20_q0_m3_R2SCAN-3C E -148.627320544684
  B       0.591779     -0.479333      1.075779
  B       1.420252     -0.305328     -0.298900
  B      -0.081266     -1.151136     -0.517578
  B      -0.540707      0.587620      0.926577
  B      -0.249709      1.318466     -0.578363
  B      -1.140349      0.029712     -0.607515
6
Coordinates from ORCA-job B6_random_3d_seed1000_d2.20_q0_m3_R2SCAN-3C E -148.634122413181
  B       0.627586     -0.415524      1.079151
  B       1.324008     -0.356940     -0.283015
  B      -0.079764     -1.081884     -0.527515
  B      -0.508942      0.567541      0.929709
  B      -0.256120      1.298290     -0.531901
  B      -1.106768     -0.011483     -0.666429
6
Coordinates from ORCA-job B6_random_3d_seed1000_d2.20_q0_m3_R2SCAN-3C E -148.638569512382
  B       0.654022     -0.395140      1.106070
  B       1.331119     -0.400367     -0.307911
  B      -0.045514     -1.117020     -0.524583
  B      -0.530976      0.582825      0.917267
  B      -0.275538      1.309065     -0.491807
  B      -1.133114      0.020637     -0.699035
6
Coordinates from ORCA-job B6_random_3d_seed1000_d2.20_q0_m3_R2SCAN-3C E -148.641511261447
  B       0.675239     -0.366075      1.149586
  B       1.393508     -0.411177     -0.335025
  B      -0.104406     -1.128486     -0.533521
  B      -0.553472      0.566094      0.924839
  B      -0.272580      1.332757     -0.479113
  B      -1.138289      0.006888     -0.726766
6
Coordinates from ORCA-job B6_random_3d_seed1000_d2.20_q0_m3_R2SCAN-3C E -148.646003917213
  B       0.700398     -0.331044      1.141618
  B       1.373804     -0.451956     -0.321651
  B      -0.099263     -1.118229     -0.524113
  B      -0.550963      0.535002      0.919197
  B      -0.292352      1.350654     -0.463067
  B      -1.131624      0.015574     -0.751984
6
Coordinates from ORCA-job B6_random_3d_seed1000_d2.20_q0_m3_R2SCAN-3C E -148.649757650248
  B       0.738472     -0.316518      1.133514
  B       1.371925     -0.492589     -0.297919
  B      -0.101265     -1.095914     -0.508298
  B      -0.557490      0.501501      0.901945
  B      -0.324981      1.368055     -0.463571
  B      -1.126661      0.035465     -0.765671
6
Coordinates from ORCA-job B6_random_3d_seed1000_d2.20_q0_m3_R2SCAN-3C E -148.653553490945
  B       0.764298     -0.302077      1.134279
  B       1.384328     -0.535276     -0.283491
  B      -0.103323     -1.072502     -0.489197
  B      -0.558020      0.463950      0.880435
  B      -0.359937      1.389198     -0.465993
  B      -1.127347      0.056707     -0.776033
6
Coordinates from ORCA-job B6_random_3d_seed1000_d2.20_q0_m3_R2SCAN-3C E -148.659094396053
  B       0.798803     -0.290731      1.141173
  B       1.408453     -0.596222     -0.259948
  B      -0.104660     -1.026487     -0.458331
  B      -0.552142      0.402787      0.841393
  B      -0.416963      1.416002     -0.481741
  B      -1.133491      0.094651     -0.782546
6
Coordinates from ORCA-job B6_random_3d_seed1000_d2.20_q0_m3_R2SCAN-3C E -148.663661284567
  B       0.850534     -0.255933      1.128597
  B       1.409983     -0.688224     -0.216258
  B      -0.096989     -0.979744     -0.423106
  B      -0.541509      0.329759      0.786168
  B      -0.488505      1.472021     -0.471054
  B      -1.133514      0.122121     -0.804347
6
Coordinates from ORCA-job B6_random_3d_seed1000_d2.20_q0_m3_R2SCAN-3C E -148.672239658500
  B       0.889392     -0.246815      1.151000
  B       1.422627     -0.780553     -0.174405
  B      -0.080021     -0.912305     -0.412964
  B      -0.503867      0.275018      0.731999
  B      -0.585233      1.491965     -0.490741
  B      -1.142899      0.172690     -0.804889
6
Coordinates from ORCA-job B6_random_3d_seed1000_d2.20_q0_m3_R2SCAN-3C E -148.673411308064
  B       0.920343     -0.242038      1.169404
  B       1.436484     -0.858079     -0.141123
  B      -0.061975     -0.876145     -0.417537
  B      -0.475711      0.255818      0.701285
  B      -0.670541      1.505566     -0.500573
  B      -1.148599      0.214878     -0.811457
6
Coordinates from ORCA-job B6_random_3d_seed1000_d2.20_q0_m3_R2SCAN-3C E -148.679455928252
  B       0.922211     -0.231030      1.177959
  B       1.459382     -0.884861     -0.152668
  B      -0.051136     -0.931123     -0.448447
  B      -0.497807      0.305369      0.734322
  B      -0.688978      1.528387     -0.484541
  B      -1.143672      0.213258     -0.826626
6
Coordinates from ORCA-job B6_random_3d_seed1000_d2.20_q0_m3_R2SCAN-3C E -148.684826925880
  B       0.914835     -0.227656      1.164332
  B       1.466148     -0.890528     -0.150878
  B      -0.052835     -0.934123     -0.442037
  B      -0.504220      0.306463      0.720166
  B      -0.683067      1.562093     -0.469638
  B      -1.140860      0.183751     -0.821944
6
Coordinates from ORCA-job B6_random_3d_seed1000_d2.20_q0_m3_R2SCAN-3C E -148.689430705974
  B       0.918080     -0.232809      1.151368
  B       1.484702     -0.915044     -0.128141
  B      -0.058249     -0.929980     -0.446030
  B      -0.491630      0.323601      0.705187
  B      -0.712565      1.572487     -0.454081
  B      -1.140339      0.181745     -0.828301
6
Coordinates from ORCA-job B6_random_3d_seed1000_d2.20_q0_m3_R2SCAN-3C E -148.696008629747
  B       0.920625     -0.241420      1.137141
  B       1.500251     -0.962471     -0.102339
  B      -0.047233     -0.910952     -0.445623
  B      -0.471376      0.350035      0.680902
  B      -0.763491      1.586931     -0.433040
  B      -1.138775      0.177877     -0.837041
6
Coordinates from ORCA-job B6_random_3d_seed1000_d2.20_q0_m3_R2SCAN-3C E -148.705039706589
  B       0.923544     -0.253500      1.114271
  B       1.523826     -1.035173     -0.066266
  B      -0.026651     -0.892138     -0.445896
  B      -0.442357      0.396495      0.656102
  B      -0.844079      1.603238     -0.402713
  B      -1.134283      0.181078     -0.855499
6
Coordinates from ORCA-job B6_random_3d_seed1000_d2.20_q0_m3_R2SCAN-3C E -148.716322847067
  B       0.922549     -0.266897      1.078159
  B       1.540336     -1.134769     -0.020992
  B       0.010953     -0.859245     -0.442351
  B      -0.400610      0.461504      0.622972
  B      -0.954269      1.614170     -0.359112
  B      -1.118959      0.185237     -0.878675
6
Coordinates from ORCA-job B6_random_3d_seed1000_d2.20_q0_m3_R2SCAN-3C E -148.725458501886
  B       0.928734     -0.272926      1.044194
  B       1.550450     -1.235886      0.024540
  B       0.047009     -0.830488     -0.440698
  B      -0.359677      0.519742      0.592483
  B      -1.068592      1.620366     -0.317408
  B      -1.097924      0.199192     -0.903111
6
Coordinates from ORCA-job B6_random_3d_seed1000_d2.20_q0_m3_R2SCAN-3C E -148.731510504474
  B       0.948069     -0.269581      1.016347
  B       1.548666     -1.333407      0.069148
  B       0.076800     -0.803091     -0.440833
  B      -0.322589      0.569083      0.561502
  B      -1.180122      1.614973     -0.275180
  B      -1.070824      0.222022     -0.930985
6
Coordinates from ORCA-job B6_random_3d_seed1000_d2.20_q0_m3_R2SCAN-3C E -148.734195584262
  B       0.965056     -0.260695      1.002650
  B       1.530974     -1.382227      0.094959
  B       0.088309     -0.782596     -0.440815
  B      -0.294677      0.592657      0.543438
  B      -1.240074      1.593621     -0.246892
  B      -1.049588      0.239241     -0.953338
6
Coordinates from ORCA-job B6_random_3d_seed1000_d2.20_q0_m3_R2SCAN-3C E -148.735976233197
  B       0.996728     -0.233367      0.981010
  B       1.495220     -1.416833      0.109893
  B       0.089705     -0.787674     -0.437281
  B      -0.290834      0.605866      0.545396
  B      -1.290255      1.571791     -0.220872
  B      -1.000564      0.260216     -0.978146
6
Coordinates from ORCA-job B6_random_3d_seed1000_d2.20_q0_m3_R2SCAN-3C E -148.736079700800
  B       0.994774     -0.239523      0.987782
  B       1.452470     -1.427705      0.110940
  B       0.111718     -0.745642     -0.426893
  B      -0.237853      0.606705      0.524032
  B      -1.329618      1.539740     -0.221468
  B      -0.991492      0.266425     -0.974394
6
Coordinates from ORCA-job B6_random_3d_seed1000_d2.20_q0_m3_R2SCAN-3C E -148.737236625847
  B       1.015912     -0.222716      0.986403
  B       1.452908     -1.424113      0.117143
  B       0.083021     -0.767947     -0.439426
  B      -0.254189      0.612069      0.543862
  B      -1.319476      1.529789     -0.209225
  B      -0.978175      0.272917     -0.998756
6
Coordinates from ORCA-job B6_random_3d_seed1000_d2.20_q0_m3_R2SCAN-3C E -148.737475035933
  B       1.009142     -0.226429      0.972298
  B       1.458061     -1.425189      0.110751
  B       0.092463     -0.786551     -0.429610
  B      -0.268855      0.621983      0.548326
  B      -1.325769      1.545946     -0.209277
  B      -0.965042      0.270241     -0.992488
6
Coordinates from ORCA-job B6_random_3d_seed1000_d2.20_q0_m3_R2SCAN-3C E -148.737970399919
  B       1.008682     -0.231721      0.980967
  B       1.461554     -1.422889      0.112733
  B       0.087339     -0.783610     -0.435208
  B      -0.259243      0.626568      0.546553
  B      -1.325962      1.541990     -0.209170
  B      -0.972371      0.269663     -0.995875
6
Coordinates from ORCA-job B6_random_3d_seed1000_d2.20_q0_m3_R2SCAN-3C E -148.738946886537
  B       1.007109     -0.241824      0.995230
  B       1.459328     -1.408714      0.106265
  B       0.076591     -0.787324     -0.442481
  B      -0.240905      0.637486      0.557736
  B      -1.326835      1.533578     -0.218260
  B      -0.975288      0.266799     -0.998489
6
Coordinates from ORCA-job B6_random_3d_seed1000_d2.20_q0_m3_R2SCAN-3C E -148.739729801835
  B       0.996249     -0.256838      1.003263
  B       1.464527     -1.398955      0.101471
  B       0.073974     -0.794166     -0.448624
  B      -0.228178      0.658660      0.561722
  B      -1.327633      1.530937     -0.221390
  B      -0.978939      0.260362     -0.996443
6
Coordinates from ORCA-job B6_random_3d_seed1000_d2.20_q0_m3_R2SCAN-3C E -148.740488925316
  B       0.986430     -0.267002      1.002080
  B       1.462522     -1.400277      0.098600
  B       0.078349     -0.798772     -0.453552
  B      -0.215104      0.684816      0.569165
  B      -1.339549      1.524120     -0.223250
  B      -0.972648      0.257115     -0.993044
6
Coordinates from ORCA-job B6_random_3d_seed1000_d2.20_q0_m3_R2SCAN-3C E -148.741207000362
  B       0.973102     -0.275697      0.994495
  B       1.459896     -1.415451      0.104777
  B       0.091039     -0.791966     -0.460235
  B      -0.200045      0.718229      0.567067
  B      -1.355859      1.509851     -0.214509
  B      -0.968133      0.255033     -0.991594
6
Coordinates from ORCA-job B6_random_3d_seed1000_d2.20_q0_m3_R2SCAN-3C E -148.741546628096
  B       0.969791     -0.271752      0.990276
  B       1.450729     -1.436037      0.117092
  B       0.103592     -0.777399     -0.464187
  B      -0.185845      0.731028      0.551664
  B      -1.372856      1.493749     -0.197159
  B      -0.965411      0.260411     -0.997685
6
Coordinates from ORCA-job B6_random_3d_seed1000_d2.20_q0_m3_R2SCAN-3C E -148.741262918512
  B       0.969484     -0.280610      0.979059
  B       1.445560     -1.459112      0.124956
  B       0.111116     -0.761066     -0.470271
  B      -0.172145      0.766083      0.564254
  B      -1.394006      1.470201     -0.200422
  B      -0.960008      0.264505     -0.997576
6
Coordinates from ORCA-job B6_random_3d_seed1000_d2.20_q0_m3_R2SCAN-3C E -148.741692330556
  B       0.973959     -0.269568      0.983866
  B       1.441684     -1.452042      0.131914
  B       0.107995     -0.764285     -0.468868
  B      -0.173739      0.742070      0.545024
  B      -1.387524      1.473631     -0.184669
  B      -0.962374      0.270194     -1.007266
6
Coordinates from ORCA-job B6_random_3d_seed1000_d2.20_q0_m3_R2SCAN-3C E -148.741720267232
  B       0.975997     -0.268862      0.987001
  B       1.441847     -1.450324      0.129176
  B       0.107259     -0.764342     -0.469413
  B      -0.176017      0.737744      0.546580
  B      -1.385876      1.477719     -0.188276
  B      -0.963209      0.268063     -1.005069
6
Coordinates from ORCA-job B6_random_3d_seed1000_d2.20_q0_m3_R2SCAN-3C E -148.741772847965
  B       0.978568     -0.268883      0.987098
  B       1.440732     -1.450196      0.130084
  B       0.106952     -0.762793     -0.470940
  B      -0.176490      0.736101      0.548333
  B      -1.386037      1.478179     -0.189954
  B      -0.963724      0.267593     -1.004621
6
Coordinates from ORCA-job B6_random_3d_seed1000_d2.20_q0_m3_R2SCAN-3C E -148.741966059983
  B       0.984973     -0.268805      0.986689
  B       1.436798     -1.451366      0.135296
  B       0.110191     -0.756236     -0.477938
  B      -0.178051      0.731352      0.551535
  B      -1.385764      1.480632     -0.192453
  B      -0.968147      0.264423     -1.003129
6
Coordinates from ORCA-job B6_random_3d_seed1000_d2.20_q0_m3_R2SCAN-3C E -148.742198406420
  B       0.990345     -0.267545      0.984614
  B       1.430924     -1.454448      0.141987
  B       0.117872     -0.749866     -0.486928
  B      -0.179784      0.728616      0.555268
  B      -1.385512      1.482753     -0.193058
  B      -0.973846      0.260490     -1.001883
6
Coordinates from ORCA-job B6_random_3d_seed1000_d2.20_q0_m3_R2SCAN-3C E -148.742533883110
  B       0.994877     -0.263559      0.980335
  B       1.421566     -1.459269      0.150302
  B       0.130967     -0.745429     -0.499981
  B      -0.182497      0.728625      0.561507
  B      -1.384366      1.484041     -0.191720
  B      -0.980547      0.255591     -1.000442
6
Coordinates from ORCA-job B6_random_3d_seed1000_d2.20_q0_m3_R2SCAN-3C E -148.742864617154
  B       0.994985     -0.257532      0.975392
  B       1.413403     -1.463064      0.157731
  B       0.143963     -0.748495     -0.514588
  B      -0.184980      0.731899      0.567036
  B      -1.382603      1.484212     -0.188279
  B      -0.984767      0.252980     -0.997293
6
Coordinates from ORCA-job B6_random_3d_seed1000_d2.20_q0_m3_R2SCAN-3C E -148.743131468443
  B       0.991974     -0.250829      0.972308
  B       1.406080     -1.468303      0.164225
  B       0.157636     -0.752581     -0.530896
  B      -0.186267      0.736642      0.568178
  B      -1.382397      1.483820     -0.184226
  B      -0.987026      0.251251     -0.989587
6
Coordinates from ORCA-job B6_random_3d_seed1000_d2.20_q0_m3_R2SCAN-3C E -148.743273858692
  B       0.989017     -0.246290      0.970027
  B       1.399392     -1.474262      0.171490
  B       0.170610     -0.753433     -0.547865
  B      -0.185916      0.741091      0.566725
  B      -1.384595      1.483532     -0.181503
  B      -0.988509      0.249362     -0.978874
6
Coordinates from ORCA-job B6_random_3d_seed1000_d2.20_q0_m3_R2SCAN-3C E -148.743319043705
  B       0.988234     -0.245212      0.971409
  B       1.394474     -1.479179      0.174568
  B       0.178025     -0.746423     -0.554612
  B      -0.184062      0.741808      0.560949
  B      -1.387029      1.482911     -0.179765
  B      -0.989642      0.246094     -0.972547
6
Coordinates from ORCA-job B6_random_3d_seed1000_d2.20_q0_m3_R2SCAN-3C E -148.743335166695
  B       0.988507     -0.246157      0.969132
  B       1.392029     -1.481903      0.180308
  B       0.181258     -0.744753     -0.560169
  B      -0.180339      0.743838      0.558838
  B      -1.392372      1.480666     -0.178647
  B      -0.989083      0.248310     -0.969463
6
Coordinates from ORCA-job B6_random_3d_seed1000_d2.20_q0_m3_R2SCAN-3C E -148.743344213834
  B       0.989100     -0.247428      0.970874
  B       1.392695     -1.480515      0.178623
  B       0.179161     -0.742303     -0.556730
  B      -0.180062      0.741718      0.556990
  B      -1.391553      1.481065     -0.179063
  B      -0.989342      0.247464     -0.970693
6
Coordinates from ORCA-job B6_random_3d_seed1000_d2.20_q0_m3_R2SCAN-3C E -148.743344673913
  B       0.989614     -0.247613      0.971145
  B       1.392591     -1.480783      0.178623
  B       0.178999     -0.741793     -0.555888
  B      -0.179606      0.741431      0.556370
  B      -1.392268      1.480891     -0.178867
  B      -0.989330      0.247867     -0.971383
6
Coordinates from ORCA-job B6_random_3d_seed1000_d2.20_q0_m3_R2SCAN-3C E -148.743344742677
  B       0.989661     -0.247682      0.971263
  B       1.392400     -1.480704      0.178706
  B       0.179149     -0.741696     -0.556035
  B      -0.179470      0.741449      0.556248
  B      -1.392273      1.480796     -0.178812
  B      -0.989468      0.247837     -0.971370
6
Coordinates from ORCA-job B6_random_3d_seed1000_d2.20_q0_m3_R2SCAN-3C E -148.743344753439
  B       0.989643     -0.247724      0.971359
  B       1.392218     -1.480792      0.178819
  B       0.179353     -0.741580     -0.556236
  B      -0.179236      0.741646      0.556135
  B      -1.392417      1.480657     -0.178686
  B      -0.989560      0.247792     -0.971391
