6
Coordinates from ORCA-job B6_random_3d_seed1000_d2.20_q0_m3_R2SCAN-3C E -148.743344753439
  B           0.98964265364624     -0.24772406760601      0.97135866671947
  B           1.39221769763815     -1.48079154619044      0.17881918092999
  B           0.17935303428408     -0.74157960124664     -0.55623573226636
  B          -0.17923645664577      0.74164623413787      0.55613502521887
  B          -1.39241730065701      1.48065667674673     -0.17868570471255
  B          -0.98955962826568      0.24779230415849     -0.97139144588942
