6
Coordinates from ORCA-job B6_random_3d_seed1002_d2.00_q0_m5_R2SCAN-3C E -148.467486531929
  B       0.512500     -0.574993     -1.254865
  B       0.989093      1.227348     -0.366177
  B      -1.022985      0.625610     -0.928079
  B       0.176493     -1.427193      0.506139
  B       0.603473      0.174825      1.388593
  B      -1.258573     -0.025597      0.654389
6
Coordinates from ORCA-job B6_random_3d_seed1002_d2.00_q0_m5_R2SCAN-3C E -148.503829934594
  B       0.514839     -0.548621     -1.214983
  B       0.937858      1.189443     -0.386547
  B      -0.974507      0.629145     -0.896647
  B       0.177464     -1.398241      0.508345
  B       0.584142      0.151714      1.346355
  B      -1.239796     -0.023441      0.643476
6
Coordinates from ORCA-job B6_random_3d_seed1002_d2.00_q0_m5_R2SCAN-3C E -148.537428048085
  B       0.520921     -0.521317     -1.177206
  B       0.883069      1.150237     -0.411740
  B      -0.925535      0.636947     -0.865075
  B       0.181266     -1.371507      0.514192
  B       0.563208      0.124809      1.306000
  B      -1.222928     -0.019170      0.633829
6
Coordinates from ORCA-job B6_random_3d_seed1002_d2.00_q0_m5_R2SCAN-3C E -148.577194861821
  B       0.535009     -0.477813     -1.120732
  B       0.795257      1.089812     -0.455808
  B      -0.851808      0.655675     -0.820463
  B       0.185773     -1.337895      0.526378
  B       0.531029      0.083663      1.248651
  B      -1.195259     -0.013441      0.621973
6
Coordinates from ORCA-job B6_random_3d_seed1002_d2.00_q0_m5_R2SCAN-3C E -148.597308243292
  B       0.562835     -0.418312     -1.023456
  B       0.721511      1.044556     -0.506908
  B      -0.797674      0.662053     -0.776528
  B       0.157261     -1.314495      0.534708
  B       0.499379      0.042681      1.157475
  B      -1.143312     -0.016482      0.614709
6
Coordinates from ORCA-job B6_random_3d_seed1002_d2.00_q0_m5_R2SCAN-3C E -148.610989050155
  B       0.585283     -0.387998     -0.933937
  B       0.757676      1.067104     -0.514980
  B      -0.840967      0.630694     -0.772522
  B       0.100358     -1.321496      0.522422
  B       0.515119      0.043255      1.080104
  B      -1.117468     -0.031559      0.618912
6
Coordinates from ORCA-job B6_random_3d_seed1002_d2.00_q0_m5_R2SCAN-3C E -148.630187193960
  B       0.583601     -0.390267     -0.824153
  B       0.781100      1.129249     -0.525677
  B      -0.850949      0.619618     -0.761987
  B       0.037834     -1.354445      0.513320
  B       0.542066      0.063416      0.988040
  B      -1.093651     -0.067571      0.610456
6
Coordinates from ORCA-job B6_random_3d_seed1002_d2.00_q0_m5_R2SCAN-3C E -148.642384324070
  B       0.582975     -0.397855     -0.709988
  B       0.783387      1.164957     -0.537407
  B      -0.845686      0.642640     -0.751581
  B      -0.004703     -1.388859      0.506583
  B       0.577848      0.090997      0.892868
  B      -1.093821     -0.111880      0.599526
6
Coordinates from ORCA-job B6_random_3d_seed1002_d2.00_q0_m5_R2SCAN-3C E -148.647150898963
  B       0.568901     -0.453369     -0.696280
  B       0.772910      1.188933     -0.554876
  B      -0.808754      0.711540     -0.730664
  B      -0.014380     -1.432198      0.515340
  B       0.600437      0.158976      0.882727
  B      -1.119114     -0.173881      0.583754
6
Coordinates from ORCA-job B6_random_3d_seed1002_d2.00_q0_m5_R2SCAN-3C E -148.649454711468
  B       0.586826     -0.467743     -0.653190
  B       0.746351      1.172111     -0.575260
  B      -0.782586      0.757232     -0.684438
  B      -0.043080     -1.429567      0.515076
  B       0.599458      0.191981      0.839894
  B      -1.106968     -0.224015      0.557918
6
Coordinates from ORCA-job B6_random_3d_seed1002_d2.00_q0_m5_R2SCAN-3C E -148.652311864261
  B       0.603510     -0.476175     -0.667746
  B       0.759795      1.157163     -0.605877
  B      -0.788958      0.777426     -0.643304
  B      -0.037327     -1.423316      0.517932
  B       0.585798      0.206408      0.859464
  B      -1.122818     -0.241506      0.539532
6
Coordinates from ORCA-job B6_random_3d_seed1002_d2.00_q0_m5_R2SCAN-3C E -148.658216101788
  B       0.653945     -0.504337     -0.661314
  B       0.804868      1.115100     -0.715048
  B      -0.805374      0.847275     -0.492528
  B      -0.019723     -1.418848      0.512485
  B       0.533385      0.258986      0.882727
  B      -1.167101     -0.298175      0.473677
6
Coordinates from ORCA-job B6_random_3d_seed1002_d2.00_q0_m5_R2SCAN-3C E -148.662718741067
  B       0.671941     -0.534810     -0.654468
  B       0.811855      1.087574     -0.783622
  B      -0.781854      0.903146     -0.389602
  B      -0.006017     -1.429384      0.505318
  B       0.479232      0.311456      0.894887
  B      -1.175156     -0.337981      0.427488
6
Coordinates from ORCA-job B6_random_3d_seed1002_d2.00_q0_m5_R2SCAN-3C E -148.666898624874
  B       0.669568     -0.569572     -0.639383
  B       0.774346      1.057932     -0.848213
  B      -0.691784      0.979112     -0.293910
  B       0.017563     -1.467816      0.493863
  B       0.380738      0.376280      0.898777
  B      -1.150431     -0.375937      0.388867
6
Coordinates from ORCA-job B6_random_3d_seed1002_d2.00_q0_m5_R2SCAN-3C E -148.668016874328
  B       0.669349     -0.540729     -0.638636
  B       0.808305      1.038635     -0.882378
  B      -0.705749      0.984624     -0.258837
  B       0.013137     -1.472504      0.499079
  B       0.360627      0.380927      0.898287
  B      -1.145669     -0.390953      0.382484
6
Coordinates from ORCA-job B6_random_3d_seed1002_d2.00_q0_m5_R2SCAN-3C E -148.668220566081
  B       0.647646     -0.500308     -0.630725
  B       0.799812      1.054128     -0.849444
  B      -0.723532      0.963894     -0.354683
  B       0.010797     -1.484370      0.502104
  B       0.400359      0.327203      0.914540
  B      -1.135082     -0.360548      0.418209
6
Coordinates from ORCA-job B6_random_3d_seed1002_d2.00_q0_m5_R2SCAN-3C E -148.669422534596
  B       0.636649     -0.520972     -0.625085
  B       0.796547      1.053235     -0.864455
  B      -0.703764      0.974616     -0.323434
  B       0.023451     -1.489422      0.497756
  B       0.375664      0.347938      0.914742
  B      -1.128546     -0.365396      0.400476
6
Coordinates from ORCA-job B6_random_3d_seed1002_d2.00_q0_m5_R2SCAN-3C E -148.669621411308
  B       0.629916     -0.521926     -0.622316
  B       0.798739      1.047506     -0.880762
  B      -0.692798      0.982130     -0.302477
  B       0.025270     -1.494892      0.496401
  B       0.357189      0.360870      0.918752
  B      -1.118316     -0.373688      0.390400
6
Coordinates from ORCA-job B6_random_3d_seed1002_d2.00_q0_m5_R2SCAN-3C E -148.669687455512
  B       0.624784     -0.518636     -0.621269
  B       0.799685      1.047876     -0.884006
  B      -0.691944      0.981513     -0.305348
  B       0.025742     -1.498412      0.496047
  B       0.356704      0.361008      0.924997
  B      -1.114971     -0.373349      0.389579
6
Coordinates from ORCA-job B6_random_3d_seed1002_d2.00_q0_m5_R2SCAN-3C E -148.669735042658
  B       0.618188     -0.515256     -0.621190
  B       0.800775      1.047562     -0.889491
  B      -0.689583      0.980310     -0.307970
  B       0.026218     -1.502807      0.494208
  B       0.354841      0.363756      0.936047
  B      -1.110438     -0.373566      0.388396
6
Coordinates from ORCA-job B6_random_3d_seed1002_d2.00_q0_m5_R2SCAN-3C E -148.669743660860
  B       0.617332     -0.515102     -0.622215
  B       0.801244      1.047470     -0.890680
  B      -0.688445      0.979454     -0.308500
  B       0.026377     -1.503353      0.493027
  B       0.353461      0.365138      0.939011
  B      -1.109971     -0.373607      0.389358
6
Coordinates from ORCA-job B6_random_3d_seed1002_d2.00_q0_m5_R2SCAN-3C E -148.669753283156
  B       0.616773     -0.515430     -0.624473
  B       0.802548      1.047516     -0.891679
  B      -0.686571      0.977601     -0.309337
  B       0.026768     -1.503508      0.490725
  B       0.350424      0.367338      0.942248
  B      -1.109941     -0.373516      0.392515
6
Coordinates from ORCA-job B6_random_3d_seed1002_d2.00_q0_m5_R2SCAN-3C E -148.669756059726
  B       0.616635     -0.515717     -0.625411
  B       0.803430      1.047629     -0.891155
  B      -0.686097      0.976676     -0.309909
  B       0.026988     -1.503355      0.489703
  B       0.349088      0.368139      0.942238
  B      -1.110043     -0.373372      0.394534
6
Coordinates from ORCA-job B6_random_3d_seed1002_d2.00_q0_m5_R2SCAN-3C E -148.669758192283
  B       0.616341     -0.516091     -0.626054
  B       0.804412      1.047786     -0.889697
  B      -0.686269      0.975893     -0.310632
  B       0.027092     -1.503327      0.488931
  B       0.348491      0.369025      0.941103
  B      -1.110069     -0.373285      0.396349
6
Coordinates from ORCA-job B6_random_3d_seed1002_d2.00_q0_m5_R2SCAN-3C E -148.669760532334
  B       0.615649     -0.516671     -0.626586
  B       0.805516      1.047830     -0.887235
  B      -0.686944      0.975197     -0.311457
  B       0.027042     -1.503710      0.488156
  B       0.348492      0.370712      0.939182
  B      -1.109755     -0.373358      0.397940
6
Coordinates from ORCA-job B6_random_3d_seed1002_d2.00_q0_m5_R2SCAN-3C E -148.669763827823
  B       0.614424     -0.517658     -0.627099
  B       0.806803      1.047711     -0.883595
  B      -0.688228      0.974600     -0.312283
  B       0.026692     -1.504769      0.487251
  B       0.349254      0.373882      0.936565
  B      -1.108945     -0.373765      0.399160
6
Coordinates from ORCA-job B6_random_3d_seed1002_d2.00_q0_m5_R2SCAN-3C E -148.669767399023
  B       0.611882     -0.519674     -0.627975
  B       0.808725      1.047227     -0.876470
  B      -0.690675      0.973571     -0.313769
  B       0.025715     -1.507461      0.485408
  B       0.351198      0.380910      0.932053
  B      -1.106846     -0.374573      0.400753
6
Coordinates from ORCA-job B6_random_3d_seed1002_d2.00_q0_m5_R2SCAN-3C E -148.669768561626
  B       0.611786     -0.519790     -0.627730
  B       0.808473      1.047056     -0.876694
  B      -0.690754      0.973792     -0.313429
  B       0.025389     -1.508043      0.485274
  B       0.351561      0.381792      0.932507
  B      -1.106455     -0.374807      0.400072
6
Coordinates from ORCA-job B6_random_3d_seed1002_d2.00_q0_m5_R2SCAN-3C E -148.669769289767
  B       0.612207     -0.519803     -0.627310
  B       0.807881      1.046987     -0.877213
  B      -0.690810      0.973988     -0.313236
  B       0.024951     -1.508559      0.485127
  B       0.352075      0.382179      0.933163
  B      -1.106305     -0.374792      0.399469
6
Coordinates from ORCA-job B6_random_3d_seed1002_d2.00_q0_m5_R2SCAN-3C E -148.669769649484
  B       0.612302     -0.520145     -0.626936
  B       0.807779      1.046886     -0.876669
  B      -0.691193      0.973923     -0.313193
  B       0.024318     -1.509395      0.484495
  B       0.352629      0.383699      0.932863
  B      -1.105835     -0.374968      0.399441
6
Coordinates from ORCA-job B6_random_3d_seed1002_d2.00_q0_m5_R2SCAN-3C E -148.669769999167
  B       0.612595     -0.520307     -0.626538
  B       0.807782      1.046924     -0.876328
  B      -0.691492      0.973745     -0.313289
  B       0.023809     -1.509960      0.483897
  B       0.352963      0.384596      0.932464
  B      -1.105658     -0.374998      0.399792
6
Coordinates from ORCA-job B6_random_3d_seed1002_d2.00_q0_m5_R2SCAN-3C E -148.669770472145
  B       0.613366     -0.520380     -0.625626
  B       0.807792      1.047127     -0.875926
  B      -0.691966      0.973297     -0.313673
  B       0.022915     -1.510810      0.482748
  B       0.353457      0.385647      0.931672
  B      -1.105565     -0.374882      0.400806
6
Coordinates from ORCA-job B6_random_3d_seed1002_d2.00_q0_m5_R2SCAN-3C E -148.669770461256
  B       0.613799     -0.520525     -0.625013
  B       0.807964      1.047302     -0.875041
  B      -0.692570      0.972837     -0.314158
  B       0.022166     -1.511521      0.481838
  B       0.354090      0.386747      0.930660
  B      -1.105449     -0.374840      0.401715
6
Coordinates from ORCA-job B6_random_3d_seed1002_d2.00_q0_m5_R2SCAN-3C E -148.669770541714
  B       0.613578     -0.520373     -0.625323
  B       0.807886      1.047228     -0.875604
  B      -0.692202      0.973069     -0.313929
  B       0.022621     -1.511075      0.482351
  B       0.353700      0.385983      0.931229
  B      -1.105583     -0.374832      0.401276
