6
Coordinates from ORCA-job B6_random_3d_seed1002_d2.00_q0_m5_R2SCAN-3C E -148.669770541714
  B           0.61357802459673     -0.52037259334738     -0.62532280712973
  B           0.80788575592264      1.04722840449996     -0.87560375068897
  B          -0.69220217108445      0.97306878754407     -0.31392907013139
  B           0.02262073645403     -1.51107509313540      0.48235072928285
  B           0.35370030570750      0.38598286500982      0.93122891095063
  B          -1.10558264159644     -0.37483238057107      0.40127597771662
