6
Coordinates from ORCA-job B6_trigonal_prism_d2.20_q0_m3_R2SCAN-3C E -148.605297528324
  B           0.83771236645615      0.48368791779618     -0.88047953453284
  B          -0.83771236106855      0.48368795371438     -0.88047953161874
  B           0.00000002409565     -0.96737552571975     -0.88016700744167
  B           0.83771258493147      0.48368758734438      0.88047930112731
  B          -0.83771260439308      0.48368757580507      0.88047935907596
  B          -0.00000001002165     -0.96737548894025      0.88016741338998
