6
Coordinates from ORCA-job B6_trigonal_prism_d2.20_q0_m3_R2SCAN-3C E -148.369807413286
  B       1.100000      0.635085     -1.100000
  B      -1.100000      0.635085     -1.100000
  B      -0.000000     -1.270171     -1.100000
  B       1.100000      0.635085      1.100000
  B      -1.100000      0.635085      1.100000
  B      -0.000000     -1.270171      1.100000
6
Coordinates from ORCA-job B6_trigonal_prism_d2.20_q0_m3_R2SCAN-3C E -148.403297716808
  B       1.076058      0.621264     -1.069116
  B      -1.076058      0.621264     -1.069116
  B      -0.000000     -1.242528     -1.069114
  B       1.076058      0.621264      1.069116
  B      -1.076058      0.621264      1.069116
  B       0.000000     -1.242528      1.069114
6
Coordinates from ORCA-job B6_trigonal_prism_d2.20_q0_m3_R2SCAN-3C E -148.436700020699
  B       1.051809      0.607258     -1.038724
  B      -1.051809      0.607258     -1.038724
  B      -0.000000     -1.214515     -1.038722
  B       1.051809      0.607258      1.038724
  B      -1.051809      0.607258      1.038724
  B       0.000000     -1.214515      1.038722
6
Coordinates from ORCA-job B6_trigonal_prism_d2.20_q0_m3_R2SCAN-3C E -148.484662471213
  B       1.014082      0.585484     -0.995370
  B      -1.014082      0.585484     -0.995370
  B      -0.000000     -1.170968     -0.995356
  B       1.014082      0.585484      0.995370
  B      -1.014082      0.585484      0.995370
  B       0.000000     -1.170968      0.995356
6
Coordinates from ORCA-job B6_trigonal_prism_d2.20_q0_m3_R2SCAN-3C E -148.548816422662
  B       0.953891      0.550771     -0.937114
  B      -0.953891      0.550771     -0.937114
  B       0.000000     -1.101543     -0.937080
  B       0.953891      0.550771      0.937114
  B      -0.953891      0.550771      0.937114
  B       0.000000     -1.101543      0.937080
6
Coordinates from ORCA-job B6_trigonal_prism_d2.20_q0_m3_R2SCAN-3C E -148.594724960298
  B       0.884590      0.510758     -0.894374
  B      -0.884590      0.510758     -0.894374
  B       0.000000     -1.021516     -0.894271
  B       0.884590      0.510758      0.894374
  B      -0.884590      0.510758      0.894374
  B       0.000000     -1.021516      0.894271
6
Coordinates from ORCA-job B6_trigonal_prism_d2.20_q0_m3_R2SCAN-3C E -148.603396996964
  B       0.819591      0.473203     -0.883080
  B      -0.819591      0.473203     -0.883080
  B      -0.000000     -0.946406     -0.882882
  B       0.819591      0.473203      0.883080
  B      -0.819591      0.473203      0.883080
  B      -0.000000     -0.946406      0.882882
6
Coordinates from ORCA-job B6_trigonal_prism_d2.20_q0_m3_R2SCAN-3C E -148.605163233248
  B       0.842120      0.486226     -0.876919
  B      -0.842120      0.486226     -0.876919
  B       0.000000     -0.972451     -0.876671
  B       0.842120      0.486226      0.876919
  B      -0.842120      0.486226      0.876919
  B      -0.000000     -0.972451      0.876671
6
Coordinates from ORCA-job B6_trigonal_prism_d2.20_q0_m3_R2SCAN-3C E -148.605291204559
  B       0.838298      0.484024     -0.881745
  B      -0.838298      0.484024     -0.881745
  B       0.000000     -0.968048     -0.881485
  B       0.838298      0.484024      0.881745
  B      -0.838298      0.484024      0.881745
  B      -0.000000     -0.968048      0.881485
6
Coordinates from ORCA-job B6_trigonal_prism_d2.20_q0_m3_R2SCAN-3C E -148.605296772065
  B       0.837454      0.483529     -0.880116
  B      -0.837454      0.483529     -0.880116
  B       0.000000     -0.967058     -0.879810
  B       0.837454      0.483529      0.880116
  B      -0.837454      0.483529      0.880116
  B       0.000000     -0.967058      0.879810
6
Coordinates from ORCA-job B6_trigonal_prism_d2.20_q0_m3_R2SCAN-3C E -148.605297528210
  B       0.837714      0.483691     -0.880479
  B      -0.837714      0.483691     -0.880479
  B      -0.000000     -0.967382     -0.880171
  B       0.837714      0.483691      0.880479
  B      -0.837714      0.483691      0.880479
  B      -0.000000     -0.967382      0.880172
6
Coordinates from ORCA-job B6_trigonal_prism_d2.20_q0_m3_R2SCAN-3C E -148.605297528324
  B       0.837712      0.483688     -0.880480
  B      -0.837712      0.483688     -0.880480
  B       0.000000     -0.967376     -0.880167
  B       0.837713      0.483688      0.880479
  B      -0.837713      0.483688      0.880479
  B      -0.000000     -0.967375      0.880167
