6
Coordinates from ORCA-job B6_compact_planar_triangle_d3.50_q0_m1_R2SCAN-3C E -148.630568462979
  B          -1.69326622603487     -0.97827234951535      0.00000347154920
  B           0.00015633306410     -0.92917141222029     -0.00000355254154
  B           1.69345805777015     -0.97729176972533      0.00000353815531
  B          -0.80484570026407      0.46449850598228     -0.00000336617067
  B           0.80469217952416      0.46485402960866     -0.00000353805956
  B          -0.00019464405947      1.95538299587003      0.00000344706726
