6
Coordinates from ORCA-job B6_compact_planar_triangle_d3.50_q0_m1_R2SCAN-3C E -147.850752795319
  B      -3.500000     -2.020726      0.000000
  B       0.000000     -2.020726      0.000000
  B       3.500000     -2.020726      0.000000
  B      -1.750000      1.010363      0.000000
  B       1.750000      1.010363      0.000000
  B       0.000000      4.041452      0.000000
6
Coordinates from ORCA-job B6_compact_planar_triangle_d3.50_q0_m1_R2SCAN-3C E -147.860957801594
  B      -3.450409     -1.991984     -0.000000
  B      -0.000000     -1.986815     -0.000000
  B       3.450409     -1.991984      0.000000
  B      -1.720523      0.993323      0.000000
  B       1.720523      0.993323     -0.000000
  B       0.000000      3.984138     -0.000000
6
Coordinates from ORCA-job B6_compact_planar_triangle_d3.50_q0_m1_R2SCAN-3C E -147.871704219619
  B      -3.402271     -1.964053     -0.000000
  B      -0.000000     -1.951592     -0.000000
  B       3.402271     -1.964052     -0.000000
  B      -1.689869      0.975596      0.000000
  B       1.689869      0.975597      0.000000
  B       0.000001      3.928503     -0.000000
6
Coordinates from ORCA-job B6_compact_planar_triangle_d3.50_q0_m1_R2SCAN-3C E -147.888816199432
  B      -3.330704     -1.922561     -0.000000
  B       0.000001     -1.898121      0.000000
  B       3.330703     -1.922561     -0.000000
  B      -1.643375      0.948722      0.000000
  B       1.643373      0.948724      0.000000
  B       0.000001      3.845798     -0.000000
6
Coordinates from ORCA-job B6_compact_planar_triangle_d3.50_q0_m1_R2SCAN-3C E -147.916798690498
  B      -3.223810     -1.860640     -0.000000
  B       0.000008     -1.817377      0.000000
  B       3.223804     -1.860643     -0.000000
  B      -1.573246      0.908195      0.000000
  B       1.573238      0.908210      0.000000
  B       0.000007      3.722256     -0.000000
6
Coordinates from ORCA-job B6_compact_planar_triangle_d3.50_q0_m1_R2SCAN-3C E -147.948963865456
  B      -3.113723     -1.796789     -0.000000
  B       0.000038     -1.732934      0.000000
  B       3.113705     -1.796819     -0.000000
  B      -1.499908      0.865746      0.000000
  B       1.499868      0.865812      0.000000
  B       0.000021      3.594984     -0.000000
6
Coordinates from ORCA-job B6_compact_planar_triangle_d3.50_q0_m1_R2SCAN-3C E -147.984478082603
  B      -3.003998     -1.733140     -0.000000
  B       0.000109     -1.648062     -0.000000
  B       3.003944     -1.733228     -0.000000
  B      -1.426231      0.823074      0.000000
  B       1.426119      0.823263      0.000000
  B       0.000057      3.468094     -0.000000
6
Coordinates from ORCA-job B6_compact_planar_triangle_d3.50_q0_m1_R2SCAN-3C E -148.023359933899
  B      -2.894460     -1.669526     -0.000000
  B       0.000231     -1.562954     -0.000000
  B       2.894348     -1.669715     -0.000000
  B      -1.352359      0.780214      0.000000
  B       1.352123      0.780615      0.000000
  B       0.000117      3.341366     -0.000000
6
Coordinates from ORCA-job B6_compact_planar_triangle_d3.50_q0_m1_R2SCAN-3C E -148.065460172807
  B      -2.785000     -1.605860      0.000000
  B       0.000397     -1.477729     -0.000000
  B       2.784808     -1.606186      0.000000
  B      -1.278348      0.737200      0.000000
  B       1.277947      0.737889     -0.000000
  B       0.000197      3.214687      0.000000
6
Coordinates from ORCA-job B6_compact_planar_triangle_d3.50_q0_m1_R2SCAN-3C E -148.110266409209
  B      -2.675413     -1.542110      0.000000
  B       0.000603     -1.392455     -0.000000
  B       2.675124     -1.542604      0.000000
  B      -1.204348      0.694155      0.000000
  B       1.203739      0.695202     -0.000000
  B       0.000296      3.087811     -0.000000
6
Coordinates from ORCA-job B6_compact_planar_triangle_d3.50_q0_m1_R2SCAN-3C E -148.156615956220
  B      -2.565403     -1.478030      0.000000
  B       0.000857     -1.307474     -0.000000
  B       2.564995     -1.478730      0.000000
  B      -1.130573      0.651177      0.000000
  B       1.129708      0.652664     -0.000000
  B       0.000416      2.960392     -0.000000
6
Coordinates from ORCA-job B6_compact_planar_triangle_d3.50_q0_m1_R2SCAN-3C E -148.201859650695
  B      -2.453888     -1.413050      0.000000
  B       0.001180     -1.223685     -0.000000
  B       2.453331     -1.414006      0.000000
  B      -1.057877      0.608712      0.000000
  B       1.056686      0.610761     -0.000000
  B       0.000569      2.831269     -0.000000
6
Coordinates from ORCA-job B6_compact_planar_triangle_d3.50_q0_m1_R2SCAN-3C E -148.243297630574
  B      -2.338608     -1.345553      0.000000
  B       0.001764     -1.143446     -0.000000
  B       2.337792     -1.346957      0.000000
  B      -0.988454      0.567754      0.000000
  B       0.986675      0.570819     -0.000000
  B       0.000832      2.697382     -0.000000
6
Coordinates from ORCA-job B6_compact_planar_triangle_d3.50_q0_m1_R2SCAN-3C E -148.275698557180
  B      -2.210856     -1.270498      0.000000
  B       0.002901     -1.078909     -0.000000
  B       2.209548     -1.272711      0.000000
  B      -0.932947      0.534041      0.000000
  B       0.930029      0.539084     -0.000000
  B       0.001324      2.548993      0.000000
6
Coordinates from ORCA-job B6_compact_planar_triangle_d3.50_q0_m1_R2SCAN-3C E -148.492415980885
  B      -2.074266     -1.189042      0.000001
  B       0.006163     -1.034241     -0.000001
  B       2.071631     -1.193621      0.000001
  B      -0.896188      0.508583     -0.000001
  B       0.890012      0.519268     -0.000001
  B       0.002648      2.389053      0.000001
6
Coordinates from ORCA-job B6_compact_planar_triangle_d3.50_q0_m1_R2SCAN-3C E -148.564500684327
  B      -1.936394     -1.109009      0.000002
  B       0.007073     -0.989387     -0.000002
  B       1.933414     -1.114147      0.000002
  B      -0.857989      0.485349     -0.000002
  B       0.850909      0.497613     -0.000002
  B       0.002987      2.229582      0.000002
6
Coordinates from ORCA-job B6_compact_planar_triangle_d3.50_q0_m1_R2SCAN-3C E -148.602792140002
  B      -1.842043     -1.055243      0.000001
  B       0.007190     -0.965850     -0.000001
  B       1.839000     -1.060226      0.000001
  B      -0.837745      0.473669     -0.000001
  B       0.830590      0.486090     -0.000001
  B       0.003008      2.121560      0.000001
6
Coordinates from ORCA-job B6_compact_planar_triangle_d3.50_q0_m1_R2SCAN-3C E -148.630450826152
  B      -1.696796     -0.977049      0.000001
  B       0.004467     -0.936175     -0.000001
  B       1.695033     -0.979660      0.000001
  B      -0.811170      0.463071     -0.000001
  B       0.806881      0.470823     -0.000001
  B       0.001586      1.958991      0.000001
6
Coordinates from ORCA-job B6_compact_planar_triangle_d3.50_q0_m1_R2SCAN-3C E -148.629496904792
  B      -1.693765     -0.980442      0.000001
  B      -0.004615     -0.910556     -0.000001
  B       1.696776     -0.976163      0.000001
  B      -0.787570      0.459723     -0.000001
  B       0.791850      0.452014     -0.000001
  B      -0.002676      1.955422      0.000001
6
Coordinates from ORCA-job B6_compact_planar_triangle_d3.50_q0_m1_R2SCAN-3C E -148.630547930120
  B      -1.691177     -0.979070      0.000001
  B      -0.003246     -0.929150     -0.000001
  B       1.693270     -0.975575      0.000001
  B      -0.803841      0.468032     -0.000001
  B       0.806942      0.462351     -0.000001
  B      -0.001947      1.953413      0.000001
6
Coordinates from ORCA-job B6_compact_planar_triangle_d3.50_q0_m1_R2SCAN-3C E -148.630536086280
  B      -1.694857     -0.976579      0.000002
  B       0.004708     -0.929862     -0.000002
  B       1.693161     -0.979931      0.000002
  B      -0.807224      0.460011     -0.000002
  B       0.802429      0.468652     -0.000002
  B       0.001784      1.957708      0.000002
6
Coordinates from ORCA-job B6_compact_planar_triangle_d3.50_q0_m1_R2SCAN-3C E -148.630567070883
  B      -1.694392     -0.978097      0.000002
  B       0.000550     -0.929321     -0.000002
  B       1.694315     -0.977241      0.000002
  B      -0.804544      0.465050     -0.000002
  B       0.804401      0.465217     -0.000002
  B      -0.000330      1.954393      0.000002
6
Coordinates from ORCA-job B6_compact_planar_triangle_d3.50_q0_m1_R2SCAN-3C E -148.630533652162
  B      -1.688826     -0.977804      0.000002
  B      -0.002870     -0.928866     -0.000002
  B       1.691991     -0.976911      0.000002
  B      -0.806133      0.462452     -0.000002
  B       0.806762      0.461552     -0.000002
  B      -0.000923      1.959578      0.000002
6
Coordinates from ORCA-job B6_compact_planar_triangle_d3.50_q0_m1_R2SCAN-3C E -148.630568089002
  B      -1.692536     -0.978481      0.000002
  B       0.000287     -0.929227     -0.000002
  B       1.692881     -0.977927      0.000002
  B      -0.804687      0.464760     -0.000002
  B       0.804574      0.464914     -0.000002
  B      -0.000519      1.955960      0.000002
6
Coordinates from ORCA-job B6_compact_planar_triangle_d3.50_q0_m1_R2SCAN-3C E -148.630562308494
  B      -1.696199     -0.976663      0.000002
  B      -0.000046     -0.928989     -0.000002
  B       1.696267     -0.975138      0.000002
  B      -0.805536      0.463564     -0.000002
  B       0.804972      0.464712     -0.000002
  B       0.000542      1.952514      0.000002
6
Coordinates from ORCA-job B6_compact_planar_triangle_d3.50_q0_m1_R2SCAN-3C E -148.630568460622
  B      -1.693336     -0.978121      0.000002
  B       0.000280     -0.929142     -0.000003
  B       1.693577     -0.977369      0.000003
  B      -0.804892      0.464546     -0.000002
  B       0.804733      0.464770     -0.000003
  B      -0.000362      1.955316      0.000002
6
Coordinates from ORCA-job B6_compact_planar_triangle_d3.50_q0_m1_R2SCAN-3C E -148.630567832104
  B      -1.692725     -0.978029      0.000003
  B      -0.000385     -0.929246     -0.000003
  B       1.693871     -0.977780      0.000003
  B      -0.804816      0.464458     -0.000003
  B       0.804417      0.465270     -0.000003
  B      -0.000362      1.955328      0.000003
6
Coordinates from ORCA-job B6_compact_planar_triangle_d3.50_q0_m1_R2SCAN-3C E -148.630568481322
  B      -1.693198     -0.978013      0.000003
  B       0.000189     -0.929215     -0.000003
  B       1.693608     -0.977422      0.000003
  B      -0.804847      0.464496     -0.000003
  B       0.804670      0.464805     -0.000003
  B      -0.000421      1.955349      0.000003
6
Coordinates from ORCA-job B6_compact_planar_triangle_d3.50_q0_m1_R2SCAN-3C E -148.630568462979
  B      -1.693266     -0.978272      0.000003
  B       0.000156     -0.929171     -0.000004
  B       1.693458     -0.977292      0.000004
  B      -0.804846      0.464499     -0.000003
  B       0.804692      0.464854     -0.000004
  B      -0.000195      1.955383      0.000003
