6
Coordinates from ORCA-job B6_rhombic_planar_d3.00_q0_m3_R2SCAN-3C E -147.996807649794
  B      -3.750000     -1.299038      0.000000
  B      -0.750000     -1.299038      0.000000
  B       2.250000     -1.299038      0.000000
  B      -2.250000      1.299038      0.000000
  B       0.750000      1.299038      0.000000
  B       3.750000      1.299038      0.000000
6
Coordinates from ORCA-job B6_rhombic_planar_d3.00_q0_m3_R2SCAN-3C E -148.011693760147
  B      -3.684399     -1.270461      0.000000
  B      -0.733337     -1.283168     -0.000000
  B       2.211938     -1.271640      0.000000
  B      -2.211938      1.271640      0.000000
  B       0.733337      1.283168     -0.000000
  B       3.684399      1.270461      0.000000
6
Coordinates from ORCA-job B6_rhombic_planar_d3.00_q0_m3_R2SCAN-3C E -148.027493991938
  B      -3.617916     -1.241888      0.000000
  B      -0.715860     -1.267846     -0.000000
  B       2.173073     -1.244947      0.000000
  B      -2.173073      1.244947     -0.000000
  B       0.715860      1.267846     -0.000000
  B       3.617916      1.241888      0.000000
6
Coordinates from ORCA-job B6_rhombic_planar_d3.00_q0_m3_R2SCAN-3C E -148.053062416922
  B      -3.516850     -1.199616      0.000000
  B      -0.688699     -1.244836     -0.000000
  B       2.113430     -1.206424     -0.000000
  B      -2.113430      1.206424     -0.000000
  B       0.688699      1.244836     -0.000000
  B       3.516850      1.199616      0.000000
6
Coordinates from ORCA-job B6_rhombic_planar_d3.00_q0_m3_R2SCAN-3C E -148.096065097463
  B      -3.362810     -1.137705      0.000000
  B      -0.645789     -1.210261     -0.000000
  B       2.020640     -1.151876     -0.000000
  B      -2.020640      1.151876      0.000000
  B       0.645789      1.210261     -0.000000
  B       3.362809      1.137705      0.000000
6
Coordinates from ORCA-job B6_rhombic_planar_d3.00_q0_m3_R2SCAN-3C E -148.147399802592
  B      -3.200133     -1.075114      0.000000
  B      -0.596481     -1.176432     -0.000000
  B       1.918394     -1.099740     -0.000000
  B      -1.918394      1.099740      0.000000
  B       0.596481      1.176432     -0.000000
  B       3.200133      1.075114      0.000000
6
Coordinates from ORCA-job B6_rhombic_planar_d3.00_q0_m3_R2SCAN-3C E -148.205739463846
  B      -3.037596     -1.014260     -0.000000
  B      -0.543199     -1.145017      0.000000
  B       1.813390     -1.052029     -0.000000
  B      -1.813390      1.052029      0.000000
  B       0.543199      1.145017     -0.000000
  B       3.037596      1.014260      0.000000
6
Coordinates from ORCA-job B6_rhombic_planar_d3.00_q0_m3_R2SCAN-3C E -148.270854415975
  B      -2.876927     -0.954878      0.000000
  B      -0.487527     -1.116352      0.000000
  B       1.710107     -1.009071     -0.000000
  B      -1.710107      1.009071     -0.000000
  B       0.487527      1.116352     -0.000000
  B       2.876927      0.954878      0.000000
6
Coordinates from ORCA-job B6_rhombic_planar_d3.00_q0_m3_R2SCAN-3C E -148.341816841682
  B      -2.714260     -0.897680     -0.000000
  B      -0.431366     -1.090368      0.000000
  B       1.607143     -0.972174     -0.000000
  B      -1.607143      0.972174      0.000000
  B       0.431366      1.090368     -0.000000
  B       2.714260      0.897680      0.000000
6
Coordinates from ORCA-job B6_rhombic_planar_d3.00_q0_m3_R2SCAN-3C E -148.394228020329
  B      -2.598135     -0.860079     -0.000000
  B      -0.389720     -1.075302      0.000000
  B       1.526818     -0.949156     -0.000000
  B      -1.526818      0.949156      0.000000
  B       0.389720      1.075302     -0.000000
  B       2.598135      0.860079      0.000000
6
Coordinates from ORCA-job B6_rhombic_planar_d3.00_q0_m3_R2SCAN-3C E -148.427711259974
  B      -2.521285     -0.835309     -0.000000
  B      -0.365158     -1.066193      0.000000
  B       1.472193     -0.931310     -0.000000
  B      -1.472193      0.931310      0.000000
  B       0.365158      1.066193     -0.000000
  B       2.521285      0.835309      0.000000
6
Coordinates from ORCA-job B6_rhombic_planar_d3.00_q0_m3_R2SCAN-3C E -148.473512781020
  B      -2.407493     -0.797434     -0.000000
  B      -0.337429     -1.050981      0.000000
  B       1.394426     -0.898123     -0.000000
  B      -1.394426      0.898123      0.000000
  B       0.337429      1.050981     -0.000000
  B       2.407493      0.797434      0.000000
6
Coordinates from ORCA-job B6_rhombic_planar_d3.00_q0_m3_R2SCAN-3C E -148.621966715318
  B      -2.247370     -0.741141     -0.000000
  B      -0.323555     -1.019548      0.000000
  B       1.299709     -0.834349     -0.000000
  B      -1.299709      0.834349      0.000000
  B       0.323555      1.019548     -0.000000
  B       2.247370      0.741141      0.000000
6
Coordinates from ORCA-job B6_rhombic_planar_d3.00_q0_m3_R2SCAN-3C E -148.685477507459
  B      -2.072690     -0.676546     -0.000000
  B      -0.311013     -0.987285      0.000001
  B       1.240304     -0.785936     -0.000001
  B      -1.240304      0.785936      0.000001
  B       0.311013      0.987285     -0.000001
  B       2.072689      0.676546      0.000000
6
Coordinates from ORCA-job B6_rhombic_planar_d3.00_q0_m3_R2SCAN-3C E -148.706437755344
  B      -1.997535     -0.661672     -0.000001
  B      -0.342734     -0.943926      0.000003
  B       1.212204     -0.748135     -0.000002
  B      -1.212204      0.748141      0.000002
  B       0.342742      0.943928     -0.000003
  B       1.997527      0.661664      0.000002
6
Coordinates from ORCA-job B6_rhombic_planar_d3.00_q0_m3_R2SCAN-3C E -148.720639068203
  B      -1.986802     -0.682505     -0.000040
  B      -0.353920     -0.857769      0.000069
  B       1.136575     -0.708609     -0.000055
  B      -1.136574      0.708603      0.000057
  B       0.353900      0.857753     -0.000085
  B       1.986822      0.682528      0.000054
6
Coordinates from ORCA-job B6_rhombic_planar_d3.00_q0_m3_R2SCAN-3C E -148.737784588317
  B      -1.991167     -0.647911     -0.000065
  B      -0.359803     -0.816292      0.000118
  B       1.191231     -0.662221     -0.000090
  B      -1.191237      0.662227      0.000094
  B       0.359786      0.816272     -0.000144
  B       1.991191      0.647925      0.000086
6
Coordinates from ORCA-job B6_rhombic_planar_d3.00_q0_m3_R2SCAN-3C E -148.742021593903
  B      -1.943223     -0.647264     -0.000052
  B      -0.368978     -0.857951      0.000099
  B       1.241455     -0.721402     -0.000077
  B      -1.241479      0.721405      0.000080
  B       0.368957      0.857982     -0.000114
  B       1.943269      0.647231      0.000065
6
Coordinates from ORCA-job B6_rhombic_planar_d3.00_q0_m3_R2SCAN-3C E -148.742574992306
  B      -1.945501     -0.623282     -0.000029
  B      -0.344594     -0.870602      0.000059
  B       1.235857     -0.700033     -0.000042
  B      -1.235807      0.700068      0.000040
  B       0.344718      0.870548     -0.000053
  B       1.945327      0.623302      0.000024
6
Coordinates from ORCA-job B6_rhombic_planar_d3.00_q0_m3_R2SCAN-3C E -148.743282690014
  B      -1.935405     -0.635093     -0.000026
  B      -0.357489     -0.868380      0.000053
  B       1.215760     -0.703192     -0.000037
  B      -1.215877      0.702801      0.000037
  B       0.357015      0.868405     -0.000046
  B       1.935996      0.635460      0.000019
6
Coordinates from ORCA-job B6_rhombic_planar_d3.00_q0_m3_R2SCAN-3C E -148.743265433193
  B      -1.946244     -0.638593     -0.000006
  B      -0.355514     -0.873346      0.000021
  B       1.222221     -0.702612     -0.000015
  B      -1.220398      0.707236      0.000014
  B       0.360299      0.873426     -0.000013
  B       1.939636      0.633889     -0.000001
6
Coordinates from ORCA-job B6_rhombic_planar_d3.00_q0_m3_R2SCAN-3C E -148.742304770282
  B      -1.942323     -0.627540      0.000031
  B      -0.365362     -0.882679     -0.000039
  B       1.226856     -0.716267      0.000025
  B      -1.235347      0.699386     -0.000027
  B       0.351408      0.881428      0.000046
  B       1.964767      0.645671     -0.000036
6
Coordinates from ORCA-job B6_rhombic_planar_d3.00_q0_m3_R2SCAN-3C E -148.743314449610
  B      -1.936266     -0.635001      0.000005
  B      -0.359704     -0.872409      0.000005
  B       1.220882     -0.704241     -0.000006
  B      -1.218844      0.704114      0.000005
  B       0.354968      0.873814     -0.000002
  B       1.938964      0.633724     -0.000006
6
Coordinates from ORCA-job B6_rhombic_planar_d3.00_q0_m3_R2SCAN-3C E -148.742379321723
  B      -1.943316     -0.630342      0.000001
  B      -0.341128     -0.875891      0.000012
  B       1.207761     -0.704062     -0.000011
  B      -1.227333      0.702998      0.000011
  B       0.373874      0.868056     -0.000012
  B       1.930143      0.639241     -0.000000
6
Coordinates from ORCA-job B6_rhombic_planar_d3.00_q0_m3_R2SCAN-3C E -148.743333062208
  B      -1.941156     -0.634437      0.000006
  B      -0.357372     -0.874603      0.000002
  B       1.220771     -0.704271     -0.000005
  B      -1.219492      0.704243      0.000004
  B       0.358017      0.873128     -0.000002
  B       1.939233      0.635941     -0.000006
6
Coordinates from ORCA-job B6_rhombic_planar_d3.00_q0_m3_R2SCAN-3C E -148.743319697776
  B      -1.936144     -0.637767      0.000006
  B      -0.357764     -0.871332      0.000003
  B       1.217430     -0.703436     -0.000005
  B      -1.222499      0.704936      0.000005
  B       0.357417      0.875824     -0.000002
  B       1.941559      0.631774     -0.000006
6
Coordinates from ORCA-job B6_rhombic_planar_d3.00_q0_m3_R2SCAN-3C E -148.743335393910
  B      -1.938823     -0.634542      0.000006
  B      -0.357716     -0.873678      0.000003
  B       1.220026     -0.704309     -0.000005
  B      -1.219748      0.704041      0.000005
  B       0.357472      0.873474     -0.000002
  B       1.938790      0.635014     -0.000006
6
Coordinates from ORCA-job B6_rhombic_planar_d3.00_q0_m3_R2SCAN-3C E -148.743335592611
  B      -1.939633     -0.635072      0.000007
  B      -0.357572     -0.873879      0.000001
  B       1.219926     -0.704166     -0.000004
  B      -1.219930      0.704295      0.000004
  B       0.357749      0.873859     -0.000001
  B       1.939461      0.634962     -0.000007
6
Coordinates from ORCA-job B6_rhombic_planar_d3.00_q0_m3_R2SCAN-3C E -148.743335773899
  B      -1.939219     -0.634916      0.000007
  B      -0.357640     -0.873774      0.000002
  B       1.219909     -0.704213     -0.000004
  B      -1.219912      0.704216      0.000004
  B       0.357639      0.873776     -0.000002
  B       1.939224      0.634912     -0.000007
6
Coordinates from ORCA-job B6_rhombic_planar_d3.00_q0_m3_R2SCAN-3C E -148.743335774217
  B      -1.939220     -0.634916      0.000007
  B      -0.357639     -0.873780      0.000001
  B       1.219902     -0.704213     -0.000004
  B      -1.219902      0.704210      0.000004
  B       0.357644      0.873786     -0.000001
  B       1.939216      0.634912     -0.000007
