6
Coordinates from ORCA-job B6_rhombic_planar_d3.00_q0_m3_R2SCAN-3C E -148.743335774217
  B          -1.93922044263173     -0.63491576153591      0.00000674903712
  B          -0.35763925203184     -0.87377955127654      0.00000149027488
  B           1.21990213016308     -0.70421273432953     -0.00000422128265
  B          -1.21990233582194      0.70421046933410      0.00000414355434
  B           0.35764372969861      0.87378585861183     -0.00000140942963
  B           1.93921617062381      0.63491171919605     -0.00000675215407
