6
Coordinates from ORCA-job B6_compact_planar_triangle_d1.80_q0_m5_R2SCAN-3C E -148.609999431108
  B      -1.800000     -1.039230      0.000000
  B       0.000000     -1.039230      0.000000
  B       1.800000     -1.039230      0.000000
  B      -0.900000      0.519615      0.000000
  B       0.900000      0.519615      0.000000
  B       0.000000      2.078461      0.000000
6
Coordinates from ORCA-job B6_compact_planar_triangle_d1.80_q0_m5_R2SCAN-3C E -148.642419330700
  B      -1.731360     -1.011272     -0.000000
  B      -0.000000     -1.033678      0.000000
  B       1.731360     -1.011272     -0.000000
  B      -0.888913      0.521592     -0.000000
  B       0.888913      0.521592     -0.000000
  B       0.000000      2.013038      0.000000
6
Coordinates from ORCA-job B6_compact_planar_triangle_d1.80_q0_m5_R2SCAN-3C E -148.666510319925
  B      -1.661582     -0.984635     -0.000000
  B      -0.000000     -1.031192     -0.000000
  B       1.661582     -0.984635     -0.000000
  B      -0.877799      0.525582      0.000000
  B       0.877799      0.525582      0.000000
  B       0.000000      1.949299     -0.000000
6
Coordinates from ORCA-job B6_compact_planar_triangle_d1.80_q0_m5_R2SCAN-3C E -148.679766274113
  B      -1.557545     -0.943903     -0.000000
  B      -0.000000     -1.034768     -0.000000
  B       1.557545     -0.943903     -0.000000
  B      -0.859571      0.533458      0.000000
  B       0.859571      0.533458      0.000000
  B       0.000000      1.855658     -0.000000
6
Coordinates from ORCA-job B6_compact_planar_triangle_d1.80_q0_m5_R2SCAN-3C E -148.680242005480
  B      -1.572907     -0.944054      0.000000
  B      -0.000000     -1.044819      0.000000
  B       1.572907     -0.944054      0.000000
  B      -0.861485      0.532814     -0.000000
  B       0.861485      0.532814     -0.000000
  B       0.000000      1.867300      0.000000
6
Coordinates from ORCA-job B6_compact_planar_triangle_d1.80_q0_m5_R2SCAN-3C E -148.680458472471
  B      -1.574064     -0.940182     -0.000000
  B      -0.000000     -1.057017      0.000000
  B       1.574064     -0.940182     -0.000000
  B      -0.860539      0.533751      0.000000
  B       0.860539      0.533751      0.000000
  B       0.000000      1.869879     -0.000000
6
Coordinates from ORCA-job B6_compact_planar_triangle_d1.80_q0_m5_R2SCAN-3C E -148.680700873675
  B      -1.570449     -0.932300      0.000000
  B      -0.000000     -1.084238     -0.000000
  B       1.570449     -0.932300      0.000000
  B      -0.856738      0.536774     -0.000000
  B       0.856738      0.536774     -0.000000
  B       0.000000      1.875291      0.000000
6
Coordinates from ORCA-job B6_compact_planar_triangle_d1.80_q0_m5_R2SCAN-3C E -148.680708629047
  B      -1.568833     -0.932074     -0.000000
  B      -0.000000     -1.087624      0.000000
  B       1.568833     -0.932074     -0.000000
  B      -0.855668      0.537595      0.000000
  B       0.855668      0.537595      0.000000
  B       0.000000      1.876583     -0.000000
6
Coordinates from ORCA-job B6_compact_planar_triangle_d1.80_q0_m5_R2SCAN-3C E -148.680709261650
  B      -1.568464     -0.932325      0.000000
  B      -0.000000     -1.087908     -0.000000
  B       1.568464     -0.932325      0.000000
  B      -0.855264      0.537802     -0.000000
  B       0.855264      0.537802     -0.000000
  B       0.000000      1.876955      0.000000
6
Coordinates from ORCA-job B6_compact_planar_triangle_d1.80_q0_m5_R2SCAN-3C E -148.680709358735
  B      -1.568453     -0.932409     -0.000000
  B      -0.000000     -1.087799      0.000000
  B       1.568453     -0.932409     -0.000000
  B      -0.855079      0.537796      0.000000
  B       0.855080      0.537796      0.000000
  B       0.000000      1.877024     -0.000000
