6
Coordinates from ORCA-job B6_compact_planar_triangle_d1.80_q0_m5_R2SCAN-3C E -148.680709358735
  B          -1.56845299229947     -0.93240885174387     -0.00000001351287
  B          -0.00000000274713     -1.08779861166999      0.00000000446475
  B           1.56845299033307     -0.93240884977740     -0.00000001268577
  B          -0.85507949647265      0.53779627992101      0.00000002306839
  B           0.85507950050630      0.53779628521283      0.00000002157968
  B           0.00000000067989      1.87702375805742     -0.00000002291417
