6
Coordinates from ORCA-job B6_trigonal_prism_d2.50_q0_m3_R2SCAN-3C E -148.605297527125
  B           0.83773960544860      0.48374000996913     -0.88050666500834
  B          -0.83773867360564      0.48375072556783     -0.88049273248205
  B           0.00001232896523     -0.96745647710822     -0.88015002683668
  B           0.83768252996321      0.48365912977709      0.88047193982224
  B          -0.83768347622625      0.48364843907741      0.88048586620743
  B          -0.00001231454514     -0.96734180728324      0.88019161829739
