6
Coordinates from ORCA-job B6_trigonal_prism_d2.50_q0_m3_R2SCAN-3C E -148.196858663534
  B       1.250000      0.721688     -1.250000
  B      -1.250000      0.721688     -1.250000
  B      -0.000000     -1.443376     -1.250000
  B       1.250000      0.721688      1.250000
  B      -1.250000      0.721688      1.250000
  B      -0.000000     -1.443376      1.250000
6
Coordinates from ORCA-job B6_trigonal_prism_d2.50_q0_m3_R2SCAN-3C E -148.225333848482
  B       1.226942      0.708378     -1.217800
  B      -1.226942      0.708378     -1.217800
  B      -0.000000     -1.416755     -1.217791
  B       1.226942      0.708378      1.217800
  B      -1.226942      0.708378      1.217800
  B      -0.000000     -1.416755      1.217791
6
Coordinates from ORCA-job B6_trigonal_prism_d2.50_q0_m3_R2SCAN-3C E -148.255058387746
  B       1.203974      0.695122     -1.185468
  B      -1.203974      0.695122     -1.185468
  B      -0.000000     -1.390243     -1.185449
  B       1.203974      0.695122      1.185468
  B      -1.203974      0.695122      1.185468
  B      -0.000000     -1.390243      1.185449
6
Coordinates from ORCA-job B6_trigonal_prism_d2.50_q0_m3_R2SCAN-3C E -148.301741114746
  B       1.169593      0.675279     -1.136871
  B      -1.169593      0.675279     -1.136871
  B      -0.000000     -1.350557     -1.136837
  B       1.169593      0.675279      1.136871
  B      -1.169593      0.675279      1.136871
  B       0.000000     -1.350557      1.136837
6
Coordinates from ORCA-job B6_trigonal_prism_d2.50_q0_m3_R2SCAN-3C E -148.373997762940
  B       1.117883      0.645418     -1.064191
  B      -1.117883      0.645418     -1.064191
  B      -0.000000     -1.290836     -1.064135
  B       1.117883      0.645418      1.064191
  B      -1.117883      0.645418      1.064191
  B       0.000000     -1.290836      1.064135
6
Coordinates from ORCA-job B6_trigonal_prism_d2.50_q0_m3_R2SCAN-3C E -148.449599876245
  B       1.062803      0.613637     -0.990914
  B      -1.062803      0.613637     -0.990914
  B      -0.000000     -1.227274     -0.990837
  B       1.062803      0.613637      0.990914
  B      -1.062803      0.613637      0.990914
  B      -0.000000     -1.227274      0.990837
6
Coordinates from ORCA-job B6_trigonal_prism_d2.50_q0_m3_R2SCAN-3C E -148.517783260972
  B       1.000768      0.577826     -0.929768
  B      -1.000768      0.577826     -0.929768
  B       0.000000     -1.155651     -0.929689
  B       1.000768      0.577826      0.929768
  B      -1.000768      0.577826      0.929768
  B       0.000000     -1.155651      0.929689
6
Coordinates from ORCA-job B6_trigonal_prism_d2.50_q0_m3_R2SCAN-3C E -148.572086928342
  B       0.929918      0.536969     -0.892263
  B      -0.929918      0.536969     -0.892263
  B       0.000000     -1.073938     -0.892170
  B       0.929918      0.536969      0.892263
  B      -0.929918      0.536969      0.892263
  B      -0.000000     -1.073938      0.892170
6
Coordinates from ORCA-job B6_trigonal_prism_d2.50_q0_m3_R2SCAN-3C E -148.603757648806
  B       0.854386      0.493383     -0.886797
  B      -0.854386      0.493383     -0.886797
  B       0.000000     -0.986766     -0.886625
  B       0.854386      0.493383      0.886797
  B      -0.854386      0.493383      0.886797
  B      -0.000000     -0.986766      0.886625
6
Coordinates from ORCA-job B6_trigonal_prism_d2.50_q0_m3_R2SCAN-3C E -148.604725937018
  B       0.827711      0.477801     -0.879614
  B      -0.827711      0.477801     -0.879614
  B       0.000000     -0.955602     -0.879241
  B       0.827711      0.477801      0.879614
  B      -0.827711      0.477801      0.879614
  B      -0.000000     -0.955601      0.879241
6
Coordinates from ORCA-job B6_trigonal_prism_d2.50_q0_m3_R2SCAN-3C E -148.605285508846
  B       0.838624      0.484351     -0.878910
  B      -0.838624      0.484351     -0.878910
  B       0.000000     -0.968702     -0.878642
  B       0.838624      0.484351      0.878910
  B      -0.838624      0.484351      0.878910
  B      -0.000000     -0.968702      0.878642
6
Coordinates from ORCA-job B6_trigonal_prism_d2.50_q0_m3_R2SCAN-3C E -148.605294034864
  B       0.837982      0.483629     -0.881643
  B      -0.837982      0.483629     -0.881643
  B       0.000000     -0.967257     -0.881180
  B       0.837982      0.483628      0.881643
  B      -0.837982      0.483628      0.881643
  B      -0.000000     -0.967257      0.881180
6
Coordinates from ORCA-job B6_trigonal_prism_d2.50_q0_m3_R2SCAN-3C E -148.605297356411
  B       0.837433      0.483786     -0.880464
  B      -0.837433      0.483786     -0.880464
  B       0.000000     -0.967571     -0.880198
  B       0.837434      0.483785      0.880463
  B      -0.837434      0.483784      0.880464
  B      -0.000000     -0.967570      0.880199
6
Coordinates from ORCA-job B6_trigonal_prism_d2.50_q0_m3_R2SCAN-3C E -148.605297046263
  B       0.838049      0.483501     -0.880414
  B      -0.838049      0.483502     -0.880412
  B       0.000001     -0.966999     -0.879805
  B       0.838052      0.483497      0.880410
  B      -0.838052      0.483496      0.880412
  B      -0.000001     -0.966997      0.879810
6
Coordinates from ORCA-job B6_trigonal_prism_d2.50_q0_m3_R2SCAN-3C E -148.605297520971
  B       0.837704      0.483701     -0.880508
  B      -0.837704      0.483703     -0.880504
  B       0.000003     -0.967395     -0.880125
  B       0.837717      0.483696      0.880499
  B      -0.837717      0.483694      0.880502
  B      -0.000003     -0.967398      0.880136
6
Coordinates from ORCA-job B6_trigonal_prism_d2.50_q0_m3_R2SCAN-3C E -148.605297527125
  B       0.837740      0.483740     -0.880507
  B      -0.837739      0.483751     -0.880493
  B       0.000012     -0.967456     -0.880150
  B       0.837683      0.483659      0.880472
  B      -0.837683      0.483648      0.880486
  B      -0.000012     -0.967342      0.880192
