6
Coordinates from ORCA-job B6_random_3d_seed1004_d2.00_q0_m3_R2SCAN-3C E -148.511558780920
  B      -0.604804     -0.546986      1.219639
  B       0.936456      0.852195      0.927503
  B       1.032215     -1.074099      0.424382
  B      -1.388134      0.108956     -0.461785
  B       0.012143      1.360731     -0.833349
  B       0.012122     -0.700797     -1.276390
6
Coordinates from ORCA-job B6_random_3d_seed1004_d2.00_q0_m3_R2SCAN-3C E -148.547089121240
  B      -0.599389     -0.541093      1.176707
  B       0.926523      0.830922      0.888225
  B       1.010230     -1.043819      0.419393
  B      -1.363877      0.109904     -0.452786
  B       0.008751      1.307435     -0.806700
  B       0.017762     -0.663350     -1.224840
6
Coordinates from ORCA-job B6_random_3d_seed1004_d2.00_q0_m3_R2SCAN-3C E -148.579936007062
  B      -0.593581     -0.535949      1.128661
  B       0.920466      0.812542      0.846874
  B       0.989342     -1.015072      0.416449
  B      -1.340882      0.112559     -0.447838
  B       0.002659      1.263327     -0.772651
  B       0.021997     -0.637407     -1.171496
6
Coordinates from ORCA-job B6_random_3d_seed1004_d2.00_q0_m3_R2SCAN-3C E -148.623385567696
  B      -0.586506     -0.527414      1.051776
  B       0.913813      0.787785      0.780943
  B       0.959468     -0.973411      0.410858
  B      -1.309817      0.119008     -0.442013
  B      -0.008254      1.217105     -0.710060
  B       0.031296     -0.623073     -1.091504
6
Coordinates from ORCA-job B6_random_3d_seed1004_d2.00_q0_m3_R2SCAN-3C E -148.668332311754
  B      -0.584834     -0.511404      0.934201
  B       0.904635      0.751180      0.682589
  B       0.924919     -0.913255      0.395489
  B      -1.270880      0.134998     -0.430907
  B      -0.026916      1.174736     -0.608571
  B       0.053076     -0.636256     -0.972802
6
Coordinates from ORCA-job B6_random_3d_seed1004_d2.00_q0_m3_R2SCAN-3C E -148.682374129684
  B      -0.596505     -0.494152      0.841137
  B       0.915887      0.698956      0.606537
  B       0.927686     -0.866823      0.399941
  B      -1.253205      0.160742     -0.432634
  B      -0.068690      1.169178     -0.530378
  B       0.074827     -0.667901     -0.884604
6
Coordinates from ORCA-job B6_random_3d_seed1004_d2.00_q0_m3_R2SCAN-3C E -148.689467511503
  B      -0.602186     -0.490507      0.828437
  B       0.949603      0.680813      0.576372
  B       0.945155     -0.871523      0.438292
  B      -1.262107      0.162060     -0.459421
  B      -0.102836      1.204134     -0.498021
  B       0.072371     -0.684977     -0.885659
6
Coordinates from ORCA-job B6_random_3d_seed1004_d2.00_q0_m3_R2SCAN-3C E -148.696263467027
  B      -0.622434     -0.491879      0.814548
  B       0.993010      0.689857      0.503977
  B       0.952223     -0.895805      0.477695
  B      -1.270451      0.154007     -0.500947
  B      -0.134217      1.265403     -0.422249
  B       0.081868     -0.721582     -0.873024
6
Coordinates from ORCA-job B6_random_3d_seed1004_d2.00_q0_m3_R2SCAN-3C E -148.698845945018
  B      -0.634566     -0.484180      0.810747
  B       1.037116      0.662764      0.442707
  B       0.942694     -0.895582      0.504514
  B      -1.260936      0.153915     -0.537231
  B      -0.187483      1.295908     -0.365129
  B       0.103175     -0.732823     -0.855608
6
Coordinates from ORCA-job B6_random_3d_seed1004_d2.00_q0_m3_R2SCAN-3C E -148.700104067502
  B      -0.644337     -0.485113      0.813296
  B       1.049588      0.664964      0.395711
  B       0.933254     -0.883380      0.527173
  B      -1.241387      0.152919     -0.559610
  B      -0.197878      1.301359     -0.311528
  B       0.100759     -0.750749     -0.865041
6
Coordinates from ORCA-job B6_random_3d_seed1004_d2.00_q0_m3_R2SCAN-3C E -148.700478967079
  B      -0.645387     -0.489754      0.814334
  B       1.064591      0.671592      0.373595
  B       0.917358     -0.883326      0.537279
  B      -1.225743      0.147269     -0.569810
  B      -0.209345      1.313758     -0.288444
  B       0.098526     -0.759538     -0.866954
6
Coordinates from ORCA-job B6_random_3d_seed1004_d2.00_q0_m3_R2SCAN-3C E -148.700526945130
  B      -0.645731     -0.496067      0.813793
  B       1.069273      0.673554      0.371507
  B       0.912665     -0.876691      0.538132
  B      -1.222030      0.146025     -0.571594
  B      -0.208274      1.316667     -0.284920
  B       0.094098     -0.763487     -0.866918
6
Coordinates from ORCA-job B6_random_3d_seed1004_d2.00_q0_m3_R2SCAN-3C E -148.700541929588
  B      -0.647244     -0.499368      0.814244
  B       1.070658      0.675742      0.372944
  B       0.911721     -0.875355      0.537287
  B      -1.221005      0.147138     -0.569729
  B      -0.207475      1.316391     -0.287213
  B       0.093345     -0.764548     -0.867534
6
Coordinates from ORCA-job B6_random_3d_seed1004_d2.00_q0_m3_R2SCAN-3C E -148.700553931571
  B      -0.651079     -0.503389      0.815180
  B       1.072906      0.678252      0.374627
  B       0.910897     -0.873037      0.535724
  B      -1.221268      0.147565     -0.566592
  B      -0.205079      1.315424     -0.290352
  B       0.093623     -0.764815     -0.868587
6
Coordinates from ORCA-job B6_random_3d_seed1004_d2.00_q0_m3_R2SCAN-3C E -148.700556365769
  B      -0.652533     -0.504799      0.814956
  B       1.074163      0.679357      0.374850
  B       0.910686     -0.872141      0.535663
  B      -1.221976      0.147644     -0.565590
  B      -0.203993      1.314396     -0.291071
  B       0.093654     -0.764457     -0.868808
6
Coordinates from ORCA-job B6_random_3d_seed1004_d2.00_q0_m3_R2SCAN-3C E -148.700559019988
  B      -0.653873     -0.505812      0.814457
  B       1.076161      0.680248      0.374485
  B       0.910285     -0.871210      0.536229
  B      -1.223314      0.147496     -0.565017
  B      -0.203141      1.312553     -0.291170
  B       0.093881     -0.763275     -0.868984
6
Coordinates from ORCA-job B6_random_3d_seed1004_d2.00_q0_m3_R2SCAN-3C E -148.700562187851
  B      -0.655640     -0.507120      0.813412
  B       1.080323      0.681803      0.373969
  B       0.909225     -0.869509      0.537487
  B      -1.226024      0.147074     -0.564498
  B      -0.201943      1.308396     -0.291040
  B       0.094059     -0.760644     -0.869330
6
Coordinates from ORCA-job B6_random_3d_seed1004_d2.00_q0_m3_R2SCAN-3C E -148.700563863644
  B      -0.655701     -0.506712      0.813002
  B       1.082045      0.682174      0.373896
  B       0.908753     -0.868969      0.538008
  B      -1.227193      0.146688     -0.564941
  B      -0.201846      1.306194     -0.290468
  B       0.093941     -0.759375     -0.869497
6
Coordinates from ORCA-job B6_random_3d_seed1004_d2.00_q0_m3_R2SCAN-3C E -148.700566038364
  B      -0.655438     -0.505242      0.812493
  B       1.084924      0.682920      0.374448
  B       0.907987     -0.868047      0.538296
  B      -1.229003      0.145848     -0.566156
  B      -0.201826      1.302126     -0.289232
  B       0.093356     -0.757605     -0.869849
6
Coordinates from ORCA-job B6_random_3d_seed1004_d2.00_q0_m3_R2SCAN-3C E -148.700567236289
  B      -0.655301     -0.504351      0.812501
  B       1.085967      0.683525      0.375326
  B       0.907806     -0.867625      0.537753
  B      -1.229468      0.145472     -0.566835
  B      -0.201784      1.300598     -0.288683
  B       0.092779     -0.757618     -0.870062
6
Coordinates from ORCA-job B6_random_3d_seed1004_d2.00_q0_m3_R2SCAN-3C E -148.700569228894
  B      -0.655308     -0.502630      0.812669
  B       1.087368      0.684882      0.377395
  B       0.907853     -0.866840      0.536004
  B      -1.229789      0.144895     -0.568054
  B      -0.201618      1.298555     -0.287608
  B       0.091494     -0.758862     -0.870407
6
Coordinates from ORCA-job B6_random_3d_seed1004_d2.00_q0_m3_R2SCAN-3C E -148.700569930487
  B      -0.655835     -0.502343      0.812616
  B       1.088395      0.685829      0.378196
  B       0.907860     -0.866188      0.535260
  B      -1.230149      0.144752     -0.568368
  B      -0.201255      1.297471     -0.287138
  B       0.090984     -0.759520     -0.870566
6
Coordinates from ORCA-job B6_random_3d_seed1004_d2.00_q0_m3_R2SCAN-3C E -148.700569605218
  B      -0.657724     -0.501801      0.812024
  B       1.093096      0.689067      0.380312
  B       0.907286     -0.863616      0.533741
  B      -1.232260      0.144105     -0.569260
  B      -0.199897      1.292432     -0.285595
  B       0.089499     -0.760186     -0.871222
6
Coordinates from ORCA-job B6_random_3d_seed1004_d2.00_q0_m3_R2SCAN-3C E -148.700570222771
  B      -0.656712     -0.502304      0.812262
  B       1.090565      0.687235      0.378924
  B       0.907539     -0.865012      0.534799
  B      -1.231119      0.144506     -0.568690
  B      -0.200659      1.295297     -0.286452
  B       0.090386     -0.759721     -0.870843
6
Coordinates from ORCA-job B6_random_3d_seed1004_d2.00_q0_m3_R2SCAN-3C E -148.700570227450
  B      -0.656622     -0.502369      0.812250
  B       1.090365      0.687035      0.378715
  B       0.907541     -0.865134      0.534962
  B      -1.231047      0.144545     -0.568635
  B      -0.200743      1.295541     -0.286501
  B       0.090506     -0.759618     -0.870790
