6
Coordinates from ORCA-job B6_random_3d_seed1004_d2.00_q0_m3_R2SCAN-3C E -148.700570227450
  B          -0.65662249490382     -0.50236921063862      0.81224989975969
  B           1.09036545155534      0.68703488096530      0.37871503545845
  B           0.90754066334802     -0.86513423688151      0.53496187581397
  B          -1.23104661807854      0.14454507158656     -0.56863510626233
  B          -0.20074322669354      1.29554134219694     -0.28650140757754
  B           0.09050621477254     -0.75961784722868     -0.87079029719223
