6
Coordinates from ORCA-job B6_trigonal_prism_d3.50_q0_m3_R2SCAN-3C E -148.700567943490
  B           0.77948920838613      0.38556471530125     -1.05058123562828
  B          -0.74455943267638      0.68924509109478     -0.56034159912537
  B           0.46747972809509     -1.09291612525470     -0.62259462829130
  B           0.74708932485902      0.69608624841444      0.54849088096162
  B          -0.77789040558438      0.40463491300501      1.04351075469815
  B          -0.47160842307947     -1.08261484256077      0.64151582738518
