6
Coordinates from ORCA-job B6_trigonal_prism_d3.50_q0_m3_R2SCAN-3C E -147.899339127410
  B       1.750000      1.010363     -1.750000
  B      -1.750000      1.010363     -1.750000
  B      -0.000000     -2.020726     -1.750000
  B       1.750000      1.010363      1.750000
  B      -1.750000      1.010363      1.750000
  B      -0.000000     -2.020726      1.750000
6
Coordinates from ORCA-job B6_trigonal_prism_d3.50_q0_m3_R2SCAN-3C E -147.907956490928
  B       1.717518      1.002545     -1.715147
  B      -1.717697      1.002836     -1.715136
  B       0.000174     -2.005133     -1.715732
  B       1.730876      1.000759      1.715009
  B      -1.730865      1.000757      1.714988
  B      -0.000006     -2.001764      1.716018
6
Coordinates from ORCA-job B6_trigonal_prism_d3.50_q0_m3_R2SCAN-3C E -147.917103961385
  B       1.685711      0.994669     -1.679850
  B      -1.686080      0.995270     -1.679825
  B       0.000360     -1.989524     -1.680928
  B       1.712441      0.991206      1.679619
  B      -1.712415      0.991199      1.679576
  B      -0.000017     -1.982820      1.681407
6
Coordinates from ORCA-job B6_trigonal_prism_d3.50_q0_m3_R2SCAN-3C E -147.931931156552
  B       1.639695      0.982778     -1.626074
  B      -1.640360      0.983864     -1.626014
  B       0.000660     -1.965717     -1.627757
  B       1.685444      0.976977      1.625547
  B      -1.685392      0.976956      1.625476
  B      -0.000046     -1.954858      1.628820
6
Coordinates from ORCA-job B6_trigonal_prism_d3.50_q0_m3_R2SCAN-3C E -147.956387397477
  B       1.574984      0.964808     -1.546581
  B      -1.576091      0.966603     -1.546504
  B       0.001118     -1.929759     -1.548139
  B       1.645897      0.956392      1.545623
  B      -1.645774      0.956308      1.545567
  B      -0.000134     -1.914351      1.550033
6
Coordinates from ORCA-job B6_trigonal_prism_d3.50_q0_m3_R2SCAN-3C E -147.984358521902
  B       1.513608      0.943736     -1.466762
  B      -1.518702      0.951193     -1.466273
  B       0.005550     -1.894019     -1.469450
  B       1.608587      0.939315      1.465741
  B      -1.604716      0.934261      1.466141
  B      -0.004327     -1.874486      1.470603
6
Coordinates from ORCA-job B6_trigonal_prism_d3.50_q0_m3_R2SCAN-3C E -148.016260710155
  B       1.462190      0.924146     -1.386222
  B      -1.471330      0.935019     -1.385937
  B       0.009618     -1.860547     -1.391545
  B       1.577796      0.926178      1.386339
  B      -1.565876      0.910878      1.387017
  B      -0.012397     -1.835674      1.390347
6
Coordinates from ORCA-job B6_trigonal_prism_d3.50_q0_m3_R2SCAN-3C E -148.044117399011
  B       1.434720      0.913746     -1.319482
  B      -1.445742      0.923206     -1.321573
  B       0.009663     -1.839702     -1.328833
  B       1.561799      0.918208      1.321996
  B      -1.543372      0.896054      1.321665
  B      -0.017068     -1.811513      1.326227
6
Coordinates from ORCA-job B6_trigonal_prism_d3.50_q0_m3_R2SCAN-3C E -148.064220600839
  B       1.418826      0.908150     -1.274650
  B      -1.429811      0.914959     -1.278213
  B       0.008301     -1.825795     -1.285854
  B       1.551293      0.912725      1.278379
  B      -1.529536      0.887078      1.277086
  B      -0.019073     -1.797116      1.283251
6
Coordinates from ORCA-job B6_trigonal_prism_d3.50_q0_m3_R2SCAN-3C E -148.096517465484
  B       1.396270      0.900085     -1.207286
  B      -1.406495      0.902539     -1.212649
  B       0.005983     -1.805025     -1.221157
  B       1.535227      0.904812      1.212383
  B      -1.509093      0.874131      1.209969
  B      -0.021893     -1.776542      1.218740
6
Coordinates from ORCA-job B6_trigonal_prism_d3.50_q0_m3_R2SCAN-3C E -148.142399349399
  B       1.363903      0.888365     -1.126765
  B      -1.372198      0.884012     -1.133907
  B       0.002300     -1.774252     -1.141842
  B       1.510952      0.893584      1.133289
  B      -1.478841      0.855273      1.129420
  B      -0.026116     -1.746983      1.139806
6
Coordinates from ORCA-job B6_trigonal_prism_d3.50_q0_m3_R2SCAN-3C E -148.196601035347
  B       1.322051      0.871923     -1.047935
  B      -1.328416      0.867284     -1.054067
  B       0.001910     -1.738589     -1.061746
  B       1.476724      0.876590      1.052410
  B      -1.444809      0.835637      1.049564
  B      -0.027460     -1.712844      1.061774
6
Coordinates from ORCA-job B6_trigonal_prism_d3.50_q0_m3_R2SCAN-3C E -148.250676398372
  B       1.277685      0.854651     -0.969097
  B      -1.282215      0.849641     -0.974322
  B       0.001445     -1.700858     -0.981439
  B       1.440799      0.858636      0.971512
  B      -1.408898      0.814971      0.969548
  B      -0.028817     -1.677041      0.983798
6
Coordinates from ORCA-job B6_trigonal_prism_d3.50_q0_m3_R2SCAN-3C E -148.316403238198
  B       1.217217      0.833764     -0.890171
  B      -1.220202      0.829091     -0.894397
  B       0.001270     -1.654610     -0.900181
  B       1.397815      0.835391      0.889740
  B      -1.364791      0.786845      0.888628
  B      -0.031308     -1.630482      0.906381
6
Coordinates from ORCA-job B6_trigonal_prism_d3.50_q0_m3_R2SCAN-3C E -148.371427443041
  B       1.139790      0.816232     -0.815338
  B      -1.153953      0.805374     -0.820005
  B      -0.007222     -1.618336     -0.821889
  B       1.357650      0.824127      0.829039
  B      -1.304080      0.765339      0.803178
  B      -0.032186     -1.592736      0.825015
6
Coordinates from ORCA-job B6_trigonal_prism_d3.50_q0_m3_R2SCAN-3C E -148.409228422652
  B       1.053434      0.791494     -0.725513
  B      -1.083922      0.782457     -0.782122
  B      -0.007725     -1.567351     -0.761087
  B       1.324607      0.794381      0.752607
  B      -1.258513      0.741069      0.749648
  B      -0.027881     -1.542049      0.766468
6
Coordinates from ORCA-job B6_trigonal_prism_d3.50_q0_m3_R2SCAN-3C E -148.442295680670
  B       0.972712      0.768109     -0.738921
  B      -1.015598      0.762830     -0.779851
  B      -0.007430     -1.527372     -0.769107
  B       1.291699      0.777104      0.770763
  B      -1.213809      0.722591      0.744457
  B      -0.027574     -1.503262      0.772659
6
Coordinates from ORCA-job B6_trigonal_prism_d3.50_q0_m3_R2SCAN-3C E -148.465850855316
  B       0.920333      0.753815     -0.742089
  B      -0.960307      0.747891     -0.778674
  B      -0.008420     -1.508622     -0.777048
  B       1.260145      0.771385      0.774491
  B      -1.182186      0.712906      0.749852
  B      -0.029566     -1.477374      0.773467
6
Coordinates from ORCA-job B6_trigonal_prism_d3.50_q0_m3_R2SCAN-3C E -148.480429566733
  B       0.886395      0.742409     -0.742993
  B      -0.923591      0.737026     -0.779584
  B      -0.008236     -1.495483     -0.784851
  B       1.241002      0.766893      0.775799
  B      -1.164476      0.706005      0.756606
  B      -0.031095     -1.456849      0.775022
6
Coordinates from ORCA-job B6_trigonal_prism_d3.50_q0_m3_R2SCAN-3C E -148.499425361071
  B       0.839651      0.722129     -0.741602
  B      -0.874072      0.717914     -0.774112
  B      -0.007873     -1.470850     -0.790402
  B       1.213410      0.757803      0.775928
  B      -1.137392      0.692249      0.759730
  B      -0.033724     -1.419245      0.770459
6
Coordinates from ORCA-job B6_trigonal_prism_d3.50_q0_m3_R2SCAN-3C E -148.522849303790
  B       0.796904      0.683650     -0.740181
  B      -0.821929      0.679686     -0.770843
  B      -0.007839     -1.421347     -0.803774
  B       1.173807      0.740590      0.776215
  B      -1.098880      0.659022      0.773405
  B      -0.042064     -1.341601      0.765177
6
Coordinates from ORCA-job B6_trigonal_prism_d3.50_q0_m3_R2SCAN-3C E -148.553180287646
  B       0.766446      0.630551     -0.747601
  B      -0.774985      0.625885     -0.771053
  B      -0.007362     -1.346478     -0.823578
  B       1.118916      0.716904      0.780690
  B      -1.045558      0.607572      0.797887
  B      -0.057457     -1.234434      0.763655
6
Coordinates from ORCA-job B6_trigonal_prism_d3.50_q0_m3_R2SCAN-3C E -148.576494563743
  B       0.726078      0.573612     -0.755652
  B      -0.720862      0.570136     -0.772145
  B      -0.006605     -1.269954     -0.845170
  B       1.061627      0.693061      0.788901
  B      -0.989145      0.558424      0.823219
  B      -0.071093     -1.125279      0.760847
6
Coordinates from ORCA-job B6_trigonal_prism_d3.50_q0_m3_R2SCAN-3C E -148.602595009076
  B       0.777206      0.563960     -0.765616
  B      -0.748116      0.546862     -0.775777
  B      -0.006149     -1.220230     -0.838104
  B       1.031071      0.670934      0.772190
  B      -0.953994      0.494552      0.835305
  B      -0.100017     -1.056078      0.772003
6
Coordinates from ORCA-job B6_trigonal_prism_d3.50_q0_m3_R2SCAN-3C E -148.615752306198
  B       0.798614      0.560067     -0.794795
  B      -0.747561      0.541820     -0.783453
  B      -0.003598     -1.189003     -0.813866
  B       0.998671      0.656587      0.770107
  B      -0.924377      0.449389      0.853234
  B      -0.121748     -1.018859      0.768773
6
Coordinates from ORCA-job B6_trigonal_prism_d3.50_q0_m3_R2SCAN-3C E -148.631283626930
  B       0.834534      0.545051     -0.840267
  B      -0.740623      0.551839     -0.772073
  B       0.020203     -1.145774     -0.799930
  B       0.915723      0.630249      0.741695
  B      -0.881727      0.409978      0.880584
  B      -0.148110     -0.991343      0.789991
6
Coordinates from ORCA-job B6_trigonal_prism_d3.50_q0_m3_R2SCAN-3C E -148.651284709308
  B       0.891788      0.510671     -0.927112
  B      -0.741844      0.588128     -0.737024
  B       0.080889     -1.076061     -0.759349
  B       0.799656      0.585253      0.692475
  B      -0.843372      0.364096      0.917665
  B      -0.187117     -0.972087      0.813344
6
Coordinates from ORCA-job B6_trigonal_prism_d3.50_q0_m3_R2SCAN-3C E -148.672131003900
  B       0.904186      0.437672     -0.990305
  B      -0.714942      0.612265     -0.680124
  B       0.163720     -0.991538     -0.741120
  B       0.708824      0.559673      0.632814
  B      -0.852685      0.375398      0.963097
  B      -0.209103     -0.993470      0.815638
6
Coordinates from ORCA-job B6_trigonal_prism_d3.50_q0_m3_R2SCAN-3C E -148.685448144486
  B       0.932914      0.418968     -1.047595
  B      -0.716837      0.671055     -0.616094
  B       0.235831     -1.008915     -0.701704
  B       0.710108      0.606575      0.564551
  B      -0.899114      0.389945      1.000782
  B      -0.262902     -1.077628      0.800060
6
Coordinates from ORCA-job B6_trigonal_prism_d3.50_q0_m3_R2SCAN-3C E -148.683259598428
  B       0.847568      0.367552     -0.985808
  B      -0.688775      0.679117     -0.543805
  B       0.319857     -0.992821     -0.725938
  B       0.719688      0.625535      0.501518
  B      -0.889962      0.397251      0.963550
  B      -0.308377     -1.076633      0.790483
6
Coordinates from ORCA-job B6_trigonal_prism_d3.50_q0_m3_R2SCAN-3C E -148.694407127272
  B       0.864723      0.399819     -1.009415
  B      -0.728433      0.705603     -0.582825
  B       0.307809     -1.039430     -0.684500
  B       0.725428      0.637938      0.536813
  B      -0.853469      0.385220      0.971289
  B      -0.316058     -1.089151      0.768637
6
Coordinates from ORCA-job B6_trigonal_prism_d3.50_q0_m3_R2SCAN-3C E -148.696329282686
  B       0.859722      0.385434     -1.038518
  B      -0.746839      0.708229     -0.595300
  B       0.349569     -1.025533     -0.657819
  B       0.741066      0.649314      0.541072
  B      -0.840656      0.375833      1.008142
  B      -0.362861     -1.093278      0.742423
6
Coordinates from ORCA-job B6_trigonal_prism_d3.50_q0_m3_R2SCAN-3C E -148.699026755645
  B       0.833108      0.397814     -1.043019
  B      -0.759858      0.707476     -0.579606
  B       0.399090     -1.052707     -0.630711
  B       0.743171      0.671438      0.539585
  B      -0.793074      0.389167      1.004898
  B      -0.422437     -1.113188      0.708852
6
Coordinates from ORCA-job B6_trigonal_prism_d3.50_q0_m3_R2SCAN-3C E -148.699675853500
  B       0.789357      0.414606     -1.052125
  B      -0.732686      0.687028     -0.566908
  B       0.438933     -1.074364     -0.608708
  B       0.767239      0.679598      0.529295
  B      -0.800295      0.394084      1.027323
  B      -0.462548     -1.100951      0.671123
6
Coordinates from ORCA-job B6_trigonal_prism_d3.50_q0_m3_R2SCAN-3C E -148.700358651060
  B       0.780427      0.394363     -1.046540
  B      -0.746833      0.687073     -0.573371
  B       0.456117     -1.075415     -0.613044
  B       0.753791      0.696417      0.547588
  B      -0.765140      0.406349      1.033203
  B      -0.478362     -1.108787      0.652164
6
Coordinates from ORCA-job B6_trigonal_prism_d3.50_q0_m3_R2SCAN-3C E -148.699939015799
  B       0.796908      0.391896     -1.068396
  B      -0.740562      0.691150     -0.552594
  B       0.463382     -1.072277     -0.616988
  B       0.747368      0.700412      0.538363
  B      -0.775725      0.388939      1.033531
  B      -0.491372     -1.100119      0.666083
6
Coordinates from ORCA-job B6_trigonal_prism_d3.50_q0_m3_R2SCAN-3C E -148.700541703073
  B       0.784941      0.391621     -1.056476
  B      -0.739862      0.691856     -0.564948
  B       0.456202     -1.075113     -0.610218
  B       0.750935      0.697989      0.542318
  B      -0.774136      0.395186      1.035475
  B      -0.478079     -1.101539      0.653849
6
Coordinates from ORCA-job B6_trigonal_prism_d3.50_q0_m3_R2SCAN-3C E -148.700549940305
  B       0.782033      0.391808     -1.055416
  B      -0.741025      0.690440     -0.565620
  B       0.461226     -1.078344     -0.612825
  B       0.751063      0.697107      0.543987
  B      -0.773112      0.398680      1.037886
  B      -0.480185     -1.099692      0.651987
6
Coordinates from ORCA-job B6_trigonal_prism_d3.50_q0_m3_R2SCAN-3C E -148.700555068952
  B       0.781858      0.390808     -1.055822
  B      -0.741220      0.690890     -0.564677
  B       0.461497     -1.079034     -0.612976
  B       0.750574      0.696503      0.544629
  B      -0.773971      0.398670      1.037796
  B      -0.478738     -1.097836      0.651051
6
Coordinates from ORCA-job B6_trigonal_prism_d3.50_q0_m3_R2SCAN-3C E -148.700559396173
  B       0.781221      0.389418     -1.055503
  B      -0.741500      0.692001     -0.563645
  B       0.462795     -1.081876     -0.614554
  B       0.749095      0.695193      0.545387
  B      -0.775638      0.399509      1.038747
  B      -0.475973     -1.094245      0.649567
6
Coordinates from ORCA-job B6_trigonal_prism_d3.50_q0_m3_R2SCAN-3C E -148.700563025772
  B       0.778948      0.387423     -1.054527
  B      -0.742947      0.692202     -0.561757
  B       0.466459     -1.087112     -0.617489
  B       0.748269      0.692987      0.547557
  B      -0.778049      0.402211      1.040349
  B      -0.472680     -1.087711      0.645867
6
Coordinates from ORCA-job B6_trigonal_prism_d3.50_q0_m3_R2SCAN-3C E -148.700564582915
  B       0.778497      0.386522     -1.053286
  B      -0.743423      0.692480     -0.561272
  B       0.467667     -1.089902     -0.619350
  B       0.747224      0.693135      0.547924
  B      -0.778440      0.403240      1.041534
  B      -0.471525     -1.085475      0.644450
6
Coordinates from ORCA-job B6_trigonal_prism_d3.50_q0_m3_R2SCAN-3C E -148.700566704648
  B       0.778363      0.385790     -1.051738
  B      -0.744236      0.691594     -0.560766
  B       0.468540     -1.092317     -0.621281
  B       0.747000      0.694142      0.548340
  B      -0.778465      0.404434      1.042751
  B      -0.471202     -1.083644      0.642693
6
Coordinates from ORCA-job B6_trigonal_prism_d3.50_q0_m3_R2SCAN-3C E -148.700567587478
  B       0.778619      0.385469     -1.050707
  B      -0.744638      0.690356     -0.560334
  B       0.468518     -1.093512     -0.622413
  B       0.747052      0.695394      0.548565
  B      -0.778155      0.404831      1.043352
  B      -0.471397     -1.082539      0.641536
6
Coordinates from ORCA-job B6_trigonal_prism_d3.50_q0_m3_R2SCAN-3C E -148.700567878340
  B       0.779547      0.385704     -1.050623
  B      -0.744497      0.689398     -0.560439
  B       0.467369     -1.092650     -0.622387
  B       0.747208      0.696306      0.548328
  B      -0.777700      0.404500      1.043306
  B      -0.471927     -1.083258      0.641815
6
Coordinates from ORCA-job B6_trigonal_prism_d3.50_q0_m3_R2SCAN-3C E -148.700567941799
  B       0.779532      0.385477     -1.050458
  B      -0.744609      0.689127     -0.560249
  B       0.467482     -1.093130     -0.622812
  B       0.747054      0.696202      0.548548
  B      -0.777947      0.404746      1.043609
  B      -0.471512     -1.082422      0.641362
6
Coordinates from ORCA-job B6_trigonal_prism_d3.50_q0_m3_R2SCAN-3C E -148.700567943490
  B       0.779489      0.385565     -1.050581
  B      -0.744559      0.689245     -0.560342
  B       0.467480     -1.092916     -0.622595
  B       0.747089      0.696086      0.548491
  B      -0.777890      0.404635      1.043511
  B      -0.471608     -1.082615      0.641516
