6
Coordinates from ORCA-job B6_rhombic_planar_d2.20_q0_m1_R2SCAN-3C E -148.332751061854
  B      -2.750000     -0.952628      0.000000
  B      -0.550000     -0.952628      0.000000
  B       1.650000     -0.952628      0.000000
  B      -1.650000      0.952628      0.000000
  B       0.550000      0.952628      0.000000
  B       2.750000      0.952628      0.000000
6
Coordinates from ORCA-job B6_rhombic_planar_d2.20_q0_m1_R2SCAN-3C E -148.373713846795
  B      -2.675010     -0.923106     -0.000000
  B      -0.523536     -0.946795      0.000000
  B       1.605669     -0.934460      0.000000
  B      -1.605669      0.934460      0.000000
  B       0.523536      0.946795      0.000000
  B       2.675010      0.923106     -0.000000
6
Coordinates from ORCA-job B6_rhombic_planar_d2.20_q0_m1_R2SCAN-3C E -148.416781274420
  B      -2.598169     -0.893662      0.000000
  B      -0.496429     -0.941965     -0.000000
  B       1.561121     -0.918068     -0.000000
  B      -1.561121      0.918068     -0.000000
  B       0.496429      0.941965     -0.000000
  B       2.598169      0.893662      0.000000
6
Coordinates from ORCA-job B6_rhombic_planar_d2.20_q0_m1_R2SCAN-3C E -148.483795570413
  B      -2.480980     -0.850250      0.000000
  B      -0.456273     -0.933989     -0.000000
  B       1.494058     -0.895156     -0.000000
  B      -1.494058      0.895156      0.000000
  B       0.456273      0.933989     -0.000000
  B       2.480980      0.850250      0.000000
6
Coordinates from ORCA-job B6_rhombic_planar_d2.20_q0_m1_R2SCAN-3C E -148.581383216930
  B      -2.304287     -0.787037      0.000000
  B      -0.399224     -0.918868     -0.000000
  B       1.393285     -0.861408     -0.000000
  B      -1.393285      0.861408      0.000000
  B       0.399224      0.918868     -0.000000
  B       2.304287      0.787037      0.000000
6
Coordinates from ORCA-job B6_rhombic_planar_d2.20_q0_m1_R2SCAN-3C E -148.663184500160
  B      -2.118296     -0.717790      0.000000
  B      -0.347049     -0.910114     -0.000000
  B       1.292494     -0.821533     -0.000000
  B      -1.292494      0.821533      0.000000
  B       0.347049      0.910114     -0.000000
  B       2.118296      0.717790      0.000000
6
Coordinates from ORCA-job B6_rhombic_planar_d2.20_q0_m1_R2SCAN-3C E -148.701894292779
  B      -1.951559     -0.648639     -0.000000
  B      -0.334315     -0.901416      0.000000
  B       1.222139     -0.762709      0.000000
  B      -1.222140      0.762707      0.000000
  B       0.334313      0.901421     -0.000000
  B       1.951562      0.648636     -0.000000
6
Coordinates from ORCA-job B6_rhombic_planar_d2.20_q0_m1_R2SCAN-3C E -148.704596180154
  B      -1.928862     -0.643686     -0.000000
  B      -0.368242     -0.903951      0.000000
  B       1.198234     -0.727595      0.000000
  B      -1.198233      0.727596     -0.000000
  B       0.368248      0.903951      0.000000
  B       1.928855      0.643685     -0.000000
6
Coordinates from ORCA-job B6_rhombic_planar_d2.20_q0_m1_R2SCAN-3C E -148.706205638163
  B      -1.947938     -0.653381     -0.000000
  B      -0.377350     -0.915692      0.000000
  B       1.162458     -0.707962      0.000000
  B      -1.162453      0.707970     -0.000000
  B       0.377355      0.915688      0.000000
  B       1.947928      0.653378     -0.000000
6
Coordinates from ORCA-job B6_rhombic_planar_d2.20_q0_m1_R2SCAN-3C E -148.707099687512
  B      -1.978039     -0.649477     -0.000000
  B      -0.386839     -0.940743      0.000000
  B       1.163944     -0.686112     -0.000000
  B      -1.163963      0.686083     -0.000000
  B       0.386804      0.940750      0.000000
  B       1.978093      0.649500     -0.000000
6
Coordinates from ORCA-job B6_rhombic_planar_d2.20_q0_m1_R2SCAN-3C E -148.708220864818
  B      -1.971959     -0.653730     -0.000000
  B      -0.400930     -0.969637      0.000000
  B       1.149488     -0.686368     -0.000000
  B      -1.149486      0.686369     -0.000000
  B       0.400933      0.969656      0.000000
  B       1.971954      0.653709     -0.000000
6
Coordinates from ORCA-job B6_rhombic_planar_d2.20_q0_m1_R2SCAN-3C E -148.709874739352
  B      -1.946368     -0.649019      0.000000
  B      -0.425827     -1.047812     -0.000000
  B       1.100067     -0.669673     -0.000000
  B      -1.100079      0.669631     -0.000000
  B       0.425824      1.047807     -0.000000
  B       1.946383      0.649066      0.000000
6
Coordinates from ORCA-job B6_rhombic_planar_d2.20_q0_m1_R2SCAN-3C E -148.710486172743
  B      -1.948782     -0.649396     -0.000000
  B      -0.448178     -1.104582      0.000000
  B       1.063920     -0.647392     -0.000000
  B      -1.063838      0.647476     -0.000000
  B       0.448207      1.104613      0.000000
  B       1.948672      0.649282     -0.000000
6
Coordinates from ORCA-job B6_rhombic_planar_d2.20_q0_m1_R2SCAN-3C E -148.710621934887
  B      -1.955638     -0.649164     -0.000000
  B      -0.455080     -1.122865      0.000000
  B       1.047244     -0.633712     -0.000000
  B      -1.047491      0.633452     -0.000000
  B       0.454992      1.122853      0.000000
  B       1.955973      0.649436     -0.000000
6
Coordinates from ORCA-job B6_rhombic_planar_d2.20_q0_m1_R2SCAN-3C E -148.710629747174
  B      -1.956898     -0.649998     -0.000000
  B      -0.456933     -1.125553      0.000000
  B       1.042628     -0.629548     -0.000000
  B      -1.042005      0.630144     -0.000000
  B       0.457204      1.125579      0.000000
  B       1.956004      0.649377     -0.000000
6
Coordinates from ORCA-job B6_rhombic_planar_d2.20_q0_m1_R2SCAN-3C E -148.710628464641
  B      -1.955879     -0.649484     -0.000000
  B      -0.457915     -1.126228      0.000000
  B       1.039931     -0.629122     -0.000000
  B      -1.040850      0.628239     -0.000000
  B       0.457352      1.126261      0.000000
  B       1.957361      0.650334     -0.000000
6
Coordinates from ORCA-job B6_rhombic_planar_d2.20_q0_m1_R2SCAN-3C E -148.710630932490
  B      -1.956531     -0.649779     -0.000000
  B      -0.457000     -1.125623      0.000000
  B       1.041659     -0.629705     -0.000000
  B      -1.041710      0.629678     -0.000000
  B       0.457151      1.125581      0.000000
  B       1.956432      0.649849     -0.000000
6
Coordinates from ORCA-job B6_rhombic_planar_d2.20_q0_m1_R2SCAN-3C E -148.710630825865
  B      -1.956366     -0.649904     -0.000000
  B      -0.457283     -1.125612      0.000000
  B       1.041777     -0.629664     -0.000000
  B      -1.041613      0.629746     -0.000000
  B       0.456953      1.125701      0.000000
  B       1.956533      0.649733     -0.000000
