6
Coordinates from ORCA-job B6_rhombic_planar_d2.20_q0_m1_R2SCAN-3C E -148.710630825865
  B          -1.95636595137086     -0.64990447852723     -0.00000000075803
  B          -0.45728324120244     -1.12561177345418      0.00000000797593
  B           1.04177654652331     -0.62966425604332     -0.00000000695945
  B          -1.04161268643779      0.62974581703931     -0.00000000735961
  B           0.45695265404404      1.12570135829196      0.00000000811882
  B           1.95653267844374      0.64973333269346     -0.00000000101766
