6
Coordinates from ORCA-job B6_random_3d_seed1002_d2.20_q0_m5_R2SCAN-3C E -148.355881936111
  B       0.563750     -0.632493     -1.380352
  B       1.088002      1.350083     -0.402794
  B      -1.125284      0.688171     -1.020887
  B       0.194142     -1.569912      0.556752
  B       0.663820      0.192308      1.527453
  B      -1.384431     -0.028157      0.719828
6
Coordinates from ORCA-job B6_random_3d_seed1002_d2.20_q0_m5_R2SCAN-3C E -148.386538275337
  B       0.543413     -0.611915     -1.347947
  B       1.068084      1.328482     -0.398922
  B      -1.095982      0.667840     -0.997783
  B       0.190964     -1.531993      0.555121
  B       0.645730      0.175449      1.490279
  B      -1.352209     -0.027863      0.699253
6
Coordinates from ORCA-job B6_random_3d_seed1002_d2.20_q0_m5_R2SCAN-3C E -148.417353399660
  B       0.521606     -0.589785     -1.315330
  B       1.048488      1.307226     -0.395357
  B      -1.066302      0.647150     -0.977675
  B       0.187945     -1.493691      0.554611
  B       0.628572      0.157204      1.454159
  B      -1.320309     -0.028105      0.679592
6
Coordinates from ORCA-job B6_random_3d_seed1002_d2.20_q0_m5_R2SCAN-3C E -148.463951583062
  B       0.488426     -0.552522     -1.266889
  B       1.019169      1.273232     -0.391655
  B      -1.021567      0.616537     -0.953545
  B       0.182395     -1.435675      0.554998
  B       0.603521      0.129162      1.402925
  B      -1.271944     -0.030734      0.654165
6
Coordinates from ORCA-job B6_random_3d_seed1002_d2.20_q0_m5_R2SCAN-3C E -148.529964785843
  B       0.449787     -0.484014     -1.190491
  B       0.979377      1.209688     -0.395411
  B      -0.963024      0.575518     -0.921334
  B       0.171864     -1.348002      0.556941
  B       0.565692      0.087927      1.327034
  B      -1.203695     -0.041116      0.623260
6
Coordinates from ORCA-job B6_random_3d_seed1002_d2.20_q0_m5_R2SCAN-3C E -148.572745258783
  B       0.447039     -0.416286     -1.106022
  B       0.942649      1.136055     -0.411478
  B      -0.924802      0.549719     -0.867833
  B       0.164060     -1.274920      0.557686
  B       0.529142      0.053321      1.236415
  B      -1.158088     -0.047888      0.591231
6
Coordinates from ORCA-job B6_random_3d_seed1002_d2.20_q0_m5_R2SCAN-3C E -148.593454769185
  B       0.462715     -0.355598     -1.029869
  B       0.877115      1.069673     -0.439628
  B      -0.864325      0.551202     -0.834619
  B       0.124680     -1.277613      0.536358
  B       0.501409      0.079130      1.172195
  B      -1.101595     -0.066793      0.595563
6
Coordinates from ORCA-job B6_random_3d_seed1002_d2.20_q0_m5_R2SCAN-3C E -148.605460694308
  B       0.514384     -0.353360     -0.956789
  B       0.826549      1.064580     -0.455279
  B      -0.851749      0.581387     -0.814829
  B       0.086492     -1.297929      0.535756
  B       0.510270      0.083647      1.091370
  B      -1.085946     -0.078325      0.599771
6
Coordinates from ORCA-job B6_random_3d_seed1002_d2.20_q0_m5_R2SCAN-3C E -148.615433684380
  B       0.546737     -0.357364     -0.903801
  B       0.805260      1.070292     -0.469091
  B      -0.850216      0.610859     -0.802579
  B       0.068249     -1.325008      0.539594
  B       0.517962      0.090918      1.034442
  B      -1.087993     -0.089698      0.601435
6
Coordinates from ORCA-job B6_random_3d_seed1002_d2.20_q0_m5_R2SCAN-3C E -148.623561108135
  B       0.563041     -0.371445     -0.873106
  B       0.803108      1.090954     -0.478821
  B      -0.853854      0.633003     -0.797291
  B       0.061204     -1.355103      0.543499
  B       0.526059      0.099753      1.002862
  B      -1.099557     -0.097163      0.602857
6
Coordinates from ORCA-job B6_random_3d_seed1002_d2.20_q0_m5_R2SCAN-3C E -148.634936005063
  B       0.575014     -0.391994     -0.813486
  B       0.786539      1.119212     -0.484497
  B      -0.843932      0.653357     -0.783381
  B       0.043576     -1.380096      0.542784
  B       0.542325      0.108404      0.943192
  B      -1.103522     -0.108883      0.595389
6
Coordinates from ORCA-job B6_random_3d_seed1002_d2.20_q0_m5_R2SCAN-3C E -148.645586580129
  B       0.583264     -0.423554     -0.725583
  B       0.755453      1.158956     -0.496028
  B      -0.816979      0.684213     -0.762580
  B       0.015366     -1.401796      0.539474
  B       0.572498      0.118847      0.863844
  B      -1.109601     -0.136665      0.580874
6
Coordinates from ORCA-job B6_random_3d_seed1002_d2.20_q0_m5_R2SCAN-3C E -148.647969124409
  B       0.574188     -0.466521     -0.712767
  B       0.744108      1.217768     -0.516915
  B      -0.785753      0.701763     -0.737450
  B      -0.016085     -1.407720      0.550892
  B       0.612738      0.135604      0.859013
  B      -1.129195     -0.180894      0.557226
6
Coordinates from ORCA-job B6_random_3d_seed1002_d2.20_q0_m5_R2SCAN-3C E -148.642727792615
  B       0.626440     -0.468313     -0.667735
  B       0.679181      1.176136     -0.515930
  B      -0.760322      0.741696     -0.700758
  B      -0.074277     -1.384072      0.550090
  B       0.633799      0.156141      0.794096
  B      -1.104822     -0.221588      0.540237
6
Coordinates from ORCA-job B6_random_3d_seed1002_d2.20_q0_m5_R2SCAN-3C E -148.650032369488
  B       0.609940     -0.470677     -0.696001
  B       0.737820      1.184650     -0.511753
  B      -0.805563      0.719163     -0.703512
  B      -0.044034     -1.383245      0.550253
  B       0.637356      0.158702      0.827231
  B      -1.135519     -0.208593      0.533782
6
Coordinates from ORCA-job B6_random_3d_seed1002_d2.20_q0_m5_R2SCAN-3C E -148.650288474822
  B       0.612071     -0.463442     -0.711709
  B       0.733263      1.191314     -0.541870
  B      -0.795161      0.741063     -0.702634
  B      -0.025934     -1.396159      0.569797
  B       0.623315      0.135058      0.854118
  B      -1.147555     -0.207834      0.532299
6
Coordinates from ORCA-job B6_random_3d_seed1002_d2.20_q0_m5_R2SCAN-3C E -148.651152682337
  B       0.614896     -0.472172     -0.701657
  B       0.744153      1.183094     -0.543758
  B      -0.804725      0.751884     -0.681561
  B      -0.026427     -1.389436      0.568899
  B       0.627876      0.150337      0.841408
  B      -1.155773     -0.223706      0.516670
6
Coordinates from ORCA-job B6_random_3d_seed1002_d2.20_q0_m5_R2SCAN-3C E -148.651936770192
  B       0.619523     -0.485577     -0.691732
  B       0.758788      1.172878     -0.564401
  B      -0.810424      0.782072     -0.638391
  B      -0.024706     -1.384377      0.576513
  B       0.625136      0.171464      0.831745
  B      -1.168316     -0.256459      0.486266
6
Coordinates from ORCA-job B6_random_3d_seed1002_d2.20_q0_m5_R2SCAN-3C E -148.653092524590
  B       0.626156     -0.501723     -0.675304
  B       0.770772      1.158237     -0.603625
  B      -0.810348      0.827060     -0.576358
  B      -0.016224     -1.385027      0.585548
  B       0.612798      0.195196      0.826000
  B      -1.183154     -0.293743      0.443738
6
Coordinates from ORCA-job B6_random_3d_seed1002_d2.20_q0_m5_R2SCAN-3C E -148.654711401433
  B       0.631723     -0.517248     -0.660960
  B       0.779728      1.141660     -0.643886
  B      -0.806186      0.868378     -0.513584
  B      -0.010045     -1.387896      0.590632
  B       0.594058      0.222497      0.824462
  B      -1.189277     -0.327391      0.403336
6
Coordinates from ORCA-job B6_random_3d_seed1002_d2.20_q0_m5_R2SCAN-3C E -148.657081683068
  B       0.636977     -0.531535     -0.646056
  B       0.784593      1.119720     -0.684103
  B      -0.797991      0.907013     -0.449822
  B      -0.000937     -1.394830      0.590660
  B       0.566808      0.252720      0.824246
  B      -1.189451     -0.353088      0.365075
6
Coordinates from ORCA-job B6_random_3d_seed1002_d2.20_q0_m5_R2SCAN-3C E -148.659473734825
  B       0.640357     -0.536484     -0.637976
  B       0.787935      1.101652     -0.714041
  B      -0.788047      0.930103     -0.408470
  B       0.003526     -1.404271      0.585827
  B       0.537147      0.276134      0.827809
  B      -1.180920     -0.367133      0.346851
6
Coordinates from ORCA-job B6_random_3d_seed1002_d2.20_q0_m5_R2SCAN-3C E -148.661504078044
  B       0.641092     -0.538950     -0.632963
  B       0.789524      1.088688     -0.734726
  B      -0.777365      0.943601     -0.383282
  B       0.009212     -1.415222      0.578661
  B       0.509958      0.293806      0.832462
  B      -1.172421     -0.371923      0.339848
6
Coordinates from ORCA-job B6_random_3d_seed1002_d2.20_q0_m5_R2SCAN-3C E -148.663376296560
  B       0.641674     -0.536505     -0.631312
  B       0.789230      1.085006     -0.751924
  B      -0.764298      0.948754     -0.376442
  B       0.009998     -1.430368      0.569793
  B       0.488000      0.305620      0.843277
  B      -1.164604     -0.372507      0.346609
6
Coordinates from ORCA-job B6_random_3d_seed1002_d2.20_q0_m5_R2SCAN-3C E -148.665063234892
  B       0.642115     -0.533918     -0.628524
  B       0.790749      1.080336     -0.769793
  B      -0.752546      0.952579     -0.369260
  B       0.012324     -1.444105      0.558666
  B       0.465153      0.316979      0.854559
  B      -1.157795     -0.371870      0.354351
6
Coordinates from ORCA-job B6_random_3d_seed1002_d2.20_q0_m5_R2SCAN-3C E -148.667163513042
  B       0.642150     -0.530085     -0.623867
  B       0.795658      1.070536     -0.795597
  B      -0.737290      0.957229     -0.355795
  B       0.015869     -1.460421      0.540483
  B       0.428994      0.334246      0.869201
  B      -1.145381     -0.371505      0.365574
6
Coordinates from ORCA-job B6_random_3d_seed1002_d2.20_q0_m5_R2SCAN-3C E -148.669169630530
  B       0.639257     -0.527237     -0.618096
  B       0.804582      1.059124     -0.834147
  B      -0.711962      0.962654     -0.337291
  B       0.021438     -1.484407      0.511545
  B       0.374490      0.362925      0.893540
  B      -1.127805     -0.373059      0.384450
6
Coordinates from ORCA-job B6_random_3d_seed1002_d2.20_q0_m5_R2SCAN-3C E -148.669635651540
  B       0.636876     -0.515422     -0.615943
  B       0.812820      1.052952     -0.866089
  B      -0.695341      0.959264     -0.341652
  B       0.020518     -1.505199      0.484469
  B       0.340398      0.380665      0.929305
  B      -1.115272     -0.372260      0.409910
6
Coordinates from ORCA-job B6_random_3d_seed1002_d2.20_q0_m5_R2SCAN-3C E -148.669007928143
  B       0.630807     -0.530459     -0.610167
  B       0.816764      1.034525     -0.886453
  B      -0.686643      0.980722     -0.283027
  B       0.029153     -1.502519      0.487012
  B       0.320143      0.410108      0.919974
  B      -1.110223     -0.392377      0.372661
6
Coordinates from ORCA-job B6_random_3d_seed1002_d2.20_q0_m5_R2SCAN-3C E -148.669723483968
  B       0.632578     -0.522605     -0.612675
  B       0.812088      1.051624     -0.873049
  B      -0.694464      0.966273     -0.324719
  B       0.021663     -1.505054      0.488638
  B       0.344819      0.391125      0.931347
  B      -1.116684     -0.381362      0.390458
6
Coordinates from ORCA-job B6_random_3d_seed1002_d2.20_q0_m5_R2SCAN-3C E -148.669684834628
  B       0.632868     -0.515320     -0.614634
  B       0.810953      1.042927     -0.867729
  B      -0.697973      0.965652     -0.330171
  B       0.024616     -1.505527      0.487461
  B       0.339440      0.384941      0.929869
  B      -1.109904     -0.372673      0.395204
6
Coordinates from ORCA-job B6_random_3d_seed1002_d2.20_q0_m5_R2SCAN-3C E -148.669760678611
  B       0.630580     -0.519610     -0.613105
  B       0.811167      1.049068     -0.871554
  B      -0.694304      0.965862     -0.327549
  B       0.022590     -1.507629      0.488019
  B       0.341331      0.389940      0.932058
  B      -1.111363     -0.377631      0.392130
6
Coordinates from ORCA-job B6_random_3d_seed1002_d2.20_q0_m5_R2SCAN-3C E -148.669764506543
  B       0.629311     -0.519429     -0.612629
  B       0.811340      1.048392     -0.872172
  B      -0.694438      0.966974     -0.326834
  B       0.022907     -1.507970      0.488329
  B       0.341661      0.390662      0.932797
  B      -1.110781     -0.378629      0.390509
6
Coordinates from ORCA-job B6_random_3d_seed1002_d2.20_q0_m5_R2SCAN-3C E -148.669767467312
  B       0.626605     -0.519252     -0.612473
  B       0.811286      1.047846     -0.872481
  B      -0.693874      0.968153     -0.326428
  B       0.023645     -1.509524      0.488971
  B       0.341165      0.391943      0.933901
  B      -1.108828     -0.379166      0.388509
6
Coordinates from ORCA-job B6_random_3d_seed1002_d2.20_q0_m5_R2SCAN-3C E -148.669768089822
  B       0.626050     -0.519233     -0.612873
  B       0.811491      1.047775     -0.872193
  B      -0.693916      0.968199     -0.326606
  B       0.023825     -1.509554      0.489204
  B       0.340910      0.391966      0.934011
  B      -1.108360     -0.379153      0.388457
6
Coordinates from ORCA-job B6_random_3d_seed1002_d2.20_q0_m5_R2SCAN-3C E -148.669769165304
  B       0.624831     -0.519492     -0.614460
  B       0.812177      1.047638     -0.870884
  B      -0.693904      0.968093     -0.327308
  B       0.024770     -1.509254      0.489741
  B       0.340042      0.391858      0.933936
  B      -1.107916     -0.378842      0.388975
6
Coordinates from ORCA-job B6_random_3d_seed1002_d2.20_q0_m5_R2SCAN-3C E -148.669769531081
  B       0.624360     -0.519762     -0.615108
  B       0.812620      1.047633     -0.870564
  B      -0.693790      0.967985     -0.327227
  B       0.025101     -1.508901      0.489870
  B       0.339729      0.392105      0.933952
  B      -1.108020     -0.379060      0.389076
6
Coordinates from ORCA-job B6_random_3d_seed1002_d2.20_q0_m5_R2SCAN-3C E -148.669769664768
  B       0.624035     -0.519926     -0.615530
  B       0.812962      1.047647     -0.870379
  B      -0.693581      0.967773     -0.327100
  B       0.025348     -1.508633      0.489869
  B       0.339518      0.392392      0.933938
  B      -1.108282     -0.379254      0.389201
6
Coordinates from ORCA-job B6_random_3d_seed1002_d2.20_q0_m5_R2SCAN-3C E -148.669769682325
  B       0.624101     -0.519853     -0.615411
  B       0.812951      1.047661     -0.870433
  B      -0.693560      0.967695     -0.327097
  B       0.025275     -1.508617      0.489794
  B       0.339571      0.392383      0.933894
  B      -1.108337     -0.379269      0.389253
