6
Coordinates from ORCA-job B6_random_3d_seed1002_d2.20_q0_m5_R2SCAN-3C E -148.669769682325
  B           0.62410125580140     -0.51985342999712     -0.61541079317029
  B           0.81295066774934      1.04766142166415     -0.87043306290896
  B          -0.69356011100935      0.96769455768293     -0.32709734408381
  B           0.02527476670536     -1.50861718268737      0.48979370118763
  B           0.33957083191561      0.39238337602199      0.93389449916584
  B          -1.10833741116236     -0.37926874268457      0.38925298980960
