6
Coordinates from ORCA-job B6_compact_planar_triangle_d1.80_q0_m1_R2SCAN-3C E -148.594125996584
  B      -1.800000     -1.039230      0.000000
  B       0.000000     -1.039230      0.000000
  B       1.800000     -1.039230      0.000000
  B      -0.900000      0.519615      0.000000
  B       0.900000      0.519615      0.000000
  B       0.000000      2.078461      0.000000
6
Coordinates from ORCA-job B6_compact_planar_triangle_d1.80_q0_m1_R2SCAN-3C E -148.614813880864
  B      -1.758920     -1.015508     -0.000000
  B       0.000000     -0.999060      0.000000
  B       1.758920     -1.015508     -0.000000
  B      -0.865207      0.499523     -0.000000
  B       0.865207      0.499523     -0.000000
  B      -0.000000      2.031028      0.000000
6
Coordinates from ORCA-job B6_compact_planar_triangle_d1.80_q0_m1_R2SCAN-3C E -148.627709246023
  B      -1.720293     -0.993169     -0.000000
  B       0.000000     -0.957555      0.000000
  B       1.720293     -0.993169     -0.000000
  B      -0.829265      0.478765     -0.000000
  B       0.829265      0.478765     -0.000000
  B      -0.000000      1.986364      0.000000
6
Coordinates from ORCA-job B6_compact_planar_triangle_d1.80_q0_m1_R2SCAN-3C E -148.630431995038
  B      -1.688798     -0.974989     -0.000000
  B      -0.000000     -0.922939      0.000000
  B       1.688798     -0.974989     -0.000000
  B      -0.799289      0.461497      0.000000
  B       0.799289      0.461497     -0.000000
  B      -0.000000      1.949923     -0.000000
6
Coordinates from ORCA-job B6_compact_planar_triangle_d1.80_q0_m1_R2SCAN-3C E -148.630566987564
  B      -1.694173     -0.978130     -0.000000
  B      -0.000000     -0.929766      0.000000
  B       1.694173     -0.978130      0.000000
  B      -0.805221      0.464916      0.000000
  B       0.805221      0.464916     -0.000000
  B      -0.000000      1.956194      0.000000
6
Coordinates from ORCA-job B6_compact_planar_triangle_d1.80_q0_m1_R2SCAN-3C E -148.630568467009
  B      -1.693512     -0.977766     -0.000000
  B       0.000000     -0.929204      0.000000
  B       1.693512     -0.977766     -0.000000
  B      -0.804745      0.464644      0.000000
  B       0.804745      0.464644      0.000000
  B      -0.000000      1.955449     -0.000000
6
Coordinates from ORCA-job B6_compact_planar_triangle_d1.80_q0_m1_R2SCAN-3C E -148.630568481214
  B      -1.693431     -0.977733      0.000000
  B      -0.000000     -0.929197      0.000000
  B       1.693431     -0.977733      0.000000
  B      -0.804748      0.464647     -0.000000
  B       0.804748      0.464647     -0.000000
  B      -0.000000      1.955369      0.000000
