6
Coordinates from ORCA-job B6_compact_planar_triangle_d1.80_q0_m1_R2SCAN-3C E -148.630568481214
  B          -1.69343050545512     -0.97773332353069      0.00000000051997
  B          -0.00000000012752     -0.92919676374093      0.00000000127093
  B           1.69343050734231     -0.97773332770256      0.00000000167079
  B          -0.80474786341337      0.46464714341649     -0.00000000219195
  B           0.80474786483127      0.46464714315857     -0.00000000459829
  B          -0.00000000317757      1.95536913839912      0.00000000332856
