6
Coordinates from ORCA-job B6_trigonal_prism_d1.80_q0_m3_R2SCAN-3C E -148.587494400476
  B       0.900000      0.519615     -0.900000
  B      -0.900000      0.519615     -0.900000
  B      -0.000000     -1.039230     -0.900000
  B       0.900000      0.519615      0.900000
  B      -0.900000      0.519615      0.900000
  B      -0.000000     -1.039230      0.900000
6
Coordinates from ORCA-job B6_trigonal_prism_d1.80_q0_m3_R2SCAN-3C E -148.599493103835
  B       0.872281      0.503614     -0.887020
  B      -0.872281      0.503614     -0.887020
  B      -0.000000     -1.007228     -0.886991
  B       0.872281      0.503614      0.887020
  B      -0.872281      0.503614      0.887020
  B       0.000000     -1.007228      0.886991
6
Coordinates from ORCA-job B6_trigonal_prism_d1.80_q0_m3_R2SCAN-3C E -148.605251572438
  B       0.840417      0.485225     -0.878650
  B      -0.840417      0.485225     -0.878650
  B      -0.000000     -0.970450     -0.878562
  B       0.840417      0.485225      0.878650
  B      -0.840417      0.485225      0.878650
  B      -0.000000     -0.970450      0.878562
6
Coordinates from ORCA-job B6_trigonal_prism_d1.80_q0_m3_R2SCAN-3C E -148.605294553626
  B       0.837318      0.483435     -0.879558
  B      -0.837318      0.483435     -0.879558
  B       0.000000     -0.966870     -0.879442
  B       0.837318      0.483435      0.879558
  B      -0.837318      0.483435      0.879558
  B      -0.000000     -0.966870      0.879442
6
Coordinates from ORCA-job B6_trigonal_prism_d1.80_q0_m3_R2SCAN-3C E -148.605297314069
  B       0.837709      0.483661     -0.880145
  B      -0.837709      0.483661     -0.880145
  B      -0.000000     -0.967321     -0.880009
  B       0.837709      0.483661      0.880145
  B      -0.837709      0.483661      0.880145
  B       0.000000     -0.967321      0.880009
6
Coordinates from ORCA-job B6_trigonal_prism_d1.80_q0_m3_R2SCAN-3C E -148.605297522329
  B       0.837744      0.483682     -0.880423
  B      -0.837744      0.483682     -0.880423
  B      -0.000000     -0.967364     -0.880260
  B       0.837744      0.483682      0.880423
  B      -0.837744      0.483682      0.880423
  B      -0.000000     -0.967364      0.880260
6
Coordinates from ORCA-job B6_trigonal_prism_d1.80_q0_m3_R2SCAN-3C E -148.605297523972
  B       0.837735      0.483679     -0.880436
  B      -0.837735      0.483679     -0.880436
  B      -0.000000     -0.967358     -0.880258
  B       0.837735      0.483679      0.880436
  B      -0.837735      0.483679      0.880436
  B      -0.000000     -0.967358      0.880258
