6
Coordinates from ORCA-job B6_trigonal_prism_d1.80_q0_m3_R2SCAN-3C E -148.605297523972
  B           0.83773471000197      0.48367894245123     -0.88043569047863
  B          -0.83773470777304      0.48367894327893     -0.88043568859383
  B          -0.00000000139698     -0.96735787821640     -0.88025798237986
  B           0.83773471091058      0.48367893860827      0.88043568516747
  B          -0.83773471150238      0.48367893494495      0.88043568493031
  B          -0.00000000024015     -0.96735788106697      0.88025799135452
