6
Coordinates from ORCA-job B6_compact_planar_triangle_d3.00_q0_m3_R2SCAN-3C E -148.699661851692
  B          -1.56005768363806     -0.86384867507479     -0.09545763588858
  B          -0.04388058684878     -1.15077692980461     -0.27532151024401
  B           1.36066288553905     -0.78652736370816      0.35392636341448
  B          -0.70016013869777      0.40309523791856      0.37569662465060
  B           0.97556941208422      0.61480932943257     -0.26996794668623
  B          -0.03213388843865      1.78324839123643     -0.08887589524626
