6
Coordinates from ORCA-job B6_compact_planar_triangle_d3.00_q0_m3_R2SCAN-3C E -147.992899519515
  B      -3.000000     -1.732051      0.000000
  B       0.000000     -1.732051      0.000000
  B       3.000000     -1.732051      0.000000
  B      -1.500000      0.866025      0.000000
  B       1.500000      0.866025      0.000000
  B       0.000000      3.464102      0.000000
6
Coordinates from ORCA-job B6_compact_planar_triangle_d3.00_q0_m3_R2SCAN-3C E -148.009194450321
  B      -2.945719     -1.700714     -0.000000
  B       0.000000     -1.703142      0.000000
  B       2.945719     -1.700714     -0.000000
  B      -1.474963      0.851569      0.000000
  B       1.474963      0.851569      0.000000
  B       0.000000      3.401432     -0.000000
6
Coordinates from ORCA-job B6_compact_planar_triangle_d3.00_q0_m3_R2SCAN-3C E -148.028278118686
  B      -2.891643     -1.669500      0.000000
  B       0.000000     -1.673975     -0.000000
  B       2.891643     -1.669500     -0.000000
  B      -1.449696      0.836986     -0.000000
  B       1.449696      0.836986      0.000000
  B      -0.000000      3.339003      0.000000
6
Coordinates from ORCA-job B6_compact_planar_triangle_d3.00_q0_m3_R2SCAN-3C E -148.054875433695
  B      -2.810300     -1.620146     -0.000002
  B      -0.000002     -1.633053     -0.000001
  B       2.810301     -1.620136      0.000004
  B      -1.413857      0.815567      0.000006
  B       1.413851      0.815561     -0.000007
  B       0.000007      3.242206      0.000001
6
Coordinates from ORCA-job B6_compact_planar_triangle_d3.00_q0_m3_R2SCAN-3C E -148.098025555974
  B      -2.688290     -1.547424     -0.000005
  B      -0.000001     -1.570321     -0.000002
  B       2.688292     -1.547415      0.000007
  B      -1.358771      0.783022      0.000011
  B       1.358763      0.783015     -0.000013
  B       0.000007      3.099123      0.000001
6
Coordinates from ORCA-job B6_compact_planar_triangle_d3.00_q0_m3_R2SCAN-3C E -148.146727533851
  B      -2.562698     -1.474082     -0.000006
  B      -0.000001     -1.502532     -0.000002
  B       2.562702     -1.474073      0.000009
  B      -1.299365      0.748398      0.000014
  B       1.299355      0.748388     -0.000016
  B       0.000007      2.953900      0.000001
6
Coordinates from ORCA-job B6_compact_planar_triangle_d3.00_q0_m3_R2SCAN-3C E -148.201975514155
  B      -2.439040     -1.403213     -0.000007
  B      -0.000002     -1.431192     -0.000002
  B       2.439044     -1.403202      0.000010
  B      -1.237031      0.712540      0.000016
  B       1.237020      0.712529     -0.000018
  B       0.000009      2.812539      0.000001
6
Coordinates from ORCA-job B6_compact_planar_triangle_d3.00_q0_m3_R2SCAN-3C E -148.268792110755
  B      -2.307768     -1.326500     -0.000322
  B      -0.000071     -1.361266      0.000392
  B       2.315854     -1.339618      0.000986
  B      -1.176183      0.676949      0.000228
  B       1.175472      0.676706     -0.002352
  B      -0.007305      2.673728      0.001069
6
Coordinates from ORCA-job B6_compact_planar_triangle_d3.00_q0_m3_R2SCAN-3C E -148.347317776011
  B      -2.165585     -1.243408     -0.000304
  B      -0.001115     -1.296227      0.000374
  B       2.195634     -1.281735      0.000939
  B      -1.120210      0.642875      0.000216
  B       1.109321      0.638366     -0.002244
  B      -0.018045      2.540129      0.001019
6
Coordinates from ORCA-job B6_compact_planar_triangle_d3.00_q0_m3_R2SCAN-3C E -148.438815940566
  B      -2.022328     -1.154031     -0.000292
  B       0.002374     -1.237277      0.000367
  B       2.074969     -1.214897      0.000882
  B      -1.085754      0.621411      0.000224
  B       1.055388      0.604911     -0.002129
  B      -0.024650      2.379883      0.000948
6
Coordinates from ORCA-job B6_compact_planar_triangle_d3.00_q0_m3_R2SCAN-3C E -148.530290642279
  B      -1.881901     -1.065174     -0.000277
  B       0.004771     -1.177518      0.000357
  B       1.954143     -1.146612      0.000824
  B      -1.048639      0.599238      0.000234
  B       1.003593      0.572579     -0.002012
  B      -0.031967      2.217488      0.000874
6
Coordinates from ORCA-job B6_compact_planar_triangle_d3.00_q0_m3_R2SCAN-3C E -148.608287772067
  B      -1.751365     -0.985657     -0.000273
  B       0.007127     -1.111160      0.000345
  B       1.832870     -1.072485      0.000769
  B      -1.006919      0.577797      0.000259
  B       0.951007      0.539840     -0.001895
  B      -0.032720      2.051664      0.000794
6
Coordinates from ORCA-job B6_compact_planar_triangle_d3.00_q0_m3_R2SCAN-3C E -148.661411630816
  B      -1.648567     -0.940754     -0.000325
  B       0.013017     -1.027851      0.000339
  B       1.708002     -0.986867      0.000733
  B      -0.949254      0.553483      0.000340
  B       0.887666      0.499639     -0.001806
  B      -0.010864      1.902351      0.000718
6
Coordinates from ORCA-job B6_compact_planar_triangle_d3.00_q0_m3_R2SCAN-3C E -148.676838688478
  B      -1.524991     -0.877618     -0.001257
  B       0.015755     -1.035565      0.002217
  B       1.556443     -0.897405      0.000860
  B      -0.944164      0.550734      0.000304
  B       0.898686      0.503462     -0.004014
  B      -0.001727      1.756392      0.001890
6
Coordinates from ORCA-job B6_compact_planar_triangle_d3.00_q0_m3_R2SCAN-3C E -148.684757338722
  B      -1.562042     -0.919751     -0.001716
  B       0.005589     -1.068120      0.002739
  B       1.575569     -0.904368      0.000849
  B      -0.966029      0.552498      0.000609
  B       0.923959      0.524353     -0.004486
  B       0.022953      1.815388      0.002005
6
Coordinates from ORCA-job B6_compact_planar_triangle_d3.00_q0_m3_R2SCAN-3C E -148.677175224136
  B      -1.606689     -0.855866     -0.001553
  B       0.018133     -1.130116      0.002350
  B       1.654986     -0.974424      0.000703
  B      -0.970338      0.599511      0.001159
  B       0.987203      0.578949     -0.003708
  B      -0.083295      1.781946      0.001051
6
Coordinates from ORCA-job B6_compact_planar_triangle_d3.00_q0_m3_R2SCAN-3C E -148.689039651258
  B      -1.564416     -0.879009     -0.001084
  B       0.002838     -1.147263      0.001460
  B       1.593163     -0.930090      0.000568
  B      -1.005844      0.562885      0.001467
  B       0.991257      0.576588     -0.002605
  B      -0.016999      1.816889      0.000193
6
Coordinates from ORCA-job B6_compact_planar_triangle_d3.00_q0_m3_R2SCAN-3C E -148.683195807942
  B      -1.567392     -0.980403     -0.000959
  B      -0.000830     -1.144583      0.001016
  B       1.511046     -0.854814      0.000517
  B      -0.991352      0.612299      0.001692
  B       0.995529      0.568360     -0.002128
  B       0.052999      1.799141     -0.000138
6
Coordinates from ORCA-job B6_compact_planar_triangle_d3.00_q0_m3_R2SCAN-3C E -148.690627582367
  B      -1.556594     -0.916945     -0.000790
  B      -0.004905     -1.160806      0.000641
  B       1.557930     -0.904402      0.000738
  B      -1.005139      0.589457      0.001827
  B       1.005936      0.580570     -0.002080
  B       0.002772      1.812126     -0.000336
6
Coordinates from ORCA-job B6_compact_planar_triangle_d3.00_q0_m3_R2SCAN-3C E -148.683907851916
  B      -1.630378     -0.854862     -0.000481
  B       0.041610     -1.178106     -0.000255
  B       1.588994     -0.868639      0.001081
  B      -1.020794      0.554309      0.002214
  B       1.016070      0.571583     -0.001690
  B       0.004499      1.775715     -0.000870
6
Coordinates from ORCA-job B6_compact_planar_triangle_d3.00_q0_m3_R2SCAN-3C E -148.690695879206
  B      -1.570089     -0.899866     -0.000548
  B       0.004290     -1.167151     -0.000282
  B       1.565893     -0.899975      0.001202
  B      -1.016466      0.582180      0.002348
  B       1.008738      0.591864     -0.001876
  B       0.007634      1.792948     -0.000844
6
Coordinates from ORCA-job B6_compact_planar_triangle_d3.00_q0_m3_R2SCAN-3C E -148.681470219243
  B      -1.516189     -0.907358     -0.000521
  B      -0.012298     -1.164752     -0.000829
  B       1.532474     -0.902967      0.001470
  B      -1.001979      0.596532      0.002855
  B       1.046822      0.530152     -0.001788
  B      -0.048830      1.848392     -0.001188
6
Coordinates from ORCA-job B6_compact_planar_triangle_d3.00_q0_m3_R2SCAN-3C E -148.690718056872
  B      -1.554495     -0.901586     -0.000575
  B       0.004934     -1.166884     -0.000868
  B       1.555735     -0.909781      0.001642
  B      -1.015028      0.587443      0.002976
  B       1.018977      0.578834     -0.001997
  B      -0.010124      1.811973     -0.001178
6
Coordinates from ORCA-job B6_compact_planar_triangle_d3.00_q0_m3_R2SCAN-3C E -148.684266908298
  B      -1.578435     -0.888272     -0.000768
  B      -0.045813     -1.180020     -0.001406
  B       1.612025     -0.848097      0.002202
  B      -1.027013      0.580829      0.003697
  B       1.009271      0.585728     -0.002342
  B       0.029965      1.749832     -0.001383
6
Coordinates from ORCA-job B6_compact_planar_triangle_d3.00_q0_m3_R2SCAN-3C E -148.690946903361
  B      -1.561857     -0.899983     -0.000756
  B      -0.003763     -1.171551     -0.001557
  B       1.564789     -0.898234      0.002320
  B      -1.017710      0.585724      0.003954
  B       1.017657      0.587200     -0.002370
  B       0.000884      1.796846     -0.001591
6
Coordinates from ORCA-job B6_compact_planar_triangle_d3.00_q0_m3_R2SCAN-3C E -148.690981242728
  B      -1.559113     -0.901249     -0.001049
  B       0.000716     -1.171834     -0.002336
  B       1.557459     -0.900895      0.003146
  B      -1.016052      0.585933      0.005189
  B       1.016573      0.587946     -0.002873
  B       0.000417      1.800098     -0.002077
6
Coordinates from ORCA-job B6_compact_planar_triangle_d3.00_q0_m3_R2SCAN-3C E -148.690987436856
  B      -1.559917     -0.900677     -0.001445
  B       0.000025     -1.172445     -0.003095
  B       1.559453     -0.900143      0.004060
  B      -1.015922      0.586197      0.006537
  B       1.016653      0.586543     -0.003523
  B      -0.000292      1.800526     -0.002534
6
Coordinates from ORCA-job B6_compact_planar_triangle_d3.00_q0_m3_R2SCAN-3C E -148.690990112742
  B      -1.559394     -0.900378     -0.002094
  B      -0.000181     -1.172860     -0.004506
  B       1.559646     -0.900205      0.005641
  B      -1.015937      0.586332      0.008939
  B       1.016156      0.586544     -0.004543
  B      -0.000290      1.800567     -0.003437
6
Coordinates from ORCA-job B6_compact_planar_triangle_d3.00_q0_m3_R2SCAN-3C E -148.690994714375
  B      -1.559508     -0.900348     -0.002972
  B      -0.000034     -1.173111     -0.006481
  B       1.559669     -0.900080      0.007813
  B      -1.015758      0.586430      0.012255
  B       1.015924      0.586372     -0.005905
  B      -0.000293      1.800737     -0.004711
6
Coordinates from ORCA-job B6_compact_planar_triangle_d3.00_q0_m3_R2SCAN-3C E -148.691003300392
  B      -1.559346     -0.900167     -0.004127
  B      -0.000100     -1.173281     -0.009249
  B       1.559731     -0.900056      0.010789
  B      -1.015620      0.586435      0.016789
  B       1.015751      0.586255     -0.007711
  B      -0.000416      1.800815     -0.006491
6
Coordinates from ORCA-job B6_compact_planar_triangle_d3.00_q0_m3_R2SCAN-3C E -148.691019483585
  B      -1.559370     -0.900026     -0.005665
  B      -0.000118     -1.173391     -0.013117
  B       1.559775     -0.899931      0.014868
  B      -1.015343      0.586391      0.023010
  B       1.015601      0.586086     -0.010110
  B      -0.000544      1.800871     -0.008986
6
Coordinates from ORCA-job B6_compact_planar_triangle_d3.00_q0_m3_R2SCAN-3C E -148.691049910978
  B      -1.559305     -0.899759     -0.007701
  B      -0.000216     -1.173442     -0.018509
  B       1.559780     -0.899789      0.020448
  B      -1.014882      0.586229      0.031514
  B       1.015420      0.585881     -0.013290
  B      -0.000797      1.800880     -0.012463
6
Coordinates from ORCA-job B6_compact_planar_triangle_d3.00_q0_m3_R2SCAN-3C E -148.691106749608
  B      -1.559263     -0.899365     -0.010386
  B      -0.000350     -1.173381     -0.025986
  B       1.559673     -0.899539      0.028053
  B      -1.014036      0.585875      0.043093
  B       1.015168      0.585602     -0.017494
  B      -0.001192      1.800808     -0.017281
6
Coordinates from ORCA-job B6_compact_planar_triangle_d3.00_q0_m3_R2SCAN-3C E -148.691211495294
  B      -1.559141     -0.898708     -0.013888
  B      -0.000585     -1.173091     -0.036273
  B       1.559317     -0.899157      0.038357
  B      -1.012509      0.585147      0.058716
  B       1.014786      0.585237     -0.023031
  B      -0.001868      1.800572     -0.023881
6
Coordinates from ORCA-job B6_compact_planar_triangle_d3.00_q0_m3_R2SCAN-3C E -148.691350527095
  B      -1.558938     -0.898129     -0.017187
  B      -0.000858     -1.172227     -0.046766
  B       1.558292     -0.898737      0.048672
  B      -1.010337      0.583888      0.074219
  B       1.014288      0.585208     -0.028381
  B      -0.002447      1.799997     -0.030558
6
Coordinates from ORCA-job B6_compact_planar_triangle_d3.00_q0_m3_R2SCAN-3C E -148.691520981108
  B      -1.558725     -0.897499     -0.020312
  B      -0.001251     -1.170967     -0.057408
  B       1.556905     -0.898208      0.059028
  B      -1.007512      0.582177      0.089564
  B       1.013716      0.585229     -0.033644
  B      -0.003134      1.799269     -0.037228
6
Coordinates from ORCA-job B6_compact_planar_triangle_d3.00_q0_m3_R2SCAN-3C E -148.691721207319
  B      -1.558516     -0.896816     -0.023282
  B      -0.001767     -1.169363     -0.068162
  B       1.555180     -0.897553      0.069425
  B      -1.004042      0.580030      0.104732
  B       1.013076      0.585289     -0.038855
  B      -0.003932      1.798412     -0.043858
6
Coordinates from ORCA-job B6_compact_planar_triangle_d3.00_q0_m3_R2SCAN-3C E -148.691949389557
  B      -1.558335     -0.896083     -0.026104
  B      -0.002401     -1.167436     -0.078999
  B       1.553124     -0.896759      0.079870
  B      -0.999919      0.577459      0.119699
  B       1.012361      0.585393     -0.044051
  B      -0.004830      1.797425     -0.050415
6
Coordinates from ORCA-job B6_compact_planar_triangle_d3.00_q0_m3_R2SCAN-3C E -148.692203593740
  B      -1.558148     -0.895307     -0.028785
  B      -0.003151     -1.165200     -0.089892
  B       1.550709     -0.895842      0.090361
  B      -0.995148      0.574462      0.134446
  B       1.011577      0.585537     -0.049254
  B      -0.005840      1.796350     -0.056877
6
Coordinates from ORCA-job B6_compact_planar_triangle_d3.00_q0_m3_R2SCAN-3C E -148.692481779335
  B      -1.557998     -0.894501     -0.031332
  B      -0.004009     -1.162679     -0.100817
  B       1.547949     -0.894778      0.100903
  B      -0.989723      0.571049      0.148950
  B       1.010719      0.585725     -0.054488
  B      -0.006937      1.795184     -0.063216
6
Coordinates from ORCA-job B6_compact_planar_triangle_d3.00_q0_m3_R2SCAN-3C E -148.692781895451
  B      -1.557857     -0.893667     -0.033749
  B      -0.004979     -1.159892     -0.111748
  B       1.544822     -0.893577      0.111495
  B      -0.983646      0.567217      0.163190
  B       1.009789      0.585957     -0.059777
  B      -0.008129      1.793962     -0.069411
6
Coordinates from ORCA-job B6_compact_planar_triangle_d3.00_q0_m3_R2SCAN-3C E -148.693101915988
  B      -1.557745     -0.892816     -0.036048
  B      -0.006055     -1.156865     -0.122658
  B       1.541331     -0.892225      0.122135
  B      -0.976912      0.562976      0.177149
  B       1.008784      0.586236     -0.065140
  B      -0.009404      1.792694     -0.075439
6
Coordinates from ORCA-job B6_compact_planar_triangle_d3.00_q0_m3_R2SCAN-3C E -148.693439750678
  B      -1.557656     -0.891946     -0.038239
  B      -0.007235     -1.153628     -0.133517
  B       1.537471     -0.890717      0.132822
  B      -0.969522      0.558332      0.190810
  B       1.007702      0.586561     -0.070600
  B      -0.010759      1.791399     -0.081276
6
Coordinates from ORCA-job B6_compact_planar_triangle_d3.00_q0_m3_R2SCAN-3C E -148.693793220633
  B      -1.557593     -0.891059     -0.040334
  B      -0.008517     -1.150216     -0.144297
  B       1.533241     -0.889045      0.143557
  B      -0.961480      0.553297      0.204154
  B       1.006538      0.586933     -0.076186
  B      -0.012189      1.790091     -0.086894
6
Coordinates from ORCA-job B6_compact_planar_triangle_d3.00_q0_m3_R2SCAN-3C E -148.694328224293
  B      -1.557522     -0.888957     -0.043495
  B      -0.010155     -1.145815     -0.160604
  B       1.527532     -0.886585      0.159971
  B      -0.949664      0.546303      0.224141
  B       1.005076      0.586792     -0.085034
  B      -0.015268      1.788263     -0.094978
6
Coordinates from ORCA-job B6_compact_planar_triangle_d3.00_q0_m3_R2SCAN-3C E -148.695130421502
  B      -1.556849     -0.885021     -0.048187
  B      -0.012364     -1.139422     -0.184900
  B       1.518275     -0.882618      0.184969
  B      -0.931271      0.535718      0.253619
  B       1.002753      0.586223     -0.099216
  B      -0.020543      1.785120     -0.106284
6
Coordinates from ORCA-job B6_compact_planar_triangle_d3.00_q0_m3_R2SCAN-3C E -148.696008445680
  B      -1.555852     -0.882294     -0.051765
  B      -0.015658     -1.129846     -0.209150
  B       1.504308     -0.877509      0.210017
  B      -0.907873      0.521154      0.281207
  B       0.999801      0.587708     -0.112964
  B      -0.024726      1.780788     -0.117346
6
Coordinates from ORCA-job B6_compact_planar_triangle_d3.00_q0_m3_R2SCAN-3C E -148.696759982422
  B      -1.553965     -0.889327     -0.051694
  B      -0.023593     -1.110449     -0.225473
  B       1.474051     -0.868460      0.228483
  B      -0.872342      0.494093      0.296464
  B       0.993754      0.599696     -0.122160
  B      -0.017905      1.774447     -0.125621
6
Coordinates from ORCA-job B6_compact_planar_triangle_d3.00_q0_m3_R2SCAN-3C E -148.697998819615
  B      -1.555700     -0.880762     -0.057231
  B      -0.026440     -1.102634     -0.260497
  B       1.454707     -0.857971      0.268599
  B      -0.831927      0.472646      0.332923
  B       0.990008      0.595586     -0.148900
  B      -0.030647      1.773134     -0.134894
6
Coordinates from ORCA-job B6_compact_planar_triangle_d3.00_q0_m3_R2SCAN-3C E -148.698794958700
  B      -1.552412     -0.876329     -0.062410
  B      -0.033050     -1.095666     -0.289241
  B       1.420453     -0.841057      0.307935
  B      -0.782908      0.443790      0.361988
  B       0.982644      0.599325     -0.180858
  B      -0.034727      1.769937     -0.137414
6
Coordinates from ORCA-job B6_compact_planar_triangle_d3.00_q0_m3_R2SCAN-3C E -148.699307320262
  B      -1.554514     -0.865627     -0.076446
  B      -0.038359     -1.120320     -0.314615
  B       1.370435     -0.801672      0.363413
  B      -0.708899      0.408060      0.389353
  B       0.971111      0.598308     -0.245419
  B      -0.039775      1.781250     -0.116286
6
Coordinates from ORCA-job B6_compact_planar_triangle_d3.00_q0_m3_R2SCAN-3C E -148.699523874220
  B      -1.555569     -0.867079     -0.081268
  B      -0.040288     -1.126524     -0.301165
  B       1.367037     -0.797404      0.358014
  B      -0.711207      0.406077      0.384426
  B       0.974129      0.605462     -0.251207
  B      -0.034101      1.779468     -0.108801
6
Coordinates from ORCA-job B6_compact_planar_triangle_d3.00_q0_m3_R2SCAN-3C E -148.699648611850
  B      -1.557618     -0.866147     -0.091137
  B      -0.042141     -1.146684     -0.280716
  B       1.361692     -0.788882      0.353443
  B      -0.707049      0.405358      0.376140
  B       0.974875      0.612264     -0.265436
  B      -0.029759      1.784091     -0.092295
6
Coordinates from ORCA-job B6_compact_planar_triangle_d3.00_q0_m3_R2SCAN-3C E -148.699659609116
  B      -1.559360     -0.864682     -0.094576
  B      -0.043355     -1.150584     -0.276617
  B       1.359066     -0.785406      0.355114
  B      -0.700650      0.402582      0.375437
  B       0.974469      0.614314     -0.271289
  B      -0.030170      1.783776     -0.088069
6
Coordinates from ORCA-job B6_compact_planar_triangle_d3.00_q0_m3_R2SCAN-3C E -148.699661640166
  B      -1.560104     -0.864038     -0.095435
  B      -0.043784     -1.151364     -0.274673
  B       1.360930     -0.786482      0.353574
  B      -0.700748      0.403405      0.374869
  B       0.975431      0.614779     -0.270134
  B      -0.031726      1.783700     -0.088201
6
Coordinates from ORCA-job B6_compact_planar_triangle_d3.00_q0_m3_R2SCAN-3C E -148.699661841569
  B      -1.560016     -0.863862     -0.095446
  B      -0.043918     -1.150878     -0.275247
  B       1.360642     -0.786481      0.353968
  B      -0.700130      0.403066      0.375527
  B       0.975485      0.614814     -0.270093
  B      -0.032063      1.783341     -0.088709
6
Coordinates from ORCA-job B6_compact_planar_triangle_d3.00_q0_m3_R2SCAN-3C E -148.699661851692
  B      -1.560058     -0.863849     -0.095458
  B      -0.043881     -1.150777     -0.275322
  B       1.360663     -0.786527      0.353926
  B      -0.700160      0.403095      0.375697
  B       0.975569      0.614809     -0.269968
  B      -0.032134      1.783248     -0.088876
