6
Coordinates from ORCA-job B6_random_3d_seed1002_d1.80_q0_m3_R2SCAN-3C E -148.696187854784
  B           0.80433428408346     -0.35657467678293     -0.79115633097209
  B           0.30825087289289      1.12544707702489     -0.19471141994792
  B          -0.81212095700754      0.07431912403810     -0.85705473745747
  B          -0.30754996718668     -1.12557477687488      0.19350811342427
  B           0.81093876090518     -0.07414514429489      0.85816829463301
  B          -0.80385299368730      0.35652840688970      0.79124607032020
