6
Coordinates from ORCA-job B6_random_3d_seed1002_d1.80_q0_m3_R2SCAN-3C E -148.594767708567
  B       0.461250     -0.517494     -1.129379
  B       0.890183      1.104613     -0.329559
  B      -0.920687      0.563049     -0.835271
  B       0.158844     -1.284473      0.455525
  B       0.543125      0.157343      1.249734
  B      -1.132716     -0.023037      0.588950
6
Coordinates from ORCA-job B6_random_3d_seed1002_d1.80_q0_m3_R2SCAN-3C E -148.614265855349
  B       0.436040     -0.487180     -1.106767
  B       0.873772      1.063830     -0.295123
  B      -0.905885      0.537254     -0.859898
  B       0.152895     -1.243807      0.449028
  B       0.560144      0.157542      1.224231
  B      -1.116965     -0.027639      0.588528
6
Coordinates from ORCA-job B6_random_3d_seed1002_d1.80_q0_m3_R2SCAN-3C E -148.628556066956
  B       0.411891     -0.453705     -1.086221
  B       0.863133      1.018649     -0.257388
  B      -0.896313      0.513627     -0.882137
  B       0.147427     -1.205828      0.447203
  B       0.582505      0.163744      1.195275
  B      -1.108643     -0.036487      0.583269
6
Coordinates from ORCA-job B6_random_3d_seed1002_d1.80_q0_m3_R2SCAN-3C E -148.635719301291
  B       0.397714     -0.418340     -1.071127
  B       0.853740      0.972095     -0.216784
  B      -0.895241      0.491690     -0.903969
  B       0.137016     -1.174611      0.450378
  B       0.611381      0.174397      1.163767
  B      -1.104610     -0.045231      0.577734
6
Coordinates from ORCA-job B6_random_3d_seed1002_d1.80_q0_m3_R2SCAN-3C E -148.638090352358
  B       0.414076     -0.390280     -1.067954
  B       0.843573      0.957506     -0.200746
  B      -0.907714      0.468339     -0.921250
  B       0.112027     -1.165935      0.456692
  B       0.640884      0.169787      1.151913
  B      -1.102847     -0.039416      0.581345
6
Coordinates from ORCA-job B6_random_3d_seed1002_d1.80_q0_m3_R2SCAN-3C E -148.641981286406
  B       0.468808     -0.335255     -1.064243
  B       0.819602      0.954643     -0.184115
  B      -0.938044      0.407270     -0.949093
  B       0.045812     -1.159885      0.465610
  B       0.701410      0.144223      1.136680
  B      -1.097588     -0.010996      0.595162
6
Coordinates from ORCA-job B6_random_3d_seed1002_d1.80_q0_m3_R2SCAN-3C E -148.645980951241
  B       0.521868     -0.297472     -1.062875
  B       0.789487      0.977933     -0.166135
  B      -0.960063      0.335629     -0.964850
  B      -0.017802     -1.160144      0.464064
  B       0.754274      0.107362      1.122205
  B      -1.087765      0.036692      0.607591
6
Coordinates from ORCA-job B6_random_3d_seed1002_d1.80_q0_m3_R2SCAN-3C E -148.651729399297
  B       0.578310     -0.271988     -1.064580
  B       0.742885      1.024249     -0.138991
  B      -0.974149      0.244308     -0.967245
  B      -0.082898     -1.161263      0.452978
  B       0.803948      0.052736      1.102000
  B      -1.068097      0.111958      0.615838
6
Coordinates from ORCA-job B6_random_3d_seed1002_d1.80_q0_m3_R2SCAN-3C E -148.657241648037
  B       0.628121     -0.246489     -1.051052
  B       0.679051      1.058706     -0.105154
  B      -0.973120      0.147978     -0.957236
  B      -0.143570     -1.149120      0.434245
  B       0.842600     -0.005788      1.062200
  B      -1.033082      0.194713      0.616998
6
Coordinates from ORCA-job B6_random_3d_seed1002_d1.80_q0_m3_R2SCAN-3C E -148.664823212264
  B       0.663479     -0.247469     -1.031112
  B       0.585350      1.094913     -0.066739
  B      -0.946511      0.062254     -0.923097
  B      -0.176892     -1.134187      0.400310
  B       0.847440     -0.071096      1.011170
  B      -0.972865      0.295585      0.609467
6
Coordinates from ORCA-job B6_random_3d_seed1002_d1.80_q0_m3_R2SCAN-3C E -148.675245179497
  B       0.693908     -0.258316     -0.990334
  B       0.470404      1.112495     -0.031677
  B      -0.900595     -0.012787     -0.869943
  B      -0.202554     -1.111356      0.347891
  B       0.827520     -0.126563      0.941821
  B      -0.888684      0.396527      0.602243
6
Coordinates from ORCA-job B6_random_3d_seed1002_d1.80_q0_m3_R2SCAN-3C E -148.668491452668
  B       0.694348     -0.311466     -0.924664
  B       0.372915      1.129409     -0.038053
  B      -0.827908     -0.026373     -0.805885
  B      -0.183348     -1.102387      0.265881
  B       0.758859     -0.148745      0.876362
  B      -0.814867      0.459564      0.626360
6
Coordinates from ORCA-job B6_random_3d_seed1002_d1.80_q0_m3_R2SCAN-3C E -148.682369406645
  B       0.691719     -0.292051     -0.934842
  B       0.443526      1.126546     -0.066534
  B      -0.856134     -0.006274     -0.838963
  B      -0.191462     -1.111963      0.288970
  B       0.783607     -0.122649      0.902339
  B      -0.871256      0.406391      0.649031
6
Coordinates from ORCA-job B6_random_3d_seed1002_d1.80_q0_m3_R2SCAN-3C E -148.684660989629
  B       0.732904     -0.259611     -0.905390
  B       0.426086      1.129980     -0.058748
  B      -0.873770     -0.053937     -0.848482
  B      -0.256220     -1.106954      0.282570
  B       0.836362     -0.135662      0.877198
  B      -0.865361      0.426184      0.652852
6
Coordinates from ORCA-job B6_random_3d_seed1002_d1.80_q0_m3_R2SCAN-3C E -148.690865138778
  B       0.731496     -0.305462     -0.843391
  B       0.419162      1.128457     -0.124772
  B      -0.862189      0.021676     -0.864272
  B      -0.233168     -1.136537      0.247265
  B       0.817219     -0.100490      0.868061
  B      -0.872520      0.392357      0.717110
6
Coordinates from ORCA-job B6_random_3d_seed1002_d1.80_q0_m3_R2SCAN-3C E -148.692900087077
  B       0.740149     -0.332915     -0.819461
  B       0.392851      1.126970     -0.151769
  B      -0.844698      0.052141     -0.858937
  B      -0.231107     -1.141050      0.224232
  B       0.803424     -0.088485      0.861607
  B      -0.860619      0.383339      0.744327
6
Coordinates from ORCA-job B6_random_3d_seed1002_d1.80_q0_m3_R2SCAN-3C E -148.694796373384
  B       0.765166     -0.355449     -0.803060
  B       0.349943      1.121116     -0.178553
  B      -0.823629      0.078996     -0.851834
  B      -0.249182     -1.140191      0.204268
  B       0.797908     -0.078995      0.858048
  B      -0.840205      0.374522      0.771130
6
Coordinates from ORCA-job B6_random_3d_seed1002_d1.80_q0_m3_R2SCAN-3C E -148.695804200212
  B       0.791653     -0.357779     -0.797268
  B       0.319883      1.116999     -0.190055
  B      -0.812290      0.080337     -0.848279
  B      -0.280862     -1.131639      0.195242
  B       0.804629     -0.076936      0.856008
  B      -0.823013      0.369018      0.784353
6
Coordinates from ORCA-job B6_random_3d_seed1002_d1.80_q0_m3_R2SCAN-3C E -148.696101657532
  B       0.801683     -0.353872     -0.798589
  B       0.312745      1.118886     -0.190843
  B      -0.812288      0.073551     -0.850917
  B      -0.299111     -1.126955      0.194738
  B       0.810827     -0.076285      0.859459
  B      -0.813856      0.364675      0.786151
6
Coordinates from ORCA-job B6_random_3d_seed1002_d1.80_q0_m3_R2SCAN-3C E -148.696163693776
  B       0.804467     -0.354218     -0.794559
  B       0.309359      1.121238     -0.194638
  B      -0.811804      0.074689     -0.853534
  B      -0.306299     -1.126899      0.193584
  B       0.812057     -0.074215      0.859956
  B      -0.807780      0.359405      0.789191
6
Coordinates from ORCA-job B6_random_3d_seed1002_d1.80_q0_m3_R2SCAN-3C E -148.696181152861
  B       0.804352     -0.354821     -0.791830
  B       0.308939      1.123788     -0.195674
  B      -0.811948      0.074425     -0.855125
  B      -0.308402     -1.127092      0.192832
  B       0.811600     -0.073385      0.859451
  B      -0.804541      0.357084      0.790346
6
Coordinates from ORCA-job B6_random_3d_seed1002_d1.80_q0_m3_R2SCAN-3C E -148.696184968104
  B       0.803832     -0.355791     -0.791148
  B       0.308937      1.124882     -0.195728
  B      -0.812127      0.074776     -0.855830
  B      -0.307846     -1.127229      0.192668
  B       0.810877     -0.073187      0.859312
  B      -0.803673      0.356549      0.790726
6
Coordinates from ORCA-job B6_random_3d_seed1002_d1.80_q0_m3_R2SCAN-3C E -148.696186446140
  B       0.803870     -0.356214     -0.790676
  B       0.308818      1.125447     -0.195366
  B      -0.812261      0.074455     -0.856173
  B      -0.307566     -1.126735      0.192670
  B       0.810676     -0.073562      0.858650
  B      -0.803537      0.356609      0.790895
6
Coordinates from ORCA-job B6_random_3d_seed1002_d1.80_q0_m3_R2SCAN-3C E -148.696187284271
  B       0.804016     -0.356652     -0.790945
  B       0.308585      1.125584     -0.195049
  B      -0.812310      0.074480     -0.856537
  B      -0.307253     -1.126200      0.192944
  B       0.810580     -0.073813      0.858541
  B      -0.803619      0.356602      0.791045
6
Coordinates from ORCA-job B6_random_3d_seed1002_d1.80_q0_m3_R2SCAN-3C E -148.696187678328
  B       0.804291     -0.356672     -0.790998
  B       0.308363      1.125586     -0.194791
  B      -0.812274      0.074310     -0.856889
  B      -0.307395     -1.125672      0.193287
  B       0.810795     -0.074118      0.858200
  B      -0.803780      0.356567      0.791190
6
Coordinates from ORCA-job B6_random_3d_seed1002_d1.80_q0_m3_R2SCAN-3C E -148.696187854784
  B       0.804334     -0.356575     -0.791156
  B       0.308251      1.125447     -0.194711
  B      -0.812121      0.074319     -0.857055
  B      -0.307550     -1.125575      0.193508
  B       0.810939     -0.074145      0.858168
  B      -0.803853      0.356528      0.791246
