6
Coordinates from ORCA-job B6_linear_chain_d1.60_q0_m3_R2SCAN-3C E -148.589068445333
  B          -3.85293791178273      0.00000002703881      0.00000004411244
  B          -2.31085284496257      0.00000022546188      0.00000058511969
  B          -0.77371282956558     -0.00000008586170     -0.00000019632954
  B           0.77371369683898     -0.00000024620071     -0.00000061997059
  B           2.31085231926857     -0.00000029760097     -0.00000075921996
  B           3.85293757020334      0.00000037716270      0.00000094628796
