6
Coordinates from ORCA-job B6_linear_chain_d1.60_q0_m3_R2SCAN-3C E -148.509964742310
  B      -4.000000      0.000000      0.000000
  B      -2.400000      0.000000      0.000000
  B      -0.800000      0.000000      0.000000
  B       0.800000      0.000000      0.000000
  B       2.400000      0.000000      0.000000
  B       4.000000      0.000000      0.000000
6
Coordinates from ORCA-job B6_linear_chain_d1.60_q0_m3_R2SCAN-3C E -148.521423088968
  B      -3.886187      0.000000      0.000000
  B      -2.346343     -0.000000     -0.000000
  B      -0.787198     -0.000000     -0.000000
  B       0.787197     -0.000000     -0.000000
  B       2.346344      0.000000      0.000000
  B       3.886188      0.000000      0.000000
6
Coordinates from ORCA-job B6_linear_chain_d1.60_q0_m3_R2SCAN-3C E -148.587052724549
  B      -3.816456     -0.000000     -0.000000
  B      -2.314931      0.000000      0.000000
  B      -0.781178      0.000000      0.000000
  B       0.781187      0.000000      0.000000
  B       2.314928     -0.000000     -0.000000
  B       3.816449      0.000000      0.000000
6
Coordinates from ORCA-job B6_linear_chain_d1.60_q0_m3_R2SCAN-3C E -148.588598398285
  B      -3.839724      0.000000      0.000000
  B      -2.316841      0.000000      0.000001
  B      -0.779342     -0.000000     -0.000000
  B       0.779345     -0.000000     -0.000001
  B       2.316840     -0.000000     -0.000001
  B       3.839722      0.000001      0.000002
6
Coordinates from ORCA-job B6_linear_chain_d1.60_q0_m3_R2SCAN-3C E -148.589064940028
  B      -3.851227      0.000000      0.000000
  B      -2.310789      0.000000      0.000001
  B      -0.774120     -0.000000     -0.000000
  B       0.774123     -0.000000     -0.000001
  B       2.310788     -0.000000     -0.000001
  B       3.851224      0.000000      0.000001
6
Coordinates from ORCA-job B6_linear_chain_d1.60_q0_m3_R2SCAN-3C E -148.589068438847
  B      -3.852882      0.000000      0.000000
  B      -2.310857      0.000000      0.000001
  B      -0.773733     -0.000000     -0.000000
  B       0.773736     -0.000000     -0.000001
  B       2.310856     -0.000000     -0.000001
  B       3.852879      0.000000      0.000001
6
Coordinates from ORCA-job B6_linear_chain_d1.60_q0_m3_R2SCAN-3C E -148.589068445333
  B      -3.852938      0.000000      0.000000
  B      -2.310853      0.000000      0.000001
  B      -0.773713     -0.000000     -0.000000
  B       0.773714     -0.000000     -0.000001
  B       2.310852     -0.000000     -0.000001
  B       3.852938      0.000000      0.000001
