6
Coordinates from ORCA-job B6_linear_chain_d2.20_q0_m3_R2SCAN-3C E -148.594798951908
  B          -3.85242201836014     -0.00034317330996      0.00019939447171
  B          -2.31212486959875     -0.00055856717616      0.00027898962035
  B          -0.77814510785392      0.00110322188610      0.00017606179725
  B           0.76392372409910      0.00020271478210     -0.00116217281057
  B           2.31986088589098     -0.00008227189744     -0.00039477128624
  B           3.85890738582271     -0.00032192428464      0.00090249820750
