6
Coordinates from ORCA-job B6_linear_chain_d2.20_q0_m3_R2SCAN-3C E -148.185663300092
  B      -5.500000      0.000000      0.000000
  B      -3.300000      0.000000      0.000000
  B      -1.100000      0.000000      0.000000
  B       1.100000      0.000000      0.000000
  B       3.300000      0.000000      0.000000
  B       5.500000      0.000000      0.000000
6
Coordinates from ORCA-job B6_linear_chain_d2.20_q0_m3_R2SCAN-3C E -148.229812398933
  B      -5.326267     -0.000000      0.000000
  B      -3.178328      0.000000     -0.000000
  B      -1.056764      0.000000     -0.000000
  B       1.056764      0.000000     -0.000000
  B       3.178328     -0.000000      0.000000
  B       5.326267     -0.000000      0.000000
6
Coordinates from ORCA-job B6_linear_chain_d2.20_q0_m3_R2SCAN-3C E -148.285750147399
  B      -5.154215     -0.000000      0.000000
  B      -3.053825      0.000000     -0.000000
  B      -1.013809      0.000000     -0.000000
  B       1.013810      0.000000     -0.000000
  B       3.053824     -0.000000      0.000000
  B       5.154215     -0.000000      0.000000
6
Coordinates from ORCA-job B6_linear_chain_d2.20_q0_m3_R2SCAN-3C E -148.357424346637
  B      -4.897677     -0.000000     -0.000000
  B      -2.865716     -0.000000     -0.000000
  B      -0.956222      0.000000      0.000000
  B       0.956247      0.000000      0.000000
  B       2.865694     -0.000000     -0.000000
  B       4.897674     -0.000000     -0.000000
6
Coordinates from ORCA-job B6_linear_chain_d2.20_q0_m3_R2SCAN-3C E -148.431556954860
  B      -4.644757     -0.000000     -0.000001
  B      -2.673930     -0.000000     -0.000001
  B      -0.897359      0.000000      0.000001
  B       0.897564      0.000000      0.000002
  B       2.673596     -0.000000      0.000000
  B       4.644886     -0.000000     -0.000002
6
Coordinates from ORCA-job B6_linear_chain_d2.20_q0_m3_R2SCAN-3C E -148.528946387661
  B      -4.274236      0.001849     -0.001265
  B      -2.433754      0.000933     -0.000302
  B      -0.815945     -0.004091     -0.000698
  B       0.820215     -0.000534      0.004181
  B       2.437491      0.000368      0.001267
  B       4.266229      0.001476     -0.003182
6
Coordinates from ORCA-job B6_linear_chain_d2.20_q0_m3_R2SCAN-3C E -148.573818682242
  B      -3.937087      0.001193     -0.001430
  B      -2.247833      0.000121      0.001102
  B      -0.728875     -0.001788     -0.001350
  B       0.748535     -0.000606      0.003075
  B       2.247636      0.000175      0.000694
  B       3.917624      0.000905     -0.002091
6
Coordinates from ORCA-job B6_linear_chain_d2.20_q0_m3_R2SCAN-3C E -148.576168203236
  B      -3.744904     -0.000860     -0.000116
  B      -2.214401     -0.000688      0.001182
  B      -0.822345      0.002436     -0.000255
  B       0.772485     -0.000062     -0.001485
  B       2.248964     -0.000235     -0.000556
  B       3.760201     -0.000591      0.001230
6
Coordinates from ORCA-job B6_linear_chain_d2.20_q0_m3_R2SCAN-3C E -148.589159789269
  B      -3.771998     -0.001601      0.000751
  B      -2.318787     -0.000826      0.000380
  B      -0.767980      0.003462      0.000922
  B       0.757309      0.000502     -0.003598
  B       2.293956     -0.000338     -0.000927
  B       3.807501     -0.001199      0.002473
6
Coordinates from ORCA-job B6_linear_chain_d2.20_q0_m3_R2SCAN-3C E -148.587952308384
  B      -3.965615     -0.000948      0.000560
  B      -2.353651     -0.000345     -0.000120
  B      -0.766830      0.001685      0.000887
  B       0.778452      0.000423     -0.002251
  B       2.403736     -0.000170     -0.000496
  B       3.903908     -0.000646      0.001419
6
Coordinates from ORCA-job B6_linear_chain_d2.20_q0_m3_R2SCAN-3C E -148.592693857650
  B      -3.887612     -0.000372     -0.000115
  B      -2.333746     -0.000475      0.000692
  B      -0.792772      0.001143     -0.000211
  B       0.753224      0.000057     -0.000689
  B       2.331909     -0.000082     -0.000298
  B       3.928996     -0.000271      0.000620
6
Coordinates from ORCA-job B6_linear_chain_d2.20_q0_m3_R2SCAN-3C E -148.592855286424
  B      -3.831245     -0.000569      0.000126
  B      -2.307139     -0.000472      0.000411
  B      -0.763240      0.001385      0.000214
  B       0.791368      0.000183     -0.001286
  B       2.291746     -0.000112     -0.000409
  B       3.818510     -0.000416      0.000945
6
Coordinates from ORCA-job B6_linear_chain_d2.20_q0_m3_R2SCAN-3C E -148.592348709396
  B      -3.802189     -0.001089      0.000558
  B      -2.282494     -0.000696      0.000319
  B      -0.781021      0.002463      0.000587
  B       0.726115      0.000401     -0.002632
  B       2.314351     -0.000238     -0.000688
  B       3.825237     -0.000841      0.001856
6
Coordinates from ORCA-job B6_linear_chain_d2.20_q0_m3_R2SCAN-3C E -148.594424739552
  B      -3.874734     -0.000631      0.000238
  B      -2.323457     -0.000558      0.000386
  B      -0.785893      0.001574      0.000246
  B       0.759394      0.000243     -0.001545
  B       2.337564     -0.000134     -0.000472
  B       3.887125     -0.000494      0.001147
6
Coordinates from ORCA-job B6_linear_chain_d2.20_q0_m3_R2SCAN-3C E -148.594775019211
  B      -3.850840     -0.000578      0.000243
  B      -2.312557     -0.000560      0.000350
  B      -0.776943      0.001484      0.000254
  B       0.767464      0.000241     -0.001490
  B       2.317370     -0.000123     -0.000466
  B       3.855506     -0.000464      0.001110
6
Coordinates from ORCA-job B6_linear_chain_d2.20_q0_m3_R2SCAN-3C E -148.594798796387
  B      -3.852580     -0.000517      0.000236
  B      -2.312317     -0.000561      0.000329
  B      -0.778172      0.001384      0.000228
  B       0.763762      0.000236     -0.001406
  B       2.320078     -0.000112     -0.000448
  B       3.859230     -0.000430      0.001061
6
Coordinates from ORCA-job B6_linear_chain_d2.20_q0_m3_R2SCAN-3C E -148.594798914520
  B      -3.852430     -0.000445      0.000225
  B      -2.312176     -0.000559      0.000307
  B      -0.778154      0.001264      0.000200
  B       0.763906      0.000227     -0.001302
  B       2.319900     -0.000098     -0.000426
  B       3.858954     -0.000387      0.000996
6
Coordinates from ORCA-job B6_linear_chain_d2.20_q0_m3_R2SCAN-3C E -148.594798951908
  B      -3.852422     -0.000343      0.000199
  B      -2.312125     -0.000559      0.000279
  B      -0.778145      0.001103      0.000176
  B       0.763924      0.000203     -0.001162
  B       2.319861     -0.000082     -0.000395
  B       3.858907     -0.000322      0.000902
