6
Coordinates from ORCA-job B6_random_3d_seed1000_d2.00_q0_m1_R2SCAN-3C E -148.458190586790
  B       0.611618     -0.634035      1.256285
  B       1.595830     -0.178831     -0.451572
  B      -0.033732     -1.458251     -0.549392
  B      -0.681083      0.714734      1.066638
  B      -0.097131      1.516888     -0.675506
  B      -1.395502      0.039495     -0.646452
6
Coordinates from ORCA-job B6_random_3d_seed1000_d2.00_q0_m1_R2SCAN-3C E -148.496507437846
  B       0.602517     -0.600920      1.234568
  B       1.519097     -0.150967     -0.438125
  B      -0.041656     -1.420404     -0.555372
  B      -0.651845      0.703001      1.052297
  B      -0.070898      1.440082     -0.646210
  B      -1.357216      0.029208     -0.647158
6
Coordinates from ORCA-job B6_random_3d_seed1000_d2.00_q0_m1_R2SCAN-3C E -148.531557284331
  B       0.597472     -0.568734      1.213119
  B       1.447247     -0.131097     -0.421618
  B      -0.047395     -1.382433     -0.563663
  B      -0.623687      0.695289      1.037955
  B      -0.052951      1.365447     -0.616350
  B      -1.320686      0.021529     -0.649442
6
Coordinates from ORCA-job B6_random_3d_seed1000_d2.00_q0_m1_R2SCAN-3C E -148.574625779032
  B       0.599998     -0.524286      1.179907
  B       1.355444     -0.127049     -0.389973
  B      -0.049080     -1.324936     -0.578335
  B      -0.587473      0.691484      1.013522
  B      -0.048903      1.268979     -0.571615
  B      -1.269986      0.015807     -0.653506
6
Coordinates from ORCA-job B6_random_3d_seed1000_d2.00_q0_m1_R2SCAN-3C E -148.614512366710
  B       0.621451     -0.465858      1.130597
  B       1.294749     -0.211625     -0.332297
  B      -0.033604     -1.237748     -0.603792
  B      -0.554422      0.700542      0.970377
  B      -0.121237      1.193782     -0.510205
  B      -1.206936      0.020907     -0.654680
6
Coordinates from ORCA-job B6_random_3d_seed1000_d2.00_q0_m1_R2SCAN-3C E -148.631401774940
  B       0.631615     -0.411824      1.100642
  B       1.296031     -0.364472     -0.307923
  B      -0.005800     -1.157518     -0.620154
  B      -0.544143      0.708075      0.951336
  B      -0.225326      1.220667     -0.466865
  B      -1.152377      0.005071     -0.657036
6
Coordinates from ORCA-job B6_random_3d_seed1000_d2.00_q0_m1_R2SCAN-3C E -148.650742756980
  B       0.638381     -0.377130      1.074508
  B       1.357813     -0.523907     -0.272776
  B       0.003054     -1.110930     -0.633297
  B      -0.523612      0.714931      0.947441
  B      -0.362035      1.310401     -0.446562
  B      -1.113601     -0.013364     -0.669313
6
Coordinates from ORCA-job B6_random_3d_seed1000_d2.00_q0_m1_R2SCAN-3C E -148.681116447656
  B       0.657720     -0.352067      1.043086
  B       1.478657     -0.752738     -0.214448
  B       0.030807     -1.087022     -0.648252
  B      -0.493756      0.731895      0.944535
  B      -0.584473      1.460776     -0.432360
  B      -1.088955     -0.000843     -0.692562
6
Coordinates from ORCA-job B6_random_3d_seed1000_d2.00_q0_m1_R2SCAN-3C E -148.698197297559
  B       0.684323     -0.335106      0.993288
  B       1.551532     -0.966272     -0.145797
  B       0.086587     -1.071485     -0.650647
  B      -0.455593      0.761284      0.908940
  B      -0.812464      1.567339     -0.390294
  B      -1.054385      0.044240     -0.715489
6
Coordinates from ORCA-job B6_random_3d_seed1000_d2.00_q0_m1_R2SCAN-3C E -148.706102931602
  B       0.714140     -0.315863      0.946129
  B       1.571484     -1.125708     -0.072340
  B       0.109109     -1.022278     -0.662310
  B      -0.406900      0.786702      0.868342
  B      -0.997119      1.599263     -0.344761
  B      -0.990714      0.077885     -0.735060
6
Coordinates from ORCA-job B6_random_3d_seed1000_d2.00_q0_m1_R2SCAN-3C E -148.709220940715
  B       0.735506     -0.298874      0.920439
  B       1.563584     -1.237692     -0.033245
  B       0.161818     -1.016519     -0.668824
  B      -0.378927      0.819367      0.834544
  B      -1.125694      1.618166     -0.299901
  B      -0.956286      0.115552     -0.753012
6
Coordinates from ORCA-job B6_random_3d_seed1000_d2.00_q0_m1_R2SCAN-3C E -148.710489835837
  B       0.752586     -0.282802      0.910330
  B       1.549776     -1.281350     -0.000799
  B       0.167308     -1.005048     -0.689118
  B      -0.357426      0.836596      0.821669
  B      -1.177296      1.600236     -0.272302
  B      -0.934947      0.132368     -0.769781
6
Coordinates from ORCA-job B6_random_3d_seed1000_d2.00_q0_m1_R2SCAN-3C E -148.711023046420
  B       0.770937     -0.268444      0.904727
  B       1.522754     -1.317350      0.022489
  B       0.178421     -0.995489     -0.705958
  B      -0.334248      0.854111      0.817780
  B      -1.228416      1.584582     -0.250857
  B      -0.909447      0.142590     -0.788182
6
Coordinates from ORCA-job B6_random_3d_seed1000_d2.00_q0_m1_R2SCAN-3C E -148.711129784253
  B       0.778215     -0.260513      0.899903
  B       1.518227     -1.341216      0.034236
  B       0.184418     -0.993668     -0.713429
  B      -0.329480      0.867357      0.812612
  B      -1.250999      1.575985     -0.236139
  B      -0.900381      0.152055     -0.797182
6
Coordinates from ORCA-job B6_random_3d_seed1000_d2.00_q0_m1_R2SCAN-3C E -148.711164082790
  B       0.780221     -0.257736      0.894091
  B       1.514012     -1.348308      0.039560
  B       0.187479     -0.992778     -0.713571
  B      -0.325600      0.869787      0.812068
  B      -1.260533      1.572288     -0.231569
  B      -0.895579      0.156746     -0.800578
6
Coordinates from ORCA-job B6_random_3d_seed1000_d2.00_q0_m1_R2SCAN-3C E -148.711193351020
  B       0.781315     -0.253920      0.886945
  B       1.511182     -1.356516      0.043449
  B       0.189421     -0.992691     -0.712120
  B      -0.323713      0.873052      0.812567
  B      -1.269986      1.569639     -0.226243
  B      -0.888219      0.160436     -0.804599
6
Coordinates from ORCA-job B6_random_3d_seed1000_d2.00_q0_m1_R2SCAN-3C E -148.711235350969
  B       0.782217     -0.248407      0.876293
  B       1.509665     -1.364687      0.046834
  B       0.188944     -0.996192     -0.709056
  B      -0.324612      0.876781      0.816186
  B      -1.278972      1.566382     -0.220640
  B      -0.877242      0.166123     -0.809616
6
Coordinates from ORCA-job B6_random_3d_seed1000_d2.00_q0_m1_R2SCAN-3C E -148.711432738618
  B       0.781339     -0.226853      0.835795
  B       1.506422     -1.384332      0.052649
  B       0.180757     -1.017229     -0.695670
  B      -0.334865      0.887601      0.835705
  B      -1.300863      1.555240     -0.204767
  B      -0.832790      0.185573     -0.823712
6
Coordinates from ORCA-job B6_random_3d_seed1000_d2.00_q0_m1_R2SCAN-3C E -148.711693639029
  B       0.773017     -0.205712      0.790019
  B       1.507852     -1.394848      0.051088
  B       0.165315     -1.043988     -0.676174
  B      -0.351240      0.896190      0.862245
  B      -1.313082      1.544876     -0.194714
  B      -0.781862      0.203482     -0.832464
6
Coordinates from ORCA-job B6_random_3d_seed1000_d2.00_q0_m1_R2SCAN-3C E -148.712072481719
  B       0.755678     -0.197591      0.770507
  B       1.523287     -1.374311      0.027506
  B       0.143054     -1.070743     -0.652762
  B      -0.378367      0.890378      0.887422
  B      -1.285642      1.551645     -0.203886
  B      -0.758011      0.200621     -0.828787
6
Coordinates from ORCA-job B6_random_3d_seed1000_d2.00_q0_m1_R2SCAN-3C E -148.712825917530
  B       0.722489     -0.185584      0.745108
  B       1.545416     -1.327703     -0.018485
  B       0.107477     -1.123193     -0.618808
  B      -0.429543      0.882712      0.923332
  B      -1.226328      1.562828     -0.219013
  B      -0.719511      0.190940     -0.812134
6
Coordinates from ORCA-job B6_random_3d_seed1000_d2.00_q0_m1_R2SCAN-3C E -148.714054110627
  B       0.705574     -0.177537      0.731183
  B       1.546737     -1.310793     -0.031364
  B       0.098431     -1.156360     -0.623979
  B      -0.448202      0.892292      0.932977
  B      -1.210119      1.562181     -0.220825
  B      -0.692421      0.190217     -0.787992
6
Coordinates from ORCA-job B6_random_3d_seed1000_d2.00_q0_m1_R2SCAN-3C E -148.716685120608
  B       0.665558     -0.161685      0.678202
  B       1.530119     -1.287104     -0.042216
  B       0.100247     -1.226840     -0.654564
  B      -0.474146      0.919564      0.948581
  B      -1.205203      1.562916     -0.228198
  B      -0.616575      0.193149     -0.701805
6
Coordinates from ORCA-job B6_random_3d_seed1000_d2.00_q0_m1_R2SCAN-3C E -148.716267820685
  B       0.691416     -0.179818      0.705159
  B       1.514660     -1.311661     -0.009729
  B       0.129436     -1.201625     -0.692911
  B      -0.435580      0.927572      0.913028
  B      -1.249873      1.569991     -0.224137
  B      -0.650058      0.195541     -0.691409
6
Coordinates from ORCA-job B6_random_3d_seed1000_d2.00_q0_m1_R2SCAN-3C E -148.716912162634
  B       0.669778     -0.164607      0.649985
  B       1.511898     -1.321591     -0.017068
  B       0.125251     -1.210171     -0.664064
  B      -0.451508      0.925648      0.938286
  B      -1.258660      1.565720     -0.224538
  B      -0.596759      0.205001     -0.682600
6
Coordinates from ORCA-job B6_random_3d_seed1000_d2.00_q0_m1_R2SCAN-3C E -148.717017862694
  B       0.667887     -0.163621      0.676666
  B       1.527353     -1.296547     -0.042945
  B       0.106819     -1.213806     -0.650698
  B      -0.470770      0.913669      0.941723
  B      -1.215698      1.568630     -0.234368
  B      -0.615592      0.191675     -0.690378
6
Coordinates from ORCA-job B6_random_3d_seed1000_d2.00_q0_m1_R2SCAN-3C E -148.717173032338
  B       0.674803     -0.164897      0.666397
  B       1.520870     -1.315459     -0.020103
  B       0.117121     -1.208006     -0.664095
  B      -0.455375      0.922409      0.934142
  B      -1.243575      1.565047     -0.222845
  B      -0.613845      0.200905     -0.693496
6
Coordinates from ORCA-job B6_random_3d_seed1000_d2.00_q0_m1_R2SCAN-3C E -148.717196836009
  B       0.671829     -0.164051      0.663337
  B       1.520559     -1.311356     -0.023879
  B       0.116755     -1.211687     -0.661146
  B      -0.459005      0.919889      0.935805
  B      -1.239346      1.567484     -0.225075
  B      -0.610793      0.199721     -0.689041
6
Coordinates from ORCA-job B6_random_3d_seed1000_d2.00_q0_m1_R2SCAN-3C E -148.717221909973
  B       0.672109     -0.162878      0.662379
  B       1.520711     -1.311137     -0.024648
  B       0.116317     -1.211688     -0.659081
  B      -0.460409      0.917987      0.936604
  B      -1.237754      1.567844     -0.225341
  B      -0.610973      0.199873     -0.689912
6
Coordinates from ORCA-job B6_random_3d_seed1000_d2.00_q0_m1_R2SCAN-3C E -148.717397368989
  B       0.678067     -0.152998      0.654005
  B       1.519940     -1.312645     -0.023756
  B       0.115291     -1.211474     -0.650581
  B      -0.469050      0.905100      0.939659
  B      -1.229363      1.570960     -0.224634
  B      -0.614885      0.201057     -0.694694
6
Coordinates from ORCA-job B6_random_3d_seed1000_d2.00_q0_m1_R2SCAN-3C E -148.717556167389
  B       0.688618     -0.141533      0.643786
  B       1.516546     -1.320213     -0.015374
  B       0.116591     -1.208372     -0.649153
  B      -0.474406      0.894417      0.941008
  B      -1.227693      1.573062     -0.221577
  B      -0.619656      0.202639     -0.698690
6
Coordinates from ORCA-job B6_random_3d_seed1000_d2.00_q0_m1_R2SCAN-3C E -148.717688838614
  B       0.701936     -0.129074      0.630891
  B       1.510017     -1.332631      0.000054
  B       0.119850     -1.203180     -0.655424
  B      -0.476167      0.887274      0.940771
  B      -1.232983      1.573501     -0.216202
  B      -0.622652      0.204110     -0.700090
6
Coordinates from ORCA-job B6_random_3d_seed1000_d2.00_q0_m1_R2SCAN-3C E -148.717719495825
  B       0.707654     -0.125503      0.626600
  B       1.506113     -1.338854      0.007897
  B       0.121923     -1.200320     -0.661734
  B      -0.474527      0.887644      0.939716
  B      -1.238997      1.572803     -0.213825
  B      -0.622167      0.204231     -0.698655
6
Coordinates from ORCA-job B6_random_3d_seed1000_d2.00_q0_m1_R2SCAN-3C E -148.717722410207
  B       0.708146     -0.126117      0.627727
  B       1.505484     -1.339326      0.008410
  B       0.122212     -1.199907     -0.663679
  B      -0.473512      0.889025      0.939032
  B      -1.240656      1.572582     -0.213881
  B      -0.621674      0.203741     -0.697609
6
Coordinates from ORCA-job B6_random_3d_seed1000_d2.00_q0_m1_R2SCAN-3C E -148.717722686794
  B       0.708157     -0.126492      0.628448
  B       1.505581     -1.339059      0.008113
  B       0.121996     -1.199890     -0.663798
  B      -0.473305      0.889197      0.938866
  B      -1.240813      1.572636     -0.214080
  B      -0.621616      0.203607     -0.697549
6
Coordinates from ORCA-job B6_random_3d_seed1000_d2.00_q0_m1_R2SCAN-3C E -148.717722848191
  B       0.708196     -0.126579      0.628816
  B       1.505544     -1.338960      0.007922
  B       0.121813     -1.199867     -0.663765
  B      -0.473205      0.889222      0.938704
  B      -1.240949      1.572526     -0.214134
  B      -0.621399      0.203657     -0.697543
6
Coordinates from ORCA-job B6_random_3d_seed1000_d2.00_q0_m1_R2SCAN-3C E -148.717723110205
  B       0.708632     -0.126665      0.629366
  B       1.505431     -1.338915      0.007622
  B       0.121219     -1.199781     -0.663290
  B      -0.473077      0.888958      0.938378
  B      -1.241538      1.572294     -0.214145
  B      -0.620667      0.204110     -0.697930
6
Coordinates from ORCA-job B6_random_3d_seed1000_d2.00_q0_m1_R2SCAN-3C E -148.717723342240
  B       0.709614     -0.126165      0.629210
  B       1.505036     -1.339500      0.007802
  B       0.120464     -1.199523     -0.662517
  B      -0.473066      0.888259      0.937964
  B      -1.242641      1.571760     -0.213814
  B      -0.619407      0.205169     -0.698645
6
Coordinates from ORCA-job B6_random_3d_seed1000_d2.00_q0_m1_R2SCAN-3C E -148.717723648585
  B       0.709888     -0.125724      0.628521
  B       1.504869     -1.339888      0.008285
  B       0.120654     -1.199500     -0.662540
  B      -0.473235      0.887983      0.938019
  B      -1.242684      1.571781     -0.213581
  B      -0.619492      0.205347     -0.698703
6
Coordinates from ORCA-job B6_random_3d_seed1000_d2.00_q0_m1_R2SCAN-3C E -148.717723726989
  B       0.710357     -0.125210      0.627641
  B       1.504635     -1.340509      0.008936
  B       0.120808     -1.199340     -0.662426
  B      -0.473371      0.887623      0.938062
  B      -1.242998      1.571718     -0.213234
  B      -0.619431      0.205718     -0.698980
6
Coordinates from ORCA-job B6_random_3d_seed1000_d2.00_q0_m1_R2SCAN-3C E -148.717723740349
  B       0.710185     -0.125379      0.627876
  B       1.504733     -1.340336      0.008729
  B       0.120786     -1.199418     -0.662443
  B      -0.473353      0.887769      0.938074
  B      -1.242889      1.571731     -0.213332
  B      -0.619462      0.205633     -0.698904
