6
Coordinates from ORCA-job B6_random_3d_seed1000_d2.00_q0_m1_R2SCAN-3C E -148.717723740349
  B           0.71018536738344     -0.12537929292375      0.62787648827841
  B           1.50473272788158     -1.34033612183461      0.00872863091152
  B           0.12078593855675     -1.19941782646806     -0.66244328441693
  B          -0.47335254400178      0.88776932344845      0.93807435711943
  B          -1.24288925612701      1.57173085276609     -0.21333232374755
  B          -0.61946223369298      0.20563307501188     -0.69890385814487
