6
Coordinates from ORCA-job B6_planar_ring_d2.50_q0_m5_R2SCAN-3C E -148.090444376158
  B       2.500000     -0.000000      0.000000
  B       1.250000      2.165064      0.000000
  B      -1.250000      2.165064      0.000000
  B      -2.500000      0.000000      0.000000
  B      -1.250000     -2.165064      0.000000
  B       1.250000     -2.165064      0.000000
6
Coordinates from ORCA-job B6_planar_ring_d2.50_q0_m5_R2SCAN-3C E -148.118130261548
  B       2.435289      0.000000      0.000000
  B       1.217592      2.108880     -0.000000
  B      -1.217591      2.108880      0.000000
  B      -2.435290      0.000000     -0.000000
  B      -1.217591     -2.108880      0.000000
  B       1.217592     -2.108880     -0.000000
6
Coordinates from ORCA-job B6_planar_ring_d2.50_q0_m5_R2SCAN-3C E -148.147360741418
  B       2.370510      0.000000      0.000000
  B       1.185187      2.052733     -0.000000
  B      -1.185187      2.052734      0.000000
  B      -2.370511      0.000000     -0.000000
  B      -1.185187     -2.052734      0.000000
  B       1.185187     -2.052733     -0.000000
6
Coordinates from ORCA-job B6_planar_ring_d2.50_q0_m5_R2SCAN-3C E -148.193794028501
  B       2.273338     -0.000000      0.000000
  B       1.136580      1.968517     -0.000000
  B      -1.136582      1.968515     -0.000000
  B      -2.273335     -0.000000      0.000000
  B      -1.136582     -1.968515     -0.000000
  B       1.136580     -1.968517     -0.000000
6
Coordinates from ORCA-job B6_planar_ring_d2.50_q0_m5_R2SCAN-3C E -148.266061741953
  B       2.127548     -0.000000      0.000000
  B       1.063664      1.842214     -0.000000
  B      -1.063666      1.842210     -0.000000
  B      -2.127543     -0.000000      0.000000
  B      -1.063666     -1.842210      0.000000
  B       1.063664     -1.842214     -0.000000
6
Coordinates from ORCA-job B6_planar_ring_d2.50_q0_m5_R2SCAN-3C E -148.338694407258
  B       1.976440      0.000000      0.000000
  B       0.988077      1.711163     -0.000000
  B      -0.988076      1.711164     -0.000000
  B      -1.976442      0.000000      0.000000
  B      -0.988077     -1.711164      0.000000
  B       0.988077     -1.711163     -0.000000
6
Coordinates from ORCA-job B6_planar_ring_d2.50_q0_m5_R2SCAN-3C E -148.505098626020
  B       1.825081     -0.000000      0.000000
  B       0.912413      1.580307     -0.000000
  B      -0.912418      1.580309     -0.000000
  B      -1.825072     -0.000000      0.000000
  B      -0.912418     -1.580309     -0.000000
  B       0.912413     -1.580307     -0.000000
6
Coordinates from ORCA-job B6_planar_ring_d2.50_q0_m5_R2SCAN-3C E -148.587350869082
  B       1.673797     -0.000001      0.000042
  B       0.836802      1.449374     -0.000021
  B      -0.836805      1.449381     -0.000021
  B      -1.673790     -0.000001      0.000042
  B      -0.836804     -1.449380     -0.000021
  B       0.836801     -1.449373     -0.000021
6
Coordinates from ORCA-job B6_planar_ring_d2.50_q0_m5_R2SCAN-3C E -148.622121156985
  B       1.671524      0.000007      0.000042
  B       0.811141      1.310785     -0.000021
  B      -0.811136      1.310788     -0.000022
  B      -1.671518     -0.000003      0.000043
  B      -0.811141     -1.310794     -0.000021
  B       0.811129     -1.310783     -0.000022
6
Coordinates from ORCA-job B6_planar_ring_d2.50_q0_m5_R2SCAN-3C E -148.620924231945
  B       1.767036     -0.000062      0.000135
  B       0.731744      1.209685     -0.000069
  B      -0.731777      1.209695     -0.000067
  B      -1.767040     -0.000005      0.000135
  B      -0.731742     -1.209666     -0.000069
  B       0.731778     -1.209647     -0.000066
6
Coordinates from ORCA-job B6_planar_ring_d2.50_q0_m5_R2SCAN-3C E -148.645666026139
  B       1.897302     -0.000031      0.000202
  B       0.785956      1.071040     -0.000103
  B      -0.785963      1.071060     -0.000099
  B      -1.897314     -0.000000      0.000203
  B      -0.785961     -1.071043     -0.000103
  B       0.785980     -1.071026     -0.000099
6
Coordinates from ORCA-job B6_planar_ring_d2.50_q0_m5_R2SCAN-3C E -148.647960258873
  B       1.907552      0.000265      0.000057
  B       0.804799      1.148402     -0.000028
  B      -0.804607      1.148328     -0.000029
  B      -1.907436      0.000003      0.000057
  B      -0.804739     -1.148466     -0.000028
  B       0.804431     -1.148531     -0.000029
6
Coordinates from ORCA-job B6_planar_ring_d2.50_q0_m5_R2SCAN-3C E -148.649490178490
  B       1.947679     -0.001731      0.000079
  B       0.793252      1.097438     -0.000039
  B      -0.794751      1.097872     -0.000040
  B      -1.948209      0.000321      0.000079
  B      -0.793845     -1.097062     -0.000040
  B       0.795873     -1.096837     -0.000039
6
Coordinates from ORCA-job B6_planar_ring_d2.50_q0_m5_R2SCAN-3C E -148.648878907506
  B       1.938934      0.018444     -0.000031
  B       0.810039      1.099389      0.000016
  B      -0.789599      1.096039      0.000016
  B      -1.934830     -0.006107     -0.000031
  B      -0.801281     -1.103012      0.000015
  B       0.776738     -1.104753      0.000016
6
Coordinates from ORCA-job B6_planar_ring_d2.50_q0_m5_R2SCAN-3C E -148.649402709495
  B       1.925406     -0.001514     -0.000118
  B       0.790483      1.108189      0.000060
  B      -0.798468      1.105928      0.000059
  B      -1.921041      0.005481     -0.000117
  B      -0.794153     -1.107547      0.000058
  B       0.797773     -1.110537      0.000058
6
Coordinates from ORCA-job B6_planar_ring_d2.50_q0_m5_R2SCAN-3C E -148.646924146531
  B       1.926595     -0.015108      0.000146
  B       0.804080      1.101489     -0.000067
  B      -0.770206      1.122022     -0.000074
  B      -1.960836     -0.033148      0.000147
  B      -0.802269     -1.098526     -0.000078
  B       0.802636     -1.076728     -0.000074
6
Coordinates from ORCA-job B6_planar_ring_d2.50_q0_m5_R2SCAN-3C E -148.649169012254
  B       1.954715     -0.005466      0.000230
  B       0.799351      1.092672     -0.000105
  B      -0.800341      1.096284     -0.000111
  B      -1.960679     -0.000793      0.000226
  B      -0.785281     -1.093037     -0.000122
  B       0.792236     -1.089661     -0.000117
6
Coordinates from ORCA-job B6_planar_ring_d2.50_q0_m5_R2SCAN-3C E -148.647140492234
  B       1.938586      0.025645      0.000051
  B       0.776133      1.109090     -0.000011
  B      -0.779665      1.087752     -0.000017
  B      -1.905247      0.011147      0.000042
  B      -0.827001     -1.106058     -0.000035
  B       0.797193     -1.127576     -0.000030
6
Coordinates from ORCA-job B6_planar_ring_d2.50_q0_m5_R2SCAN-3C E -148.649006662725
  B       1.905975      0.000646     -0.000165
  B       0.799497      1.109993      0.000100
  B      -0.798545      1.115528      0.000094
  B      -1.914655      0.005520     -0.000178
  B      -0.789056     -1.118413      0.000072
  B       0.796785     -1.113273      0.000078
6
Coordinates from ORCA-job B6_planar_ring_d2.50_q0_m5_R2SCAN-3C E -148.648014644911
  B       1.975232     -0.023553      0.000038
  B       0.801450      1.104171      0.000001
  B      -0.802884      1.098177     -0.000006
  B      -1.965406     -0.025927      0.000025
  B      -0.791110     -1.073618     -0.000032
  B       0.782719     -1.079250     -0.000027
6
Coordinates from ORCA-job B6_planar_ring_d2.50_q0_m5_R2SCAN-3C E -148.647966332593
  B       1.959796      0.019962      0.000166
  B       0.787985      1.072879     -0.000060
  B      -0.778740      1.083676     -0.000067
  B      -1.978341      0.021165      0.000156
  B      -0.800583     -1.104318     -0.000100
  B       0.809883     -1.093365     -0.000095
6
Coordinates from ORCA-job B6_planar_ring_d2.50_q0_m5_R2SCAN-3C E -148.649456162516
  B       1.928634      0.005641      0.000128
  B       0.792654      1.099759     -0.000042
  B      -0.793141      1.101278     -0.000048
  B      -1.931203      0.008319      0.000115
  B      -0.795270     -1.107888     -0.000079
  B       0.798325     -1.107109     -0.000075
6
Coordinates from ORCA-job B6_planar_ring_d2.50_q0_m5_R2SCAN-3C E -148.649482863252
  B       1.944407     -0.006061     -0.000015
  B       0.796631      1.102637      0.000030
  B      -0.796817      1.101157      0.000023
  B      -1.942251     -0.006263     -0.000028
  B      -0.793417     -1.094793     -0.000008
  B       0.791447     -1.096678     -0.000002
6
Coordinates from ORCA-job B6_planar_ring_d2.50_q0_m5_R2SCAN-3C E -148.649566330390
  B       1.937016     -0.000308      0.000017
  B       0.795013      1.101792      0.000013
  B      -0.794575      1.101866      0.000008
  B      -1.937187      0.000073      0.000004
  B      -0.794996     -1.101510     -0.000024
  B       0.794729     -1.101913     -0.000018
6
Coordinates from ORCA-job B6_planar_ring_d2.50_q0_m5_R2SCAN-3C E -148.649566432926
  B       1.937045     -0.000258      0.000017
  B       0.794904      1.101463      0.000013
  B      -0.794658      1.101576      0.000008
  B      -1.937108      0.000285      0.000005
  B      -0.794855     -1.101358     -0.000024
  B       0.794672     -1.101708     -0.000019
6
Coordinates from ORCA-job B6_planar_ring_d2.50_q0_m5_R2SCAN-3C E -148.649566440162
  B       1.937053     -0.000240      0.000015
  B       0.794923      1.101475      0.000014
  B      -0.794633      1.101622      0.000009
  B      -1.937098      0.000254      0.000002
  B      -0.794901     -1.101409     -0.000023
  B       0.794657     -1.101702     -0.000018
