6
Coordinates from ORCA-job B6_planar_ring_d2.50_q0_m5_R2SCAN-3C E -148.649566440162
  B           1.93705341228779     -0.00023996471234      0.00001519808286
  B           0.79492251525119      1.10147518559403      0.00001418973895
  B          -0.79463346099411      1.10162157527400      0.00000869517348
  B          -1.93709811089793      0.00025403012322      0.00000243245334
  B          -0.79490138087724     -1.10140868016602     -0.00002296469028
  B           0.79465702523030     -1.10170214611290     -0.00001755075835
