6
Coordinates from ORCA-job B6_linear_chain_d1.60_q0_m5_R2SCAN-3C E -148.605099281554
  B      -4.000000      0.000000      0.000000
  B      -2.400000      0.000000      0.000000
  B      -0.800000      0.000000      0.000000
  B       0.800000      0.000000      0.000000
  B       2.400000      0.000000      0.000000
  B       4.000000      0.000000      0.000000
6
Coordinates from ORCA-job B6_linear_chain_d1.60_q0_m5_R2SCAN-3C E -148.612234633115
  B      -3.905124      0.000000     -0.000000
  B      -2.347426     -0.000000      0.000000
  B      -0.777563     -0.000000      0.000000
  B       0.777563     -0.000000      0.000000
  B       2.347426      0.000000     -0.000000
  B       3.905124      0.000000     -0.000000
6
Coordinates from ORCA-job B6_linear_chain_d1.60_q0_m5_R2SCAN-3C E -148.613002977959
  B      -3.857371      0.000000     -0.000000
  B      -2.320919     -0.000000      0.000000
  B      -0.767544     -0.000000      0.000000
  B       0.767544     -0.000000     -0.000000
  B       2.320919      0.000000     -0.000000
  B       3.857371      0.000000     -0.000000
6
Coordinates from ORCA-job B6_linear_chain_d1.60_q0_m5_R2SCAN-3C E -148.613020784748
  B      -3.863123      0.000000     -0.000000
  B      -2.323834      0.000000      0.000000
  B      -0.769318      0.000000      0.000000
  B       0.769318     -0.000000     -0.000000
  B       2.323834     -0.000000     -0.000000
  B       3.863123      0.000000      0.000000
6
Coordinates from ORCA-job B6_linear_chain_d1.60_q0_m5_R2SCAN-3C E -148.613020985351
  B      -3.862839     -0.000000      0.000000
  B      -2.323585      0.000000     -0.000000
  B      -0.769400      0.000000      0.000000
  B       0.769400     -0.000000     -0.000000
  B       2.323585     -0.000000     -0.000000
  B       3.862839      0.000000      0.000000
6
Coordinates from ORCA-job B6_linear_chain_d1.60_q0_m5_R2SCAN-3C E -148.613021000821
  B      -3.862762      0.000000      0.000000
  B      -2.323497      0.000000     -0.000000
  B      -0.769426     -0.000000     -0.000000
  B       0.769426     -0.000000     -0.000000
  B       2.323497     -0.000000     -0.000000
  B       3.862762      0.000000      0.000000
