6
Coordinates from ORCA-job B6_linear_chain_d1.60_q0_m5_R2SCAN-3C E -148.613021000821
  B          -3.86276176521908      0.00000000758844      0.00000001465755
  B          -2.32349733082400      0.00000000314624     -0.00000000260047
  B          -0.76942634966376     -0.00000000839882     -0.00000001171906
  B           0.76942634344154     -0.00000001057488     -0.00000001222416
  B           2.32349733252882     -0.00000000418076     -0.00000000328112
  B           3.86276176973649      0.00000001241977      0.00000001516726
