6
Coordinates from ORCA-job B6_random_3d_seed1001_d3.00_q0_m3_R2SCAN-3C E -148.026398689152
  B       0.181632     -2.098600     -0.648278
  B      -0.100497      1.964798      0.689348
  B       0.542113      0.756971     -1.897970
  B      -0.602019     -0.907444      1.950645
  B       2.039705      0.085770      0.619872
  B      -2.060933      0.198505     -0.713617
6
Coordinates from ORCA-job B6_random_3d_seed1001_d3.00_q0_m3_R2SCAN-3C E -148.039676317683
  B       0.178839     -2.076215     -0.633802
  B      -0.094412      1.927348      0.674834
  B       0.530172      0.747390     -1.872092
  B      -0.592811     -0.904675      1.926382
  B       2.005754      0.097539      0.611528
  B      -2.027541      0.208613     -0.706849
6
Coordinates from ORCA-job B6_random_3d_seed1001_d3.00_q0_m3_R2SCAN-3C E -148.053652364206
  B       0.175779     -2.054115     -0.619226
  B      -0.088081      1.890044      0.660353
  B       0.517824      0.738121     -1.846362
  B      -0.583519     -0.902224      1.902584
  B       1.971487      0.109495      0.603189
  B      -1.993489      0.218679     -0.700539
6
Coordinates from ORCA-job B6_random_3d_seed1001_d3.00_q0_m3_R2SCAN-3C E -148.076130160470
  B       0.170543     -2.021052     -0.597305
  B      -0.078248      1.834919      0.638867
  B       0.498508      0.724486     -1.807430
  B      -0.569221     -0.898656      1.866990
  B       1.919928      0.127258      0.590805
  B      -1.941511      0.233046     -0.691927
6
Coordinates from ORCA-job B6_random_3d_seed1001_d3.00_q0_m3_R2SCAN-3C E -148.113702358756
  B       0.160900     -1.970918     -0.563168
  B      -0.062008      1.754366      0.606933
  B       0.467221      0.704611     -1.747697
  B      -0.546590     -0.894663      1.813364
  B       1.843030      0.153703      0.572707
  B      -1.862553      0.252900     -0.682138
6
Coordinates from ORCA-job B6_random_3d_seed1001_d3.00_q0_m3_R2SCAN-3C E -148.157880355528
  B       0.150416     -1.919779     -0.525159
  B      -0.043461      1.672902      0.572913
  B       0.432392      0.685185     -1.683857
  B      -0.521862     -0.893337      1.757220
  B       1.763463      0.181138      0.554122
  B      -1.780949      0.273890     -0.675239
6
Coordinates from ORCA-job B6_random_3d_seed1001_d3.00_q0_m3_R2SCAN-3C E -148.207687027505
  B       0.140416     -1.871033     -0.485746
  B      -0.024969      1.593426      0.537651
  B       0.395985      0.666922     -1.618005
  B      -0.496144     -0.893225      1.700211
  B       1.683758      0.207780      0.535514
  B      -1.699047      0.296129     -0.669625
6
Coordinates from ORCA-job B6_random_3d_seed1001_d3.00_q0_m3_R2SCAN-3C E -148.262881426773
  B       0.130860     -1.824766     -0.445597
  B      -0.008076      1.516435      0.501633
  B       0.358258      0.649343     -1.550413
  B      -0.469144     -0.893293      1.642097
  B       1.603962      0.232690      0.516884
  B      -1.615861      0.319590     -0.664604
6
Coordinates from ORCA-job B6_random_3d_seed1001_d3.00_q0_m3_R2SCAN-3C E -148.323686583500
  B       0.121759     -1.778918     -0.404691
  B       0.005964      1.442360      0.465260
  B       0.319216      0.631815     -1.482360
  B      -0.440626     -0.893129      1.582585
  B       1.524505      0.254179      0.498808
  B      -1.530819      0.343693     -0.659601
6
Coordinates from ORCA-job B6_random_3d_seed1001_d3.00_q0_m3_R2SCAN-3C E -148.389744771616
  B       0.113125     -1.731511     -0.359907
  B       0.018251      1.372835      0.426550
  B       0.277791      0.617328     -1.414852
  B      -0.412437     -0.894499      1.519651
  B       1.447272      0.270129      0.481998
  B      -1.444002      0.365718     -0.653439
6
Coordinates from ORCA-job B6_random_3d_seed1001_d3.00_q0_m3_R2SCAN-3C E -148.457046794325
  B       0.103009     -1.684459     -0.311019
  B       0.028191      1.308154      0.388912
  B       0.234548      0.606853     -1.350643
  B      -0.383672     -0.896141      1.453121
  B       1.371011      0.281346      0.465948
  B      -1.353087      0.384248     -0.646319
6
Coordinates from ORCA-job B6_random_3d_seed1001_d3.00_q0_m3_R2SCAN-3C E -148.514693482996
  B       0.088723     -1.632298     -0.253048
  B       0.026372      1.251213      0.357236
  B       0.196798      0.596386     -1.297814
  B      -0.348586     -0.897423      1.374740
  B       1.297599      0.282323      0.452503
  B      -1.260905      0.399799     -0.633616
6
Coordinates from ORCA-job B6_random_3d_seed1001_d3.00_q0_m3_R2SCAN-3C E -148.554880789068
  B       0.076458     -1.562770     -0.198147
  B       0.001095      1.201179      0.329860
  B       0.194887      0.581189     -1.263628
  B      -0.309616     -0.883597      1.285126
  B       1.239816      0.258626      0.444737
  B      -1.202639      0.405373     -0.597947
6
Coordinates from ORCA-job B6_random_3d_seed1001_d3.00_q0_m3_R2SCAN-3C E -148.582453778085
  B       0.069571     -1.477252     -0.182228
  B      -0.033507      1.155094      0.322135
  B       0.215547      0.551381     -1.249297
  B      -0.270129     -0.830538      1.208854
  B       1.186551      0.212333      0.447697
  B      -1.168033      0.388982     -0.547161
6
Coordinates from ORCA-job B6_random_3d_seed1001_d3.00_q0_m3_R2SCAN-3C E -148.598030079206
  B       0.067218     -1.428619     -0.210991
  B      -0.051484      1.135421      0.332115
  B       0.224504      0.524566     -1.243064
  B      -0.246979     -0.769531      1.184522
  B       1.154181      0.175814      0.457538
  B      -1.147440      0.362348     -0.520120
6
Coordinates from ORCA-job B6_random_3d_seed1001_d3.00_q0_m3_R2SCAN-3C E -148.619143871253
  B       0.050280     -1.358800     -0.251374
  B      -0.065235      1.136505      0.358894
  B       0.247978      0.481493     -1.230777
  B      -0.209947     -0.687578      1.136987
  B       1.111358      0.127540      0.471868
  B      -1.134434      0.300841     -0.485598
6
Coordinates from ORCA-job B6_random_3d_seed1001_d3.00_q0_m3_R2SCAN-3C E -148.644974462156
  B       0.036996     -1.306879     -0.307013
  B      -0.097028      1.157568      0.377394
  B       0.276801      0.426044     -1.197701
  B      -0.186206     -0.610418      1.095054
  B       1.075796      0.085091      0.468401
  B      -1.106359      0.248595     -0.436135
6
Coordinates from ORCA-job B6_random_3d_seed1001_d3.00_q0_m3_R2SCAN-3C E -148.659810071796
  B       0.033332     -1.270416     -0.347052
  B      -0.115155      1.169017      0.395257
  B       0.302636      0.378847     -1.166224
  B      -0.187866     -0.561976      1.068998
  B       1.062174      0.069016      0.449350
  B      -1.095120      0.215512     -0.400329
6
Coordinates from ORCA-job B6_random_3d_seed1001_d3.00_q0_m3_R2SCAN-3C E -148.682054151872
  B       0.037822     -1.232116     -0.406001
  B      -0.126613      1.175251      0.413519
  B       0.346945      0.316342     -1.107240
  B      -0.249854     -0.520856      1.062782
  B       1.097291      0.084508      0.388053
  B      -1.105591      0.176871     -0.351113
6
Coordinates from ORCA-job B6_random_3d_seed1001_d3.00_q0_m3_R2SCAN-3C E -148.688833078759
  B       0.025996     -1.146888     -0.427294
  B      -0.112650      1.131283      0.405514
  B       0.371287      0.291500     -1.050468
  B      -0.285778     -0.463029      1.025234
  B       1.096242      0.080583      0.353191
  B      -1.095096      0.106552     -0.306177
6
Coordinates from ORCA-job B6_random_3d_seed1001_d3.00_q0_m3_R2SCAN-3C E -148.692964207857
  B       0.048364     -1.139094     -0.404604
  B      -0.119052      1.131540      0.389279
  B       0.357607      0.316219     -1.055433
  B      -0.297245     -0.473176      1.038076
  B       1.132991      0.049289      0.352862
  B      -1.122665      0.115222     -0.320181
6
Coordinates from ORCA-job B6_random_3d_seed1001_d3.00_q0_m3_R2SCAN-3C E -148.694694482334
  B       0.055896     -1.122582     -0.387367
  B      -0.101522      1.122930      0.388266
  B       0.350801      0.347154     -1.068243
  B      -0.312287     -0.461808      1.046265
  B       1.137869      0.026971      0.349622
  B      -1.130757      0.087335     -0.328543
6
Coordinates from ORCA-job B6_random_3d_seed1001_d3.00_q0_m3_R2SCAN-3C E -148.695771266525
  B       0.080246     -1.104979     -0.380670
  B      -0.095335      1.105852      0.395574
  B       0.338748      0.373371     -1.074723
  B      -0.329207     -0.423636      1.056541
  B       1.141151     -0.012916      0.339310
  B      -1.135603      0.062308     -0.336031
6
Coordinates from ORCA-job B6_random_3d_seed1001_d3.00_q0_m3_R2SCAN-3C E -148.696080934481
  B       0.082840     -1.117818     -0.380520
  B      -0.086325      1.104836      0.401055
  B       0.334247      0.393173     -1.074358
  B      -0.330916     -0.405254      1.059192
  B       1.134115     -0.022147      0.336722
  B      -1.133961      0.047211     -0.342091
6
Coordinates from ORCA-job B6_random_3d_seed1001_d3.00_q0_m3_R2SCAN-3C E -148.696163993383
  B       0.083167     -1.112983     -0.381218
  B      -0.082834      1.110292      0.398037
  B       0.328038      0.398967     -1.065208
  B      -0.332038     -0.400239      1.061470
  B       1.133473     -0.032031      0.334018
  B      -1.129806      0.035994     -0.347099
6
Coordinates from ORCA-job B6_random_3d_seed1001_d3.00_q0_m3_R2SCAN-3C E -148.696186880263
  B       0.083977     -1.115152     -0.384659
  B      -0.083141      1.111197      0.396735
  B       0.329747      0.398128     -1.063560
  B      -0.332681     -0.399458      1.061711
  B       1.133930     -0.031195      0.334399
  B      -1.131832      0.036480     -0.344628
6
Coordinates from ORCA-job B6_random_3d_seed1001_d3.00_q0_m3_R2SCAN-3C E -148.696195339427
  B       0.083758     -1.115004     -0.388306
  B      -0.083687      1.112155      0.395461
  B       0.329713      0.397269     -1.064292
  B      -0.332786     -0.398947      1.062994
  B       1.134166     -0.031484      0.336808
  B      -1.131164      0.036011     -0.342665
6
Coordinates from ORCA-job B6_random_3d_seed1001_d3.00_q0_m3_R2SCAN-3C E -148.696199972569
  B       0.084835     -1.114072     -0.390455
  B      -0.083346      1.112667      0.392423
  B       0.330392      0.398468     -1.063494
  B      -0.332880     -0.398401      1.064117
  B       1.133110     -0.033414      0.337953
  B      -1.132111      0.034752     -0.340544
6
Coordinates from ORCA-job B6_random_3d_seed1001_d3.00_q0_m3_R2SCAN-3C E -148.696201679872
  B       0.084417     -1.113487     -0.391150
  B      -0.083339      1.112802      0.391491
  B       0.330395      0.398484     -1.063430
  B      -0.332094     -0.398378      1.063786
  B       1.132986     -0.033740      0.339294
  B      -1.132365      0.034319     -0.339991
6
Coordinates from ORCA-job B6_random_3d_seed1001_d3.00_q0_m3_R2SCAN-3C E -148.696202123437
  B       0.084237     -1.113117     -0.391382
  B      -0.083471      1.113154      0.391139
  B       0.330726      0.398365     -1.063681
  B      -0.331467     -0.398606      1.063559
  B       1.132576     -0.033970      0.339945
  B      -1.132600      0.034174     -0.339580
6
Coordinates from ORCA-job B6_random_3d_seed1001_d3.00_q0_m3_R2SCAN-3C E -148.696202179011
  B       0.084105     -1.113126     -0.391331
  B      -0.083598      1.113161      0.391240
  B       0.330897      0.398369     -1.063678
  B      -0.331345     -0.398525      1.063450
  B       1.132604     -0.033990      0.339899
  B      -1.132664      0.034111     -0.339581
