6
Coordinates from ORCA-job B6_random_3d_seed1001_d3.00_q0_m3_R2SCAN-3C E -148.696202179011
  B           0.08410514403790     -1.11312555289854     -0.39133090136135
  B          -0.08359765230228      1.11316051572186      0.39123978825316
  B           0.33089701305810      0.39836925466753     -1.06367778847376
  B          -0.33134476715281     -0.39852503079213      1.06345030745039
  B           1.13260433703710     -0.03398996088207      0.33989936377268
  B          -1.13266407467799      0.03411076418334     -0.33958076964113
