6
Coordinates from ORCA-job B6_compact_planar_triangle_d2.50_q0_m5_R2SCAN-3C E -148.681502438139
  B          -1.62385805472368     -0.91298819361683     -0.00007796823047
  B           0.00012122814190     -0.97052623929555      0.00000006174281
  B           1.62397798867283     -0.91313615481049      0.00007643113436
  B          -0.94710939896773      0.49865295359761      0.00013204725498
  B           0.94695687835990      0.49839213555799     -0.00012888738228
  B          -0.00008864148322      1.79960551856727     -0.00000168451940
