6
Coordinates from ORCA-job B6_compact_planar_triangle_d2.50_q0_m5_R2SCAN-3C E -148.168590544430
  B      -2.500000     -1.443376      0.000000
  B       0.000000     -1.443376      0.000000
  B       2.500000     -1.443376      0.000000
  B      -1.250000      0.721688      0.000000
  B       1.250000      0.721688      0.000000
  B       0.000000      2.886751      0.000000
6
Coordinates from ORCA-job B6_compact_planar_triangle_d2.50_q0_m5_R2SCAN-3C E -148.192214579822
  B      -2.448143     -1.411345     -0.000000
  B      -0.000000     -1.410841      0.000000
  B       2.448143     -1.411345     -0.000000
  B      -1.232377      0.710798      0.000000
  B       1.232377      0.710798      0.000000
  B      -0.000000      2.811934     -0.000000
6
Coordinates from ORCA-job B6_compact_planar_triangle_d2.50_q0_m5_R2SCAN-3C E -148.216895298135
  B      -2.397720     -1.378511     -0.000000
  B      -0.000000     -1.378142      0.000000
  B       2.397722     -1.378515     -0.000000
  B      -1.215298      0.699959      0.000000
  B       1.215300      0.699960      0.000000
  B      -0.000002      2.735249     -0.000000
6
Coordinates from ORCA-job B6_compact_planar_triangle_d2.50_q0_m5_R2SCAN-3C E -148.255927289424
  B      -2.324159     -1.327982     -0.000000
  B      -0.000000     -1.329533     -0.000000
  B       2.324161     -1.327986      0.000000
  B      -1.189548      0.683670      0.000000
  B       1.189550      0.683672     -0.000000
  B      -0.000003      2.618159      0.000000
6
Coordinates from ORCA-job B6_compact_planar_triangle_d2.50_q0_m5_R2SCAN-3C E -148.318020975088
  B      -2.217600     -1.250132     -0.000000
  B      -0.000001     -1.257417     -0.000000
  B       2.217605     -1.250143      0.000000
  B      -1.150448      0.659500      0.000000
  B       1.150450      0.659504      0.000000
  B      -0.000007      2.438689     -0.000000
6
Coordinates from ORCA-job B6_compact_planar_triangle_d2.50_q0_m5_R2SCAN-3C E -148.383780276042
  B      -2.112539     -1.169673     -0.000000
  B      -0.000001     -1.182006     -0.000000
  B       2.112548     -1.169688     -0.000000
  B      -1.110139      0.634425      0.000000
  B       1.110138      0.634428      0.000000
  B      -0.000008      2.252513     -0.000000
6
Coordinates from ORCA-job B6_compact_planar_triangle_d2.50_q0_m5_R2SCAN-3C E -148.447884200551
  B      -2.007999     -1.086567     -0.000000
  B      -0.000001     -1.101443      0.000000
  B       2.008018     -1.086594      0.000000
  B      -1.071724      0.605458      0.000000
  B       1.071719      0.605460     -0.000000
  B      -0.000012      2.063686     -0.000000
6
Coordinates from ORCA-job B6_compact_planar_triangle_d2.50_q0_m5_R2SCAN-3C E -148.503808542761
  B      -1.881849     -0.997570     -0.000000
  B      -0.000001     -1.045269      0.000000
  B       1.881875     -0.997606      0.000000
  B      -1.040029      0.575848      0.000000
  B       1.040021      0.575850     -0.000000
  B      -0.000016      1.888746     -0.000000
6
Coordinates from ORCA-job B6_compact_planar_triangle_d2.50_q0_m5_R2SCAN-3C E -148.664992157181
  B      -1.713918     -0.940226     -0.000010
  B      -0.000009     -1.054504      0.000000
  B       1.713919     -0.940202      0.000009
  B      -1.021269      0.550204      0.000019
  B       1.021261      0.550192     -0.000016
  B       0.000015      1.834536     -0.000002
6
Coordinates from ORCA-job B6_compact_planar_triangle_d2.50_q0_m5_R2SCAN-3C E -148.671375128680
  B      -1.559427     -0.875472     -0.000009
  B      -0.000009     -0.999225     -0.000000
  B       1.559444     -0.875460      0.000010
  B      -0.984536      0.496136      0.000016
  B       0.984524      0.496105     -0.000019
  B       0.000005      1.757916      0.000001
6
Coordinates from ORCA-job B6_compact_planar_triangle_d2.50_q0_m5_R2SCAN-3C E -148.679201067323
  B      -1.588938     -0.942787     -0.000014
  B       0.000007     -0.980625      0.000000
  B       1.588955     -0.942817      0.000015
  B      -0.967861      0.518160      0.000024
  B       0.967846      0.518156     -0.000026
  B      -0.000009      1.829914      0.000001
6
Coordinates from ORCA-job B6_compact_planar_triangle_d2.50_q0_m5_R2SCAN-3C E -148.678091706426
  B      -1.672234     -0.899192     -0.000030
  B       0.000024     -1.004560      0.000001
  B       1.672174     -0.899129      0.000026
  B      -0.975973      0.491056      0.000051
  B       0.975979      0.491037     -0.000042
  B       0.000030      1.820787     -0.000004
6
Coordinates from ORCA-job B6_compact_planar_triangle_d2.50_q0_m5_R2SCAN-3C E -148.681075926212
  B      -1.630901     -0.908513     -0.000037
  B      -0.000015     -0.992386      0.000001
  B       1.630981     -0.908616      0.000030
  B      -0.959044      0.507112      0.000062
  B       0.959010      0.507152     -0.000050
  B      -0.000032      1.795251     -0.000006
6
Coordinates from ORCA-job B6_compact_planar_triangle_d2.50_q0_m5_R2SCAN-3C E -148.680852180806
  B      -1.603367     -0.922854     -0.000043
  B       0.000189     -0.962483      0.000001
  B       1.602767     -0.922180      0.000036
  B      -0.942619      0.492495      0.000073
  B       0.942808      0.492242     -0.000060
  B       0.000222      1.822780     -0.000007
6
Coordinates from ORCA-job B6_compact_planar_triangle_d2.50_q0_m5_R2SCAN-3C E -148.681481552444
  B      -1.620945     -0.912132     -0.000047
  B      -0.000499     -0.975867      0.000000
  B       1.622274     -0.913500      0.000042
  B      -0.947858      0.499063      0.000079
  B       0.947444      0.499574     -0.000069
  B      -0.000416      1.802862     -0.000005
6
Coordinates from ORCA-job B6_compact_planar_triangle_d2.50_q0_m5_R2SCAN-3C E -148.681414894423
  B      -1.628155     -0.916941     -0.000052
  B       0.003264     -0.974017      0.000000
  B       1.619054     -0.907554      0.000049
  B      -0.945112      0.500884      0.000088
  B       0.948097      0.497165     -0.000082
  B       0.002852      1.800463     -0.000003
6
Coordinates from ORCA-job B6_compact_planar_triangle_d2.50_q0_m5_R2SCAN-3C E -148.681501471013
  B      -1.624034     -0.912293     -0.000056
  B       0.000123     -0.971923     -0.000000
  B       1.624083     -0.912560      0.000054
  B      -0.945702      0.498446      0.000095
  B       0.945682      0.498406     -0.000091
  B      -0.000152      1.799924     -0.000002
6
Coordinates from ORCA-job B6_compact_planar_triangle_d2.50_q0_m5_R2SCAN-3C E -148.681502190727
  B      -1.623837     -0.912944     -0.000060
  B      -0.000113     -0.971322      0.000000
  B       1.623927     -0.912759      0.000059
  B      -0.946520      0.498437      0.000102
  B       0.946330      0.498427     -0.000099
  B       0.000212      1.800161     -0.000002
6
Coordinates from ORCA-job B6_compact_planar_triangle_d2.50_q0_m5_R2SCAN-3C E -148.681502240102
  B      -1.623784     -0.912879     -0.000067
  B       0.000265     -0.970607      0.000000
  B       1.623844     -0.913423      0.000066
  B      -0.946951      0.498651      0.000114
  B       0.947154      0.498332     -0.000112
  B      -0.000528      1.799926     -0.000001
6
Coordinates from ORCA-job B6_compact_planar_triangle_d2.50_q0_m5_R2SCAN-3C E -148.681502418442
  B      -1.623873     -0.913068     -0.000073
  B       0.000117     -0.970453      0.000000
  B       1.623888     -0.913144      0.000072
  B      -0.947136      0.498578      0.000124
  B       0.947006      0.498476     -0.000121
  B      -0.000002      1.799611     -0.000001
6
Coordinates from ORCA-job B6_compact_planar_triangle_d2.50_q0_m5_R2SCAN-3C E -148.681502438139
  B      -1.623858     -0.912988     -0.000078
  B       0.000121     -0.970526      0.000000
  B       1.623978     -0.913136      0.000076
  B      -0.947109      0.498653      0.000132
  B       0.946957      0.498392     -0.000129
  B      -0.000089      1.799606     -0.000002
