6
Coordinates from ORCA-job B6_linear_chain_d1.60_q0_m1_R2SCAN-3C E -148.411958739102
  B      -4.000000      0.000000      0.000000
  B      -2.400000      0.000000      0.000000
  B      -0.800000      0.000000      0.000000
  B       0.800000      0.000000      0.000000
  B       2.400000      0.000000      0.000000
  B       4.000000      0.000000      0.000000
6
Coordinates from ORCA-job B6_linear_chain_d1.60_q0_m1_R2SCAN-3C E -148.435088594639
  B      -3.847195     -0.000000      0.000000
  B      -2.330041     -0.000000      0.000000
  B      -0.789288      0.000000      0.000000
  B       0.789288      0.000000     -0.000000
  B       2.330041      0.000000     -0.000000
  B       3.847195     -0.000000      0.000000
6
Coordinates from ORCA-job B6_linear_chain_d1.60_q0_m1_R2SCAN-3C E -148.438641075276
  B      -3.745273     -0.000000      0.000000
  B      -2.292099     -0.000000     -0.000000
  B      -0.787977      0.000000     -0.000000
  B       0.787977      0.000000     -0.000000
  B       2.292099      0.000000     -0.000000
  B       3.745273     -0.000000      0.000000
6
Coordinates from ORCA-job B6_linear_chain_d1.60_q0_m1_R2SCAN-3C E -148.438992311555
  B      -3.771601     -0.000000      0.000000
  B      -2.302835     -0.000000     -0.000000
  B      -0.790009      0.000000     -0.000000
  B       0.790009      0.000000     -0.000000
  B       2.302835      0.000000     -0.000000
  B       3.771601     -0.000000      0.000000
6
Coordinates from ORCA-job B6_linear_chain_d1.60_q0_m1_R2SCAN-3C E -148.438998199717
  B      -3.770006     -0.000000      0.000001
  B      -2.302905     -0.000000     -0.000000
  B      -0.790626      0.000000     -0.000001
  B       0.790626      0.000000     -0.000001
  B       2.302905      0.000000     -0.000000
  B       3.770006     -0.000000      0.000001
6
Coordinates from ORCA-job B6_linear_chain_d1.60_q0_m1_R2SCAN-3C E -148.438998543838
  B      -3.770111     -0.000001      0.000007
  B      -2.303211     -0.000001     -0.000002
  B      -0.790972      0.000001     -0.000005
  B       0.790972      0.000001     -0.000005
  B       2.303211      0.000002     -0.000003
  B       3.770111     -0.000003      0.000008
6
Coordinates from ORCA-job B6_linear_chain_d1.60_q0_m1_R2SCAN-3C E -148.438998573661
  B      -3.770226     -0.000003      0.000025
  B      -2.303297     -0.000002     -0.000007
  B      -0.791055      0.000003     -0.000018
  B       0.791055      0.000005     -0.000018
  B       2.303297      0.000006     -0.000010
  B       3.770226     -0.000008      0.000028
