6
Coordinates from ORCA-job B6_linear_chain_d1.60_q0_m1_R2SCAN-3C E -148.438998573661
  B          -3.77022616903136     -0.00000309282537      0.00002536998275
  B          -2.30329700119265     -0.00000236739257     -0.00000679122709
  B          -0.79105480395277      0.00000313514397     -0.00001763269984
  B           0.79105480530103      0.00000470990412     -0.00001828224581
  B           2.30329699928668      0.00000610822532     -0.00001022223097
  B           3.77022616958908     -0.00000849305546      0.00002755842096
