6
Coordinates from ORCA-job B6_rhombic_planar_d3.00_q0_m5_R2SCAN-3C E -147.994968886510
  B      -3.750000     -1.299038      0.000000
  B      -0.750000     -1.299038      0.000000
  B       2.250000     -1.299038      0.000000
  B      -2.250000      1.299038      0.000000
  B       0.750000      1.299038      0.000000
  B       3.750000      1.299038      0.000000
6
Coordinates from ORCA-job B6_rhombic_planar_d3.00_q0_m5_R2SCAN-3C E -148.009756277124
  B      -3.683863     -1.276769     -0.000000
  B      -0.738382     -1.276915      0.000000
  B       2.209042     -1.275793      0.000000
  B      -2.209042      1.275793      0.000000
  B       0.738382      1.276915      0.000000
  B       3.683863      1.276769     -0.000000
6
Coordinates from ORCA-job B6_rhombic_planar_d3.00_q0_m5_R2SCAN-3C E -148.025260657043
  B      -3.617306     -1.254992     -0.000000
  B      -0.727015     -1.254956      0.000000
  B       2.167239     -1.253034      0.000000
  B      -2.167239      1.253034     -0.000000
  B       0.727015      1.254956      0.000000
  B       3.617306      1.254992     -0.000000
6
Coordinates from ORCA-job B6_rhombic_planar_d3.00_q0_m5_R2SCAN-3C E -148.049916465952
  B      -3.516840     -1.223038      0.000000
  B      -0.710182     -1.222180      0.000000
  B       2.103350     -1.219691     -0.000000
  B      -2.103350      1.219691     -0.000000
  B       0.710182      1.222180     -0.000000
  B       3.516840      1.223038      0.000000
6
Coordinates from ORCA-job B6_rhombic_planar_d3.00_q0_m5_R2SCAN-3C E -148.090170078261
  B      -3.365054     -1.176707     -0.000000
  B      -0.685331     -1.173414      0.000000
  B       2.004749     -1.171282      0.000000
  B      -2.004749      1.171282      0.000000
  B       0.685331      1.173414      0.000000
  B       3.365054      1.176707     -0.000000
6
Coordinates from ORCA-job B6_rhombic_planar_d3.00_q0_m5_R2SCAN-3C E -148.136147304208
  B      -3.206633     -1.131343     -0.000000
  B      -0.660391     -1.124072     -0.000000
  B       1.897316     -1.123084      0.000000
  B      -1.897316      1.123084      0.000000
  B       0.660391      1.124072      0.000000
  B       3.206633      1.131343     -0.000000
6
Coordinates from ORCA-job B6_rhombic_planar_d3.00_q0_m5_R2SCAN-3C E -148.186621725301
  B      -3.047661     -1.088555      0.000000
  B      -0.636069     -1.077130     -0.000000
  B       1.783712     -1.076386      0.000000
  B      -1.783712      1.076386     -0.000000
  B       0.636069      1.077130     -0.000000
  B       3.047661      1.088555      0.000000
6
Coordinates from ORCA-job B6_rhombic_planar_d3.00_q0_m5_R2SCAN-3C E -148.242594150351
  B      -2.886279     -1.047492      0.000000
  B      -0.611271     -1.035341     -0.000000
  B       1.662957     -1.031917      0.000000
  B      -1.662957      1.031917      0.000000
  B       0.611271      1.035341     -0.000000
  B       2.886279      1.047492      0.000000
6
Coordinates from ORCA-job B6_rhombic_planar_d3.00_q0_m5_R2SCAN-3C E -148.307304108789
  B      -2.709970     -1.005951      0.000000
  B      -0.580714     -1.003089     -0.000000
  B       1.536892     -0.999815      0.000000
  B      -1.536892      0.999815      0.000000
  B       0.580714      1.003089     -0.000000
  B       2.709970      1.005951     -0.000000
6
Coordinates from ORCA-job B6_rhombic_planar_d3.00_q0_m5_R2SCAN-3C E -148.376573672308
  B      -2.516386     -0.962548      0.000000
  B      -0.540832     -0.974267     -0.000000
  B       1.419819     -0.988970      0.000000
  B      -1.419819      0.988970      0.000000
  B       0.540832      0.974267     -0.000000
  B       2.516386      0.962548     -0.000000
6
Coordinates from ORCA-job B6_rhombic_planar_d3.00_q0_m5_R2SCAN-3C E -148.449758971359
  B      -2.315919     -0.908731      0.000000
  B      -0.489308     -0.942920     -0.000000
  B       1.315456     -0.980214      0.000000
  B      -1.315456      0.980213      0.000000
  B       0.489308      0.942920     -0.000000
  B       2.315920      0.908731     -0.000000
6
Coordinates from ORCA-job B6_rhombic_planar_d3.00_q0_m5_R2SCAN-3C E -148.515174998507
  B      -2.106815     -0.826933      0.000000
  B      -0.427784     -0.920369     -0.000000
  B       1.262457     -0.976876      0.000000
  B      -1.262458      0.976876      0.000000
  B       0.427784      0.920369     -0.000000
  B       2.106815      0.826933      0.000000
6
Coordinates from ORCA-job B6_rhombic_planar_d3.00_q0_m5_R2SCAN-3C E -148.545145995988
  B      -1.995048     -0.732734      0.000000
  B      -0.367584     -0.903222     -0.000000
  B       1.301229     -0.960962      0.000000
  B      -1.301232      0.960962     -0.000000
  B       0.367583      0.903224      0.000000
  B       1.995050      0.732732     -0.000000
6
Coordinates from ORCA-job B6_rhombic_planar_d3.00_q0_m5_R2SCAN-3C E -148.637738478663
  B      -1.990542     -0.637652      0.000001
  B      -0.280855     -0.868303     -0.000001
  B       1.348953     -0.903306      0.000001
  B      -1.348943      0.903305     -0.000001
  B       0.280859      0.868296      0.000001
  B       1.990528      0.637660     -0.000001
6
Coordinates from ORCA-job B6_rhombic_planar_d3.00_q0_m5_R2SCAN-3C E -148.641426444133
  B      -1.975754     -0.560496      0.000001
  B      -0.228598     -0.845919     -0.000002
  B       1.388881     -0.852161      0.000001
  B      -1.388865      0.852160     -0.000001
  B       0.228602      0.845907      0.000002
  B       1.975734      0.560510     -0.000001
6
Coordinates from ORCA-job B6_rhombic_planar_d3.00_q0_m5_R2SCAN-3C E -148.645420097249
  B      -1.978636     -0.592697      0.000001
  B      -0.223368     -0.829142     -0.000002
  B       1.330676     -0.861523      0.000001
  B      -1.330630      0.861525     -0.000001
  B       0.223365      0.829111      0.000002
  B       1.978593      0.592727     -0.000001
6
Coordinates from ORCA-job B6_rhombic_planar_d3.00_q0_m5_R2SCAN-3C E -148.652055893884
  B      -1.977060     -0.631707      0.000001
  B      -0.308143     -0.843195     -0.000002
  B       1.334043     -0.871938      0.000001
  B      -1.334051      0.871940     -0.000001
  B       0.308166      0.843179      0.000002
  B       1.977046      0.631721     -0.000001
6
Coordinates from ORCA-job B6_rhombic_planar_d3.00_q0_m5_R2SCAN-3C E -148.665358076630
  B      -2.074384     -0.623480      0.000002
  B      -0.314949     -0.802139     -0.000003
  B       1.365760     -0.820592      0.000001
  B      -1.365791      0.820596     -0.000002
  B       0.314954      0.802147      0.000003
  B       2.074410      0.623469     -0.000001
6
Coordinates from ORCA-job B6_rhombic_planar_d3.00_q0_m5_R2SCAN-3C E -148.685641437865
  B      -2.070091     -0.601494      0.000001
  B      -0.345056     -0.794459     -0.000002
  B       1.315652     -0.739587      0.000001
  B      -1.315659      0.739602     -0.000001
  B       0.345052      0.794460      0.000002
  B       2.070103      0.601478     -0.000001
6
Coordinates from ORCA-job B6_rhombic_planar_d3.00_q0_m5_R2SCAN-3C E -148.695843579963
  B      -2.099861     -0.607181      0.000001
  B      -0.372063     -0.738816     -0.000002
  B       1.253753     -0.669288      0.000001
  B      -1.253901      0.669243     -0.000001
  B       0.372117      0.738847      0.000002
  B       2.099954      0.607195     -0.000001
6
Coordinates from ORCA-job B6_rhombic_planar_d3.00_q0_m5_R2SCAN-3C E -148.695888756618
  B      -2.107639     -0.606084     -0.000000
  B      -0.378964     -0.773629      0.000001
  B       1.240316     -0.661835     -0.000001
  B      -1.239552      0.662397      0.000001
  B       0.378911      0.773824     -0.000001
  B       2.106927      0.605327      0.000001
6
Coordinates from ORCA-job B6_rhombic_planar_d3.00_q0_m5_R2SCAN-3C E -148.696277547914
  B      -2.109512     -0.601822      0.000000
  B      -0.361520     -0.762704     -0.000000
  B       1.243041     -0.669181     -0.000000
  B      -1.245783      0.665686      0.000000
  B       0.360119      0.761670      0.000000
  B       2.113656      0.606351      0.000000
6
Coordinates from ORCA-job B6_rhombic_planar_d3.00_q0_m5_R2SCAN-3C E -148.693821510291
  B      -2.135234     -0.623395      0.000000
  B      -0.346156     -0.745493     -0.000001
  B       1.257646     -0.649500      0.000000
  B      -1.237534      0.681274     -0.000000
  B       0.365851      0.753807      0.000001
  B       2.095428      0.583307     -0.000000
6
Coordinates from ORCA-job B6_rhombic_planar_d3.00_q0_m5_R2SCAN-3C E -148.696350191102
  B      -2.115528     -0.603215      0.000000
  B      -0.366734     -0.756359     -0.000000
  B       1.246655     -0.661553      0.000000
  B      -1.243723      0.661288     -0.000000
  B       0.365234      0.754654      0.000000
  B       2.114096      0.605185     -0.000000
6
Coordinates from ORCA-job B6_rhombic_planar_d3.00_q0_m5_R2SCAN-3C E -148.696246262742
  B      -2.113572     -0.604659      0.000000
  B      -0.358055     -0.760708     -0.000000
  B       1.239069     -0.663092     -0.000000
  B      -1.250346      0.664415      0.000000
  B       0.369842      0.761508      0.000000
  B       2.113062      0.602536      0.000000
6
Coordinates from ORCA-job B6_rhombic_planar_d3.00_q0_m5_R2SCAN-3C E -148.696340907971
  B      -2.111075     -0.605373     -0.000000
  B      -0.364761     -0.760284     -0.000000
  B       1.244637     -0.664144     -0.000000
  B      -1.245024      0.664684      0.000000
  B       0.361254      0.763765     -0.000000
  B       2.114969      0.601351      0.000000
6
Coordinates from ORCA-job B6_rhombic_planar_d3.00_q0_m5_R2SCAN-3C E -148.696335028524
  B      -2.117720     -0.600605      0.000000
  B      -0.366168     -0.757579     -0.000000
  B       1.247880     -0.661418     -0.000000
  B      -1.242691      0.660148      0.000000
  B       0.366402      0.751905      0.000000
  B       2.112297      0.607549     -0.000000
6
Coordinates from ORCA-job B6_rhombic_planar_d3.00_q0_m5_R2SCAN-3C E -148.696367598281
  B      -2.113540     -0.604405      0.000000
  B      -0.364650     -0.757983     -0.000000
  B       1.244493     -0.662473     -0.000000
  B      -1.245576      0.662758      0.000000
  B       0.364677      0.759038      0.000000
  B       2.114596      0.603065      0.000000
6
Coordinates from ORCA-job B6_rhombic_planar_d3.00_q0_m5_R2SCAN-3C E -148.696367420184
  B      -2.114469     -0.602944      0.000000
  B      -0.364294     -0.759631     -0.000000
  B       1.245426     -0.663001     -0.000000
  B      -1.244438      0.662719      0.000000
  B       0.364464      0.758473      0.000000
  B       2.113311      0.604384      0.000000
6
Coordinates from ORCA-job B6_rhombic_planar_d3.00_q0_m5_R2SCAN-3C E -148.696368020329
  B      -2.113980     -0.603697      0.000000
  B      -0.364561     -0.758682     -0.000000
  B       1.244965     -0.662668     -0.000000
  B      -1.244957      0.662675      0.000000
  B       0.364544      0.758672      0.000000
  B       2.113989      0.603700      0.000000
6
Coordinates from ORCA-job B6_rhombic_planar_d3.00_q0_m5_R2SCAN-3C E -148.696368021056
  B      -2.114017     -0.603695      0.000000
  B      -0.364542     -0.758660     -0.000000
  B       1.244980     -0.662699     -0.000000
  B      -1.244940      0.662652      0.000000
  B       0.364555      0.758694      0.000000
  B       2.113963      0.603707      0.000000
