6
Coordinates from ORCA-job B6_rhombic_planar_d3.00_q0_m5_R2SCAN-3C E -148.696368021056
  B          -2.11401695102053     -0.60369482401360      0.00000001344843
  B          -0.36454167248338     -0.75865972011044     -0.00000010045579
  B           1.24498046541736     -0.66269937463737     -0.00000015911149
  B          -1.24494034630101      0.66265225040320      0.00000014525724
  B           0.36455507271739      0.75869437152095      0.00000007870167
  B           2.11396343167018      0.60370729683725      0.00000002215994
