6
Coordinates from ORCA-job B6_random_3d_seed1000_d3.50_q0_m5_R2SCAN-3C E -148.682418965305
  B           0.94185203611344     -0.23662736931981      1.51986138048684
  B           0.75134747744710     -0.73657377785496      0.02523965007215
  B          -0.17550767435306     -1.46373188527416     -1.03906819271160
  B          -0.01037753905788      0.76284731229481      0.65822506434287
  B          -0.86957610330405      1.59957293486136     -0.38745732746937
  B          -0.63773821684555      0.07451279529277     -0.77680058472089
