6
Coordinates from ORCA-job B6_random_3d_seed1000_d3.50_q0_m5_R2SCAN-3C E -147.897924148271
  B       1.095205     -1.103037      2.183902
  B       2.692508     -0.238912     -0.832160
  B      -0.036408     -2.549602     -0.909699
  B      -1.229666      1.305357      1.867344
  B      -0.082656      2.559801     -1.187291
  B      -2.438983      0.026393     -1.122096
6
Coordinates from ORCA-job B6_random_3d_seed1000_d3.50_q0_m5_R2SCAN-3C E -147.906404851802
  B       1.080056     -1.065309      2.159430
  B       2.656553     -0.257171     -0.809655
  B      -0.042584     -2.511855     -0.915297
  B      -1.200877      1.277976      1.836648
  B      -0.089314      2.545070     -1.167661
  B      -2.403834      0.011288     -1.103465
6
Coordinates from ORCA-job B6_random_3d_seed1000_d3.50_q0_m5_R2SCAN-3C E -147.915375596301
  B       1.064640     -1.027424      2.134897
  B       2.619583     -0.275196     -0.787057
  B      -0.048868     -2.474859     -0.920915
  B      -1.170994      1.251161      1.806308
  B      -0.096409      2.530543     -1.147421
  B      -2.367951     -0.004226     -1.085813
6
Coordinates from ORCA-job B6_random_3d_seed1000_d3.50_q0_m5_R2SCAN-3C E -147.929782521577
  B       1.040553     -0.970564      2.097210
  B       2.563269     -0.300921     -0.753709
  B      -0.058574     -2.419588     -0.928446
  B      -1.125262      1.211452      1.761646
  B      -0.106821      2.507381     -1.116224
  B      -2.313164     -0.027760     -1.060477
6
Coordinates from ORCA-job B6_random_3d_seed1000_d3.50_q0_m5_R2SCAN-3C E -147.953059865862
  B       1.008393     -0.892124      2.039889
  B       2.477595     -0.336563     -0.705059
  B      -0.073800     -2.337382     -0.937136
  B      -1.060826      1.158894      1.695984
  B      -0.122294      2.470487     -1.068426
  B      -2.229069     -0.063312     -1.025252
6
Coordinates from ORCA-job B6_random_3d_seed1000_d3.50_q0_m5_R2SCAN-3C E -147.979696373671
  B       0.975332     -0.815479      1.979846
  B       2.386854     -0.369675     -0.655959
  B      -0.089599     -2.257389     -0.942957
  B      -0.993734      1.108075      1.629269
  B      -0.138898      2.433809     -1.018453
  B      -2.139955     -0.099340     -0.991746
6
Coordinates from ORCA-job B6_random_3d_seed1000_d3.50_q0_m5_R2SCAN-3C E -148.009546866250
  B       0.939787     -0.742687      1.919188
  B       2.295235     -0.397857     -0.608773
  B      -0.107065     -2.181937     -0.945077
  B      -0.924201      1.059015      1.564683
  B      -0.156522      2.398607     -0.968870
  B      -2.047234     -0.135142     -0.961151
6
Coordinates from ORCA-job B6_random_3d_seed1000_d3.50_q0_m5_R2SCAN-3C E -148.033942021894
  B       0.903941     -0.686555      1.877029
  B       2.232289     -0.413159     -0.578372
  B      -0.124162     -2.132689     -0.944857
  B      -0.864381      1.018752      1.523057
  B      -0.169935      2.377032     -0.934107
  B      -1.977753     -0.163382     -0.942751
6
Coordinates from ORCA-job B6_random_3d_seed1000_d3.50_q0_m5_R2SCAN-3C E -148.051941855884
  B       0.877048     -0.648841      1.849553
  B       2.190977     -0.421743     -0.559494
  B      -0.136654     -2.101620     -0.943548
  B      -0.821367      0.991080      1.496120
  B      -0.179729      2.363556     -0.910662
  B      -1.930274     -0.182432     -0.931970
6
Coordinates from ORCA-job B6_random_3d_seed1000_d3.50_q0_m5_R2SCAN-3C E -148.082082400798
  B       0.834020     -0.590823      1.808600
  B       2.131748     -0.433325     -0.533094
  B      -0.156029     -2.054286     -0.940255
  B      -0.754988      0.948329      1.456859
  B      -0.194215      2.340594     -0.874591
  B      -1.860536     -0.210489     -0.917519
6
Coordinates from ORCA-job B6_random_3d_seed1000_d3.50_q0_m5_R2SCAN-3C E -148.129234578744
  B       0.790443     -0.525974      1.755540
  B       2.053268     -0.450578     -0.498884
  B      -0.180174     -1.985866     -0.931807
  B      -0.678779      0.904870      1.399386
  B      -0.216045      2.302645     -0.822299
  B      -1.768713     -0.245098     -0.901935
6
Coordinates from ORCA-job B6_random_3d_seed1000_d3.50_q0_m5_R2SCAN-3C E -148.180557539773
  B       0.749663     -0.460649      1.699340
  B       1.972547     -0.464057     -0.459925
  B      -0.208642     -1.922772     -0.928162
  B      -0.603745      0.863398      1.347139
  B      -0.238058      2.262146     -0.772740
  B      -1.671764     -0.278066     -0.885651
6
Coordinates from ORCA-job B6_random_3d_seed1000_d3.50_q0_m5_R2SCAN-3C E -148.222264518582
  B       0.710524     -0.404359      1.655273
  B       1.914798     -0.473646     -0.432268
  B      -0.235328     -1.872288     -0.926021
  B      -0.541149      0.826677      1.312587
  B      -0.253888      2.232166     -0.735750
  B      -1.594957     -0.308549     -0.873821
6
Coordinates from ORCA-job B6_random_3d_seed1000_d3.50_q0_m5_R2SCAN-3C E -148.249582519491
  B       0.692274     -0.371812      1.625450
  B       1.873791     -0.484983     -0.410343
  B      -0.252955     -1.835274     -0.925114
  B      -0.504010      0.808847      1.284973
  B      -0.268953      2.212169     -0.709316
  B      -1.540148     -0.328946     -0.865650
6
Coordinates from ORCA-job B6_random_3d_seed1000_d3.50_q0_m5_R2SCAN-3C E -148.289401282405
  B       0.675647     -0.333179      1.581152
  B       1.809902     -0.504609     -0.375445
  B      -0.278576     -1.774770     -0.922242
  B      -0.457803      0.790976      1.238776
  B      -0.293658      2.181067     -0.669631
  B      -1.455512     -0.359485     -0.852611
6
Coordinates from ORCA-job B6_random_3d_seed1000_d3.50_q0_m5_R2SCAN-3C E -148.347578256868
  B       0.665341     -0.291067      1.509388
  B       1.707004     -0.536156     -0.315978
  B      -0.297134     -1.701416     -0.914595
  B      -0.398661      0.777691      1.158856
  B      -0.332110      2.139296     -0.606578
  B      -1.344440     -0.388348     -0.831093
6
Coordinates from ORCA-job B6_random_3d_seed1000_d3.50_q0_m5_R2SCAN-3C E -148.396611947161
  B       0.661963     -0.254145      1.437345
  B       1.601077     -0.568962     -0.254254
  B      -0.313654     -1.625924     -0.907030
  B      -0.344291      0.770673      1.076717
  B      -0.371532      2.094098     -0.542906
  B      -1.233564     -0.415740     -0.809872
6
Coordinates from ORCA-job B6_random_3d_seed1000_d3.50_q0_m5_R2SCAN-3C E -148.452272251324
  B       0.707841     -0.267694      1.386105
  B       1.518624     -0.635873     -0.202280
  B      -0.292697     -1.572411     -0.897500
  B      -0.352893      0.816392      0.981663
  B      -0.429927      2.051623     -0.486073
  B      -1.150948     -0.392037     -0.781915
6
Coordinates from ORCA-job B6_random_3d_seed1000_d3.50_q0_m5_R2SCAN-3C E -148.500331956840
  B       0.721825     -0.273612      1.330091
  B       1.457425     -0.667651     -0.170197
  B      -0.251178     -1.582449     -0.888282
  B      -0.357793      0.848579      0.917376
  B      -0.452500      2.031287     -0.435324
  B      -1.117779     -0.356153     -0.753664
6
Coordinates from ORCA-job B6_random_3d_seed1000_d3.50_q0_m5_R2SCAN-3C E -148.553781468961
  B       0.723878     -0.263915      1.258156
  B       1.362148     -0.713609     -0.141939
  B      -0.197226     -1.598627     -0.882028
  B      -0.357711      0.893194      0.832515
  B      -0.482384      1.990798     -0.359144
  B      -1.048705     -0.307841     -0.707560
6
Coordinates from ORCA-job B6_random_3d_seed1000_d3.50_q0_m5_R2SCAN-3C E -148.591547070907
  B       0.701265     -0.257892      1.213914
  B       1.261218     -0.764120     -0.157354
  B      -0.130291     -1.603059     -0.862525
  B      -0.354698      0.896403      0.775291
  B      -0.517508      1.971545     -0.327878
  B      -0.959987     -0.242877     -0.641449
6
Coordinates from ORCA-job B6_random_3d_seed1000_d3.50_q0_m5_R2SCAN-3C E -148.614049283595
  B       0.688063     -0.261407      1.205791
  B       1.187535     -0.805974     -0.184021
  B      -0.089632     -1.579243     -0.839338
  B      -0.350129      0.884157      0.739721
  B      -0.553881      1.958932     -0.325761
  B      -0.881957     -0.196466     -0.596391
6
Coordinates from ORCA-job B6_random_3d_seed1000_d3.50_q0_m5_R2SCAN-3C E -148.624217322195
  B       0.680970     -0.261363      1.203034
  B       1.152053     -0.823966     -0.188991
  B      -0.087178     -1.576431     -0.835822
  B      -0.340539      0.870575      0.716361
  B      -0.588029      1.951670     -0.326336
  B      -0.817277     -0.160484     -0.568246
6
Coordinates from ORCA-job B6_random_3d_seed1000_d3.50_q0_m5_R2SCAN-3C E -148.632721020273
  B       0.684437     -0.255320      1.218496
  B       1.124572     -0.848657     -0.179838
  B      -0.115224     -1.576716     -0.850239
  B      -0.320431      0.868824      0.678653
  B      -0.647362      1.923841     -0.317562
  B      -0.725992     -0.111971     -0.549511
6
Coordinates from ORCA-job B6_random_3d_seed1000_d3.50_q0_m5_R2SCAN-3C E -148.636574471947
  B       0.702104     -0.233659      1.223948
  B       1.047148     -0.880973     -0.154221
  B      -0.115062     -1.604725     -0.873511
  B      -0.267913      0.838005      0.700692
  B      -0.728157      1.925756     -0.336563
  B      -0.638119     -0.044403     -0.560345
6
Coordinates from ORCA-job B6_random_3d_seed1000_d3.50_q0_m5_R2SCAN-3C E -148.648000757038
  B       0.764669     -0.240942      1.284856
  B       1.020884     -0.904003     -0.115831
  B      -0.162222     -1.522519     -0.895967
  B      -0.244880      0.839698      0.691225
  B      -0.779869      1.846837     -0.360246
  B      -0.598581     -0.019071     -0.604038
6
Coordinates from ORCA-job B6_random_3d_seed1000_d3.50_q0_m5_R2SCAN-3C E -148.656561833808
  B       0.815099     -0.226652      1.343864
  B       1.012509     -0.890288     -0.078342
  B      -0.209855     -1.503521     -0.949965
  B      -0.226477      0.843630      0.707100
  B      -0.790502      1.778264     -0.377413
  B      -0.600775     -0.001432     -0.645244
6
Coordinates from ORCA-job B6_random_3d_seed1000_d3.50_q0_m5_R2SCAN-3C E -148.645307645233
  B       1.019137     -0.176448      1.554475
  B       0.779570     -0.830560      0.012354
  B      -0.296839     -1.346739     -1.080603
  B      -0.112463      0.802922      0.774721
  B      -0.851496      1.439037     -0.482327
  B      -0.537908      0.111788     -0.778621
6
Coordinates from ORCA-job B6_random_3d_seed1000_d3.50_q0_m5_R2SCAN-3C E -148.674006194532
  B       0.973065     -0.147181      1.512124
  B       0.753646     -0.869487     -0.014952
  B      -0.238615     -1.457400     -1.099551
  B      -0.103321      0.836262      0.763967
  B      -0.864112      1.564781     -0.405617
  B      -0.520663      0.073025     -0.755971
6
Coordinates from ORCA-job B6_random_3d_seed1000_d3.50_q0_m5_R2SCAN-3C E -148.676874572561
  B       0.949243     -0.180236      1.449879
  B       0.771148     -0.841863      0.049734
  B      -0.234011     -1.442227     -1.075205
  B      -0.086618      0.799067      0.720894
  B      -0.884144      1.593936     -0.398000
  B      -0.515618      0.071323     -0.747303
6
Coordinates from ORCA-job B6_random_3d_seed1000_d3.50_q0_m5_R2SCAN-3C E -148.679383713435
  B       0.965993     -0.162125      1.474806
  B       0.726357     -0.857149      0.045270
  B      -0.212558     -1.466856     -1.102312
  B      -0.072036      0.813674      0.712280
  B      -0.890927      1.598514     -0.380818
  B      -0.516829      0.073943     -0.749226
6
Coordinates from ORCA-job B6_random_3d_seed1000_d3.50_q0_m5_R2SCAN-3C E -148.680119412670
  B       0.976816     -0.160042      1.480524
  B       0.694397     -0.856382      0.056926
  B      -0.195738     -1.466594     -1.114049
  B      -0.056751      0.815026      0.702835
  B      -0.896662      1.600850     -0.374854
  B      -0.522063      0.067142     -0.751382
6
Coordinates from ORCA-job B6_random_3d_seed1000_d3.50_q0_m5_R2SCAN-3C E -148.680667447384
  B       0.999407     -0.172664      1.494738
  B       0.641366     -0.857032      0.085202
  B      -0.142688     -1.460726     -1.134189
  B      -0.018534      0.817730      0.681123
  B      -0.904772      1.613624     -0.379647
  B      -0.574778      0.059067     -0.747227
6
Coordinates from ORCA-job B6_random_3d_seed1000_d3.50_q0_m5_R2SCAN-3C E -148.680924669931
  B       0.981168     -0.163025      1.482760
  B       0.659444     -0.843917      0.076531
  B      -0.158845     -1.458245     -1.132033
  B      -0.029038      0.817808      0.688983
  B      -0.882685      1.594388     -0.372442
  B      -0.570044      0.052991     -0.743799
6
Coordinates from ORCA-job B6_random_3d_seed1000_d3.50_q0_m5_R2SCAN-3C E -148.681051234514
  B       0.984150     -0.172422      1.488278
  B       0.672566     -0.850684      0.074356
  B      -0.157308     -1.454897     -1.125410
  B      -0.030890      0.817588      0.689559
  B      -0.887423      1.600200     -0.383548
  B      -0.581094      0.060215     -0.743235
6
Coordinates from ORCA-job B6_random_3d_seed1000_d3.50_q0_m5_R2SCAN-3C E -148.681080539553
  B       0.988272     -0.172339      1.490941
  B       0.665402     -0.849183      0.082140
  B      -0.155455     -1.454482     -1.129084
  B      -0.026173      0.812836      0.682091
  B      -0.891931      1.600799     -0.381952
  B      -0.580115      0.062370     -0.744136
6
Coordinates from ORCA-job B6_random_3d_seed1000_d3.50_q0_m5_R2SCAN-3C E -148.681109411330
  B       0.985002     -0.172654      1.491640
  B       0.667784     -0.847384      0.080639
  B      -0.152842     -1.451646     -1.127803
  B      -0.023646      0.810687      0.679519
  B      -0.888557      1.600929     -0.382379
  B      -0.587740      0.060067     -0.741616
6
Coordinates from ORCA-job B6_random_3d_seed1000_d3.50_q0_m5_R2SCAN-3C E -148.681138542943
  B       0.982864     -0.174428      1.492860
  B       0.674182     -0.844971      0.079804
  B      -0.153196     -1.447773     -1.125230
  B      -0.023399      0.807176      0.678192
  B      -0.885237      1.598984     -0.385463
  B      -0.595214      0.061012     -0.740163
6
Coordinates from ORCA-job B6_random_3d_seed1000_d3.50_q0_m5_R2SCAN-3C E -148.681179033065
  B       0.980887     -0.177734      1.495785
  B       0.681965     -0.841313      0.080663
  B      -0.151626     -1.442827     -1.121985
  B      -0.020903      0.800051      0.673895
  B      -0.882171      1.598691     -0.389966
  B      -0.608152      0.063131     -0.738392
6
Coordinates from ORCA-job B6_random_3d_seed1000_d3.50_q0_m5_R2SCAN-3C E -148.681318524121
  B       0.976653     -0.187914      1.506129
  B       0.703583     -0.828713      0.084608
  B      -0.147680     -1.428406     -1.112497
  B      -0.012800      0.778411      0.660146
  B      -0.873968      1.598190     -0.401827
  B      -0.645787      0.068432     -0.736559
6
Coordinates from ORCA-job B6_random_3d_seed1000_d3.50_q0_m5_R2SCAN-3C E -148.680772459963
  B       0.970480     -0.208092      1.527756
  B       0.740354     -0.802218      0.095470
  B      -0.138540     -1.401770     -1.093299
  B       0.007171      0.737328      0.631921
  B      -0.859603      1.594724     -0.420121
  B      -0.719861      0.080028     -0.741727
6
Coordinates from ORCA-job B6_random_3d_seed1000_d3.50_q0_m5_R2SCAN-3C E -148.681531522783
  B       0.980812     -0.191578      1.517201
  B       0.707737     -0.816973      0.092054
  B      -0.144453     -1.421234     -1.110542
  B      -0.003271      0.761021      0.652861
  B      -0.869989      1.596973     -0.407005
  B      -0.670836      0.071792     -0.744570
6
Coordinates from ORCA-job B6_random_3d_seed1000_d3.50_q0_m5_R2SCAN-3C E -148.681628682544
  B       0.989072     -0.190059      1.521451
  B       0.696046     -0.813754      0.100252
  B      -0.143224     -1.420939     -1.114694
  B       0.001893      0.755457      0.650408
  B      -0.874201      1.596328     -0.405742
  B      -0.669588      0.072967     -0.751675
6
Coordinates from ORCA-job B6_random_3d_seed1000_d3.50_q0_m5_R2SCAN-3C E -148.681720424525
  B       0.992508     -0.190082      1.527193
  B       0.691046     -0.806360      0.106225
  B      -0.138141     -1.417804     -1.115567
  B       0.009521      0.747750      0.645658
  B      -0.870651      1.596248     -0.403761
  B      -0.684282      0.070249     -0.759748
6
Coordinates from ORCA-job B6_random_3d_seed1000_d3.50_q0_m5_R2SCAN-3C E -148.681736040816
  B       0.993609     -0.190935      1.530168
  B       0.691212     -0.802146      0.108227
  B      -0.137746     -1.415012     -1.114920
  B       0.011478      0.744735      0.643067
  B      -0.868160      1.594602     -0.403020
  B      -0.690393      0.068756     -0.763521
6
Coordinates from ORCA-job B6_random_3d_seed1000_d3.50_q0_m5_R2SCAN-3C E -148.681743267920
  B       0.992664     -0.191209      1.529596
  B       0.692156     -0.802067      0.107216
  B      -0.138187     -1.415716     -1.114574
  B       0.010553      0.745895      0.642962
  B      -0.867809      1.595087     -0.402331
  B      -0.689377      0.068009     -0.762869
6
Coordinates from ORCA-job B6_random_3d_seed1000_d3.50_q0_m5_R2SCAN-3C E -148.681781312355
  B       0.986654     -0.193966      1.527252
  B       0.699954     -0.800283      0.100167
  B      -0.141848     -1.420641     -1.110936
  B       0.005396      0.751362      0.642492
  B      -0.866695      1.598034     -0.399262
  B      -0.683462      0.065495     -0.759713
6
Coordinates from ORCA-job B6_random_3d_seed1000_d3.50_q0_m5_R2SCAN-3C E -148.681854725959
  B       0.973577     -0.200864      1.522393
  B       0.716882     -0.793746      0.082026
  B      -0.150933     -1.432397     -1.100605
  B      -0.005613      0.761696      0.644674
  B      -0.865010      1.603510     -0.394480
  B      -0.668903      0.061800     -0.754008
6
Coordinates from ORCA-job B6_random_3d_seed1000_d3.50_q0_m5_R2SCAN-3C E -148.681937820039
  B       0.962847     -0.208068      1.518549
  B       0.729296     -0.783883      0.063593
  B      -0.159298     -1.444261     -1.089652
  B      -0.014692      0.769548      0.649679
  B      -0.863861      1.607514     -0.391585
  B      -0.654292      0.059150     -0.750584
6
Coordinates from ORCA-job B6_random_3d_seed1000_d3.50_q0_m5_R2SCAN-3C E -148.682084302845
  B       0.961134     -0.211152      1.518723
  B       0.729428     -0.775416      0.054708
  B      -0.162465     -1.449378     -1.083629
  B      -0.015993      0.768926      0.656110
  B      -0.863987      1.606602     -0.393216
  B      -0.648116      0.060418     -0.752697
6
Coordinates from ORCA-job B6_random_3d_seed1000_d3.50_q0_m5_R2SCAN-3C E -148.682242234135
  B       0.960734     -0.215956      1.521089
  B       0.727962     -0.760307      0.047201
  B      -0.162223     -1.452154     -1.074676
  B      -0.013286      0.761481      0.662591
  B      -0.860688      1.602166     -0.397474
  B      -0.652500      0.064770     -0.758731
6
Coordinates from ORCA-job B6_random_3d_seed1000_d3.50_q0_m5_R2SCAN-3C E -148.682303917886
  B       0.953843     -0.226197      1.520253
  B       0.736032     -0.742635      0.033046
  B      -0.166139     -1.460170     -1.062169
  B      -0.017541      0.761581      0.665559
  B      -0.857105      1.603360     -0.398129
  B      -0.649091      0.064060     -0.758561
6
Coordinates from ORCA-job B6_random_3d_seed1000_d3.50_q0_m5_R2SCAN-3C E -148.682320612157
  B       0.952072     -0.233400      1.522712
  B       0.741226     -0.728577      0.029509
  B      -0.165758     -1.460495     -1.053506
  B      -0.017025      0.755836      0.664235
  B      -0.851585      1.601141     -0.399547
  B      -0.658931      0.065496     -0.763403
6
Coordinates from ORCA-job B6_random_3d_seed1000_d3.50_q0_m5_R2SCAN-3C E -148.682330002343
  B       0.950517     -0.232169      1.521089
  B       0.742417     -0.730819      0.027675
  B      -0.167629     -1.460836     -1.054181
  B      -0.018732      0.757829      0.665393
  B      -0.852414      1.601313     -0.399370
  B      -0.654160      0.064683     -0.760605
6
Coordinates from ORCA-job B6_random_3d_seed1000_d3.50_q0_m5_R2SCAN-3C E -148.682331415348
  B       0.950043     -0.231957      1.520960
  B       0.743179     -0.731126      0.027510
  B      -0.167641     -1.460767     -1.054015
  B      -0.018787      0.757811      0.665304
  B      -0.852169      1.601529     -0.399097
  B      -0.654626      0.064509     -0.760661
6
Coordinates from ORCA-job B6_random_3d_seed1000_d3.50_q0_m5_R2SCAN-3C E -148.682335319159
  B       0.949054     -0.231788      1.520625
  B       0.744974     -0.730917      0.026989
  B      -0.168370     -1.460458     -1.052897
  B      -0.019128      0.757172      0.665079
  B      -0.851810      1.601611     -0.398495
  B      -0.654720      0.064380     -0.761300
6
Coordinates from ORCA-job B6_random_3d_seed1000_d3.50_q0_m5_R2SCAN-3C E -148.682341988487
  B       0.947950     -0.231746      1.520197
  B       0.747233     -0.730729      0.025940
  B      -0.169400     -1.460679     -1.050832
  B      -0.019815      0.756483      0.665024
  B      -0.851750      1.601940     -0.397407
  B      -0.654217      0.064732     -0.762923
6
Coordinates from ORCA-job B6_random_3d_seed1000_d3.50_q0_m5_R2SCAN-3C E -148.682356367654
  B       0.946876     -0.231375      1.519380
  B       0.750156     -0.731301      0.024552
  B      -0.171596     -1.461242     -1.046833
  B      -0.021220      0.755168      0.664798
  B      -0.852896      1.602330     -0.394980
  B      -0.651320      0.066420     -0.766917
6
Coordinates from ORCA-job B6_random_3d_seed1000_d3.50_q0_m5_R2SCAN-3C E -148.682375763378
  B       0.947262     -0.230567      1.518390
  B       0.751087     -0.733388      0.023892
  B      -0.174043     -1.462463     -1.042747
  B      -0.022932      0.754202      0.664665
  B      -0.855889      1.602672     -0.391857
  B      -0.645484      0.069543     -0.772344
6
Coordinates from ORCA-job B6_random_3d_seed1000_d3.50_q0_m5_R2SCAN-3C E -148.682391065589
  B       0.949505     -0.229530      1.517930
  B       0.749190     -0.736609      0.024516
  B      -0.175886     -1.463807     -1.040169
  B      -0.024196      0.753829      0.664497
  B      -0.860142      1.602666     -0.389209
  B      -0.638470      0.073451     -0.777564
6
Coordinates from ORCA-job B6_random_3d_seed1000_d3.50_q0_m5_R2SCAN-3C E -148.682394091563
  B       0.950830     -0.229354      1.517766
  B       0.747225     -0.737616      0.024988
  B      -0.175844     -1.464945     -1.040178
  B      -0.024603      0.754848      0.664844
  B      -0.861339      1.602502     -0.388303
  B      -0.636268      0.074565     -0.779116
6
Coordinates from ORCA-job B6_random_3d_seed1000_d3.50_q0_m5_R2SCAN-3C E -148.682394940267
  B       0.951442     -0.228930      1.518003
  B       0.745889     -0.738329      0.025708
  B      -0.175803     -1.464752     -1.041093
  B      -0.024047      0.755018      0.664575
  B      -0.862166      1.602177     -0.388369
  B      -0.635316      0.074816     -0.778824
6
Coordinates from ORCA-job B6_random_3d_seed1000_d3.50_q0_m5_R2SCAN-3C E -148.682396154543
  B       0.951650     -0.229020      1.518199
  B       0.745163     -0.738695      0.026266
  B      -0.175127     -1.464688     -1.041868
  B      -0.023369      0.755688      0.664426
  B      -0.862245      1.602021     -0.388493
  B      -0.636071      0.074694     -0.778530
6
Coordinates from ORCA-job B6_random_3d_seed1000_d3.50_q0_m5_R2SCAN-3C E -148.682399769409
  B       0.950782     -0.230186      1.518497
  B       0.744811     -0.738197      0.026123
  B      -0.174277     -1.464904     -1.042581
  B      -0.021662      0.757423      0.664060
  B      -0.862601      1.601755     -0.388948
  B      -0.637054      0.074109     -0.777151
6
Coordinates from ORCA-job B6_random_3d_seed1000_d3.50_q0_m5_R2SCAN-3C E -148.682406932835
  B       0.948421     -0.232705      1.519273
  B       0.745335     -0.737452      0.026658
  B      -0.172936     -1.464241     -1.043485
  B      -0.017150      0.760210      0.662265
  B      -0.863954      1.600902     -0.389713
  B      -0.639716      0.073286     -0.774998
6
Coordinates from ORCA-job B6_random_3d_seed1000_d3.50_q0_m5_R2SCAN-3C E -148.682413645346
  B       0.945424     -0.235028      1.519918
  B       0.747479     -0.736689      0.026335
  B      -0.173075     -1.463797     -1.042472
  B      -0.013217      0.761972      0.660191
  B      -0.866105      1.600289     -0.389466
  B      -0.640505      0.073253     -0.774507
6
Coordinates from ORCA-job B6_random_3d_seed1000_d3.50_q0_m5_R2SCAN-3C E -148.682418441056
  B       0.942144     -0.236823      1.520001
  B       0.750649     -0.736449      0.025576
  B      -0.174579     -1.463599     -1.040156
  B      -0.010160      0.763289      0.658335
  B      -0.868930      1.599667     -0.388209
  B      -0.639124      0.073915     -0.775548
6
Coordinates from ORCA-job B6_random_3d_seed1000_d3.50_q0_m5_R2SCAN-3C E -148.682418947862
  B       0.941767     -0.236718      1.519867
  B       0.751346     -0.736512      0.025079
  B      -0.175462     -1.463823     -1.039079
  B      -0.010370      0.763013      0.658261
  B      -0.869555      1.599613     -0.387490
  B      -0.637726      0.074427     -0.776638
6
Coordinates from ORCA-job B6_random_3d_seed1000_d3.50_q0_m5_R2SCAN-3C E -148.682418965305
  B       0.941852     -0.236627      1.519861
  B       0.751347     -0.736574      0.025240
  B      -0.175508     -1.463732     -1.039068
  B      -0.010378      0.762847      0.658225
  B      -0.869576      1.599573     -0.387457
  B      -0.637738      0.074513     -0.776801
