6
Coordinates from ORCA-job B6_random_3d_seed1004_d3.00_q0_m5_R2SCAN-3C E -148.014102883139
  B      -0.920069     -0.806075      1.856153
  B       1.375372      1.252369      1.415331
  B       1.540563     -1.619722      0.600001
  B      -2.108991      0.137477     -0.687796
  B       0.027843      2.030090     -1.217974
  B       0.085282     -0.994139     -1.965715
6
Coordinates from ORCA-job B6_random_3d_seed1004_d3.00_q0_m5_R2SCAN-3C E -148.030440978247
  B      -0.904361     -0.804259      1.821918
  B       1.359890      1.233296      1.389031
  B       1.511581     -1.587402      0.599736
  B      -2.060010      0.135749     -0.684672
  B       0.022591      2.004801     -1.196123
  B       0.070309     -0.982185     -1.929890
6
Coordinates from ORCA-job B6_random_3d_seed1004_d3.00_q0_m5_R2SCAN-3C E -148.047763440982
  B      -0.888407     -0.802281      1.788751
  B       1.344367      1.213821      1.363621
  B       1.482099     -1.554887      0.599146
  B      -2.010408      0.133999     -0.681689
  B       0.016910      1.979184     -1.175178
  B       0.055440     -0.969835     -1.894651
6
Coordinates from ORCA-job B6_random_3d_seed1004_d3.00_q0_m5_R2SCAN-3C E -148.075763985767
  B      -0.864019     -0.798386      1.740087
  B       1.320975      1.183574      1.327079
  B       1.437710     -1.505977      0.597842
  B      -1.935898      0.131348     -0.677267
  B       0.007718      1.939630     -1.145204
  B       0.033514     -0.950189     -1.842536
6
Coordinates from ORCA-job B6_random_3d_seed1004_d3.00_q0_m5_R2SCAN-3C E -148.122640025242
  B      -0.826739     -0.790313      1.669344
  B       1.285965      1.135402      1.275895
  B       1.371441     -1.432387      0.595439
  B      -1.824644      0.128012     -0.670306
  B      -0.008158      1.877700     -1.103734
  B       0.002135     -0.918414     -1.766639
6
Coordinates from ORCA-job B6_random_3d_seed1004_d3.00_q0_m5_R2SCAN-3C E -148.177160043027
  B      -0.787861     -0.781518      1.598582
  B       1.251089      1.083361      1.226761
  B       1.302814     -1.354996      0.593710
  B      -1.710047      0.126424     -0.662433
  B      -0.027145      1.811695     -1.064379
  B      -0.028849     -0.884966     -1.692241
6
Coordinates from ORCA-job B6_random_3d_seed1004_d3.00_q0_m5_R2SCAN-3C E -148.238168654339
  B      -0.748134     -0.773677      1.528972
  B       1.218430      1.029758      1.180083
  B       1.234332     -1.276540      0.594167
  B      -1.595790      0.126370     -0.656085
  B      -0.048534      1.744821     -1.027476
  B      -0.060303     -0.850732     -1.619661
6
Coordinates from ORCA-job B6_random_3d_seed1004_d3.00_q0_m5_R2SCAN-3C E -148.283027131043
  B      -0.720952     -0.769378      1.482419
  B       1.198602      0.992156      1.149834
  B       1.188653     -1.222665      0.596617
  B      -1.519101      0.127499     -0.653677
  B      -0.065004      1.699666     -1.003961
  B      -0.082198     -0.827277     -1.571232
6
Coordinates from ORCA-job B6_random_3d_seed1004_d3.00_q0_m5_R2SCAN-3C E -148.314149115021
  B      -0.703030     -0.766198      1.450881
  B       1.186504      0.965891      1.129883
  B       1.159142     -1.186351      0.599103
  B      -1.469354      0.129749     -0.652556
  B      -0.077461      1.668755     -0.988316
  B      -0.095800     -0.811846     -1.538996
6
Coordinates from ORCA-job B6_random_3d_seed1004_d3.00_q0_m5_R2SCAN-3C E -148.361988287555
  B      -0.675749     -0.759841      1.402032
  B       1.169088      0.924209      1.099843
  B       1.115998     -1.131167      0.603581
  B      -1.398782      0.135063     -0.650584
  B      -0.097268      1.620557     -0.964381
  B      -0.113288     -0.788821     -1.490491
6
Coordinates from ORCA-job B6_random_3d_seed1004_d3.00_q0_m5_R2SCAN-3C E -148.431741860976
  B      -0.633352     -0.745849      1.325315
  B       1.143547      0.859587      1.055162
  B       1.052735     -1.050429      0.610432
  B      -1.305297      0.146732     -0.644109
  B      -0.127640      1.546675     -0.927771
  B      -0.129993     -0.756716     -1.419029
6
Coordinates from ORCA-job B6_random_3d_seed1004_d3.00_q0_m5_R2SCAN-3C E -148.495010900761
  B      -0.597499     -0.722162      1.242281
  B       1.120205      0.785916      1.007129
  B       0.994495     -0.968309      0.614086
  B      -1.227776      0.176118     -0.625055
  B      -0.168077      1.468729     -0.885978
  B      -0.121348     -0.740292     -1.352463
6
Coordinates from ORCA-job B6_random_3d_seed1004_d3.00_q0_m5_R2SCAN-3C E -148.529734494738
  B      -0.586526     -0.698611      1.180117
  B       1.100921      0.723776      0.967104
  B       0.963039     -0.904655      0.605514
  B      -1.189999      0.191452     -0.598103
  B      -0.188315      1.422565     -0.856625
  B      -0.099120     -0.734526     -1.298007
6
Coordinates from ORCA-job B6_random_3d_seed1004_d3.00_q0_m5_R2SCAN-3C E -148.561778609203
  B      -0.584492     -0.663476      1.078892
  B       1.063425      0.662054      0.900565
  B       0.922593     -0.839729      0.572372
  B      -1.154538      0.188513     -0.540703
  B      -0.188618      1.383542     -0.813302
  B      -0.058370     -0.730904     -1.197823
6
Coordinates from ORCA-job B6_random_3d_seed1004_d3.00_q0_m5_R2SCAN-3C E -148.583975281912
  B      -0.598165     -0.629727      0.983195
  B       1.024909      0.663606      0.842179
  B       0.895335     -0.842461      0.522224
  B      -1.121309      0.198670     -0.477690
  B      -0.190516      1.347000     -0.769665
  B      -0.010254     -0.737087     -1.100242
6
Coordinates from ORCA-job B6_random_3d_seed1004_d3.00_q0_m5_R2SCAN-3C E -148.599895493337
  B      -0.627921     -0.612101      0.917630
  B       0.991053      0.644407      0.783584
  B       0.891533     -0.837546      0.477699
  B      -1.126151      0.183937     -0.419278
  B      -0.169473      1.355183     -0.754935
  B       0.040960     -0.733879     -1.004700
6
Coordinates from ORCA-job B6_random_3d_seed1004_d3.00_q0_m5_R2SCAN-3C E -148.609703614182
  B      -0.636685     -0.617976      0.907887
  B       0.953362      0.640251      0.740097
  B       0.905585     -0.874091      0.463425
  B      -1.138544      0.218124     -0.397254
  B      -0.172814      1.363843     -0.760341
  B       0.089096     -0.730151     -0.953815
