6
Coordinates from ORCA-job B6_random_3d_seed1004_d3.00_q0_m5_R2SCAN-3C
  B          -0.63510781805708     -0.63664631812430      0.89756982838606
  B           0.87815386793008      0.62989486313866      0.66160827573378
  B           0.92914568749668     -0.93092123818925      0.47653090471356
  B          -1.15177268180819      0.25462629180977     -0.35573239850365
  B          -0.16128537539204      1.39465891214831     -0.77721471559015
  B           0.14086631983056     -0.71161251078319     -0.90276189473960
