6
Coordinates from ORCA-job B6_linear_chain_d2.00_q0_m3_R2SCAN-3C E -148.311161408907
  B      -5.000000      0.000000      0.000000
  B      -3.000000      0.000000      0.000000
  B      -1.000000      0.000000      0.000000
  B       1.000000      0.000000      0.000000
  B       3.000000      0.000000      0.000000
  B       5.000000      0.000000      0.000000
6
Coordinates from ORCA-job B6_linear_chain_d2.00_q0_m3_R2SCAN-3C E -148.359219598845
  B      -4.832047      0.000000     -0.000000
  B      -2.871115      0.000000     -0.000000
  B      -0.956559     -0.000000      0.000000
  B       0.956559     -0.000000      0.000000
  B       2.871115     -0.000000      0.000000
  B       4.832047      0.000000     -0.000000
6
Coordinates from ORCA-job B6_linear_chain_d2.00_q0_m3_R2SCAN-3C E -148.405522190079
  B      -4.666785      0.000000     -0.000000
  B      -2.740256     -0.000000      0.000000
  B      -0.912114     -0.000000      0.000000
  B       0.912105     -0.000000      0.000000
  B       2.740256     -0.000000      0.000000
  B       4.666794      0.000000     -0.000000
6
Coordinates from ORCA-job B6_linear_chain_d2.00_q0_m3_R2SCAN-3C E -148.463825130553
  B      -4.419001      0.000000     -0.000000
  B      -2.543904     -0.000000      0.000000
  B      -0.845414      0.000000     -0.000000
  B       0.845413     -0.000000      0.000000
  B       2.543909     -0.000000      0.000000
  B       4.418998      0.000000     -0.000000
6
Coordinates from ORCA-job B6_linear_chain_d2.00_q0_m3_R2SCAN-3C E -148.495042774904
  B      -4.078807      0.000000     -0.000000
  B      -2.305771      0.000000     -0.000000
  B      -0.766034     -0.000000      0.000000
  B       0.766040     -0.000000     -0.000000
  B       2.305782     -0.000000     -0.000000
  B       4.078791      0.000000     -0.000000
6
Coordinates from ORCA-job B6_linear_chain_d2.00_q0_m3_R2SCAN-3C E -148.496168538878
  B      -4.072750      0.000000     -0.000000
  B      -2.347523     -0.000000      0.000000
  B      -0.783170     -0.000000      0.000000
  B       0.783142     -0.000000     -0.000000
  B       2.347522     -0.000000     -0.000000
  B       4.072778      0.000000      0.000000
6
Coordinates from ORCA-job B6_linear_chain_d2.00_q0_m3_R2SCAN-3C E -148.496330859300
  B      -4.076251      0.000000     -0.000000
  B      -2.337602      0.000000     -0.000000
  B      -0.777021     -0.000000      0.000000
  B       0.777040     -0.000000      0.000000
  B       2.337593     -0.000000     -0.000000
  B       4.076241      0.000000      0.000000
6
Coordinates from ORCA-job B6_linear_chain_d2.00_q0_m3_R2SCAN-3C E -148.496319249658
  B      -4.073855      0.000000     -0.000000
  B      -2.335080     -0.000000      0.000000
  B      -0.779700     -0.000000      0.000000
  B       0.779669     -0.000000     -0.000000
  B       2.335095     -0.000000     -0.000000
  B       4.073871      0.000000      0.000000
6
Coordinates from ORCA-job B6_linear_chain_d2.00_q0_m3_R2SCAN-3C E -148.557759557067
  B      -4.073672      0.000000      0.000000
  B      -2.336352     -0.000000     -0.000000
  B      -0.777838     -0.000000     -0.000000
  B       0.777829     -0.000000     -0.000000
  B       2.336352     -0.000000     -0.000000
  B       4.073680      0.000000      0.000000
6
Coordinates from ORCA-job B6_linear_chain_d2.00_q0_m3_R2SCAN-3C E -148.587403404291
  B      -3.870885      0.000001     -0.000000
  B      -2.292319     -0.000000     -0.000000
  B      -0.762366     -0.000000      0.000000
  B       0.762376     -0.000000      0.000000
  B       2.292310     -0.000000     -0.000000
  B       3.870885      0.000001     -0.000000
6
Coordinates from ORCA-job B6_linear_chain_d2.00_q0_m3_R2SCAN-3C E -148.588466457974
  B      -3.836385      0.000001     -0.000000
  B      -2.316809     -0.000000     -0.000000
  B      -0.777296     -0.000000      0.000000
  B       0.777417     -0.000000      0.000000
  B       2.316775     -0.000000      0.000000
  B       3.836297      0.000001     -0.000000
6
Coordinates from ORCA-job B6_linear_chain_d2.00_q0_m3_R2SCAN-3C E -148.589059568867
  B      -3.856177      0.000001     -0.000000
  B      -2.311797     -0.000000     -0.000000
  B      -0.774415     -0.000000      0.000000
  B       0.774314     -0.000000      0.000000
  B       2.311821     -0.000000      0.000000
  B       3.856253      0.000001     -0.000000
6
Coordinates from ORCA-job B6_linear_chain_d2.00_q0_m3_R2SCAN-3C E -148.589066622414
  B      -3.852878      0.000001     -0.000000
  B      -2.310631     -0.000000     -0.000000
  B      -0.773482     -0.000000      0.000000
  B       0.773668     -0.000000      0.000000
  B       2.310595     -0.000000      0.000000
  B       3.852728      0.000001     -0.000000
6
Coordinates from ORCA-job B6_linear_chain_d2.00_q0_m3_R2SCAN-3C E -148.589066621120
  B      -3.852733      0.000001     -0.000000
  B      -2.310829     -0.000000     -0.000000
  B      -0.773920     -0.000000      0.000000
  B       0.773508     -0.000000      0.000000
  B       2.310888     -0.000000      0.000000
  B       3.853086      0.000001     -0.000000
6
Coordinates from ORCA-job B6_linear_chain_d2.00_q0_m3_R2SCAN-3C E -148.589066688559
  B      -3.853017      0.000001     -0.000000
  B      -2.310922     -0.000000     -0.000000
  B      -0.773718     -0.000000      0.000000
  B       0.773795     -0.000000      0.000000
  B       2.310933     -0.000000      0.000000
  B       3.852930      0.000001     -0.000000
6
Coordinates from ORCA-job B6_linear_chain_d2.00_q0_m3_R2SCAN-3C E -148.589066698173
  B      -3.852900      0.000001     -0.000000
  B      -2.310838     -0.000000     -0.000000
  B      -0.773683     -0.000000      0.000000
  B       0.773704     -0.000000      0.000000
  B       2.310797     -0.000000      0.000000
  B       3.852920      0.000001     -0.000000
