6
Coordinates from ORCA-job B6_linear_chain_d2.00_q0_m3_R2SCAN-3C E -148.589066698173
  B          -3.85289984440013      0.00000060312055     -0.00000010441044
  B          -2.31083778707914     -0.00000017252556     -0.00000003475623
  B          -0.77368252121503     -0.00000043571950      0.00000015866280
  B           0.77370350739967     -0.00000035669363      0.00000008237506
  B           2.31079710216515     -0.00000030458856      0.00000002240757
  B           3.85291954312949      0.00000066640670     -0.00000012427877
