6
Coordinates from ORCA-job FINAL_rank05_B6_planar_ring_d2.50_q0_m3_R2SCAN-3C_PBE0_def2-TZVP_OptFreq E -148.631801739118
  B           2.02808861752587     -0.10530443033522     -0.00934076525528
  B           0.65632584379772      0.70107456644981     -0.02610197106023
  B          -0.87963726942363      1.09409226640273     -0.02891369305161
  B          -2.02809559890298      0.10371123606320      0.00933263455207
  B          -0.65631774503932     -0.70265344971848      0.02610216523737
  B           0.87963715204234     -1.09569518886203      0.02892162957768
