6
Coordinates from ORCA-job FINAL_rank05_B6_planar_ring_d2.50_q0_m3_R2SCAN-3C_PBE0_def2-TZVP_OptFreq E -148.631667042391
  B       2.037816     -0.106242     -0.009290
  B       0.647845      0.685272     -0.025731
  B      -0.885015      1.094845     -0.028754
  B      -2.037634      0.104669      0.009234
  B      -0.647981     -0.687035      0.025717
  B       0.884970     -1.096284      0.028824
6
Coordinates from ORCA-job FINAL_rank05_B6_planar_ring_d2.50_q0_m3_R2SCAN-3C_PBE0_def2-TZVP_OptFreq E -148.631704027203
  B       2.034956     -0.106034     -0.009267
  B       0.648131      0.686424     -0.025754
  B      -0.884553      1.095057     -0.028795
  B      -2.034811      0.104450      0.009254
  B      -0.648252     -0.688169      0.025740
  B       0.884530     -1.096503      0.028822
6
Coordinates from ORCA-job FINAL_rank05_B6_planar_ring_d2.50_q0_m3_R2SCAN-3C_PBE0_def2-TZVP_OptFreq E -148.631762969591
  B       2.028169     -0.105335     -0.009246
  B       0.649644      0.690684     -0.025846
  B      -0.883115      1.096045     -0.028903
  B      -2.028106      0.103733      0.009299
  B      -0.649724     -0.692368      0.025831
  B       0.883132     -1.097533      0.028865
6
Coordinates from ORCA-job FINAL_rank05_B6_planar_ring_d2.50_q0_m3_R2SCAN-3C_PBE0_def2-TZVP_OptFreq E -148.631770981002
  B       2.026947     -0.105088     -0.009267
  B       0.650715      0.692956     -0.025897
  B      -0.882500      1.096529     -0.028936
  B      -2.026912      0.103488      0.009310
  B      -0.650770     -0.694617      0.025884
  B       0.882523     -1.098042      0.028906
6
Coordinates from ORCA-job FINAL_rank05_B6_planar_ring_d2.50_q0_m3_R2SCAN-3C_PBE0_def2-TZVP_OptFreq E -148.631787769028
  B       2.026073     -0.104704     -0.009331
  B       0.653674      0.698684     -0.026026
  B      -0.881011      1.097299     -0.029002
  B      -2.026080      0.103115      0.009338
  B      -0.653675     -0.700286      0.026023
  B       0.881021     -1.098883      0.028998
6
Coordinates from ORCA-job FINAL_rank05_B6_planar_ring_d2.50_q0_m3_R2SCAN-3C_PBE0_def2-TZVP_OptFreq E -148.631796444816
  B       2.026852     -0.104813     -0.009346
  B       0.654587      0.700071     -0.026062
  B      -0.880593      1.096909     -0.028997
  B      -2.026864      0.103226      0.009342
  B      -0.654577     -0.701659      0.026059
  B       0.880595     -1.098508      0.029003
6
Coordinates from ORCA-job FINAL_rank05_B6_planar_ring_d2.50_q0_m3_R2SCAN-3C_PBE0_def2-TZVP_OptFreq E -148.631800062824
  B       2.027812     -0.105068     -0.009351
  B       0.655315      0.700797     -0.026083
  B      -0.880226      1.095931     -0.028969
  B      -2.027824      0.103481      0.009341
  B      -0.655301     -0.702379      0.026080
  B       0.880224     -1.097538      0.028982
6
Coordinates from ORCA-job FINAL_rank05_B6_planar_ring_d2.50_q0_m3_R2SCAN-3C_PBE0_def2-TZVP_OptFreq E -148.631800903625
  B       2.028280     -0.105284     -0.009345
  B       0.655855      0.701093     -0.026094
  B      -0.879906      1.094879     -0.028942
  B      -2.028291      0.103695      0.009340
  B      -0.655842     -0.702670      0.026092
  B       0.879904     -1.096488      0.028949
6
Coordinates from ORCA-job FINAL_rank05_B6_planar_ring_d2.50_q0_m3_R2SCAN-3C_PBE0_def2-TZVP_OptFreq E -148.631800672990
  B       2.028274     -0.105373     -0.009335
  B       0.656217      0.701172     -0.026102
  B      -0.879685      1.094172     -0.028925
  B      -2.028285      0.103782      0.009342
  B      -0.656205     -0.702748      0.026098
  B       0.879686     -1.095780      0.028921
6
Coordinates from ORCA-job FINAL_rank05_B6_planar_ring_d2.50_q0_m3_R2SCAN-3C_PBE0_def2-TZVP_OptFreq E -148.631802880990
  B       2.028139     -0.105342     -0.009336
  B       0.656288      0.701102     -0.026102
  B      -0.879646      1.094075     -0.028919
  B      -2.028152      0.103750      0.009339
  B      -0.656278     -0.702681      0.026099
  B       0.879649     -1.095679      0.028918
6
Coordinates from ORCA-job FINAL_rank05_B6_planar_ring_d2.50_q0_m3_R2SCAN-3C_PBE0_def2-TZVP_OptFreq E -148.631801739118
  B       2.028089     -0.105304     -0.009341
  B       0.656326      0.701075     -0.026102
  B      -0.879637      1.094092     -0.028914
  B      -2.028096      0.103711      0.009333
  B      -0.656318     -0.702653      0.026102
  B       0.879637     -1.095695      0.028922
