6
Coordinates from ORCA-job B6_random_3d_seed1000_d1.60_q0_m3_R2SCAN-3C E -148.696182225807
  B           0.75496541829085     -0.08283329653577      0.90700335177817
  B           0.89049141477149     -0.18054385595882     -0.75759731738023
  B          -0.19131965092232     -1.16604101031543      0.05265669210654
  B          -0.89054794369467      0.18018348648938      0.75784789461556
  B           0.19129643654012      1.16610091210407     -0.05270137202115
  B          -0.75488567498547      0.08313375421655     -0.90720924909890
