6
Coordinates from ORCA-job B6_random_3d_seed1000_d1.60_q0_m3_R2SCAN-3C E -148.596251039890
  B       0.489294     -0.507228      1.005028
  B       1.276664     -0.143065     -0.361258
  B      -0.026985     -1.166601     -0.439514
  B      -0.544866      0.571787      0.853310
  B      -0.077705      1.213510     -0.540405
  B      -1.116401      0.031596     -0.517161
6
Coordinates from ORCA-job B6_random_3d_seed1000_d1.60_q0_m3_R2SCAN-3C E -148.616646383163
  B       0.541043     -0.497849      1.036573
  B       1.271676     -0.156065     -0.354034
  B      -0.046677     -1.164138     -0.454611
  B      -0.551353      0.573568      0.883882
  B      -0.083671      1.211946     -0.541611
  B      -1.131018      0.032538     -0.570200
6
Coordinates from ORCA-job B6_random_3d_seed1000_d1.60_q0_m3_R2SCAN-3C E -148.629783620851
  B       0.590096     -0.486337      1.070102
  B       1.260886     -0.165410     -0.341382
  B      -0.070393     -1.150188     -0.477082
  B      -0.549041      0.575081      0.915495
  B      -0.086917      1.201465     -0.544864
  B      -1.144630      0.025390     -0.622269
6
Coordinates from ORCA-job B6_random_3d_seed1000_d1.60_q0_m3_R2SCAN-3C E -148.636464088560
  B       0.635123     -0.466134      1.102719
  B       1.244974     -0.176228     -0.334649
  B      -0.094223     -1.133149     -0.497040
  B      -0.546046      0.571069      0.943037
  B      -0.086045      1.187985     -0.539943
  B      -1.153782      0.016457     -0.674124
6
Coordinates from ORCA-job B6_random_3d_seed1000_d1.60_q0_m3_R2SCAN-3C E -148.639540288748
  B       0.674509     -0.431388      1.127169
  B       1.227165     -0.194052     -0.345046
  B      -0.113625     -1.126242     -0.501227
  B      -0.553541      0.555776      0.961146
  B      -0.079890      1.180827     -0.517615
  B      -1.154618      0.015078     -0.724427
6
Coordinates from ORCA-job B6_random_3d_seed1000_d1.60_q0_m3_R2SCAN-3C E -148.642289763533
  B       0.714474     -0.376454      1.142090
  B       1.206315     -0.221926     -0.371697
  B      -0.133426     -1.130575     -0.487933
  B      -0.573796      0.525543      0.971646
  B      -0.069033      1.180280     -0.474994
  B      -1.144535      0.023132     -0.779112
6
Coordinates from ORCA-job B6_random_3d_seed1000_d1.60_q0_m3_R2SCAN-3C E -148.646459301052
  B       0.759893     -0.289094      1.143651
  B       1.176221     -0.262230     -0.414227
  B      -0.161436     -1.143280     -0.454446
  B      -0.606861      0.471984      0.974608
  B      -0.051628      1.181051     -0.404538
  B      -1.116189      0.041570     -0.845048
6
Coordinates from ORCA-job B6_random_3d_seed1000_d1.60_q0_m3_R2SCAN-3C E -148.650941517166
  B       0.792517     -0.194735      1.129053
  B       1.143927     -0.300589     -0.456066
  B      -0.188995     -1.157184     -0.413533
  B      -0.636998      0.411257      0.967674
  B      -0.032829      1.176581     -0.328060
  B      -1.077623      0.064670     -0.899068
6
Coordinates from ORCA-job B6_random_3d_seed1000_d1.60_q0_m3_R2SCAN-3C E -148.655348720920
  B       0.788272     -0.094085      1.080529
  B       1.122118     -0.333131     -0.503417
  B      -0.207093     -1.184798     -0.356734
  B      -0.669384      0.342933      0.934824
  B      -0.007008      1.164496     -0.244629
  B      -1.026905      0.104585     -0.910573
6
Coordinates from ORCA-job B6_random_3d_seed1000_d1.60_q0_m3_R2SCAN-3C E -148.658815266589
  B       0.818304      0.006672      1.054240
  B       1.076847     -0.356723     -0.533641
  B      -0.247312     -1.178121     -0.307753
  B      -0.691263      0.259690      0.922859
  B       0.017390      1.143362     -0.174271
  B      -0.973967      0.125120     -0.961434
6
Coordinates from ORCA-job B6_random_3d_seed1000_d1.60_q0_m3_R2SCAN-3C E -148.665533599882
  B       0.819524      0.064359      1.020647
  B       1.061405     -0.353348     -0.553800
  B      -0.277294     -1.169898     -0.252949
  B      -0.720656      0.178447      0.889479
  B       0.052087      1.127650     -0.154759
  B      -0.935066      0.152789     -0.948617
6
Coordinates from ORCA-job B6_random_3d_seed1000_d1.60_q0_m3_R2SCAN-3C E -148.673945726588
  B       0.806436      0.057245      0.998193
  B       1.064088     -0.313414     -0.572921
  B      -0.294279     -1.154303     -0.185476
  B      -0.769146      0.102772      0.835564
  B       0.095605      1.129846     -0.201724
  B      -0.902704      0.177853     -0.873635
6
Coordinates from ORCA-job B6_random_3d_seed1000_d1.60_q0_m3_R2SCAN-3C E -148.671019859069
  B       0.779892      0.116270      0.946278
  B       1.012629     -0.297443     -0.620381
  B      -0.316233     -1.149106     -0.096398
  B      -0.797609      0.012877      0.773809
  B       0.149493      1.117543     -0.158236
  B      -0.828172      0.199859     -0.845072
6
Coordinates from ORCA-job B6_random_3d_seed1000_d1.60_q0_m3_R2SCAN-3C E -148.681369031976
  B       0.778689      0.066961      0.967946
  B       1.006656     -0.283812     -0.621978
  B      -0.286654     -1.176391     -0.125012
  B      -0.804589      0.077292      0.811579
  B       0.139995      1.140002     -0.176224
  B      -0.834096      0.175947     -0.856311
6
Coordinates from ORCA-job B6_random_3d_seed1000_d1.60_q0_m3_R2SCAN-3C E -148.687136510212
  B       0.771246      0.042128      0.966706
  B       0.947954     -0.253963     -0.654364
  B      -0.268534     -1.195114     -0.098412
  B      -0.825370      0.093958      0.822803
  B       0.160462      1.160475     -0.164010
  B      -0.785757      0.152516     -0.872724
6
Coordinates from ORCA-job B6_random_3d_seed1000_d1.60_q0_m3_R2SCAN-3C E -148.689563249090
  B       0.746597      0.006122      0.949229
  B       0.888352     -0.218282     -0.696345
  B      -0.236185     -1.215467     -0.054790
  B      -0.852343      0.117447      0.817622
  B       0.187236      1.179051     -0.145872
  B      -0.733657      0.131128     -0.869844
6
Coordinates from ORCA-job B6_random_3d_seed1000_d1.60_q0_m3_R2SCAN-3C E -148.691259497234
  B       0.744106      0.002615      0.944584
  B       0.900822     -0.223106     -0.701148
  B      -0.229803     -1.208629     -0.049160
  B      -0.852695      0.125603      0.815786
  B       0.185763      1.175149     -0.131948
  B      -0.748193      0.128368     -0.878113
6
Coordinates from ORCA-job B6_random_3d_seed1000_d1.60_q0_m3_R2SCAN-3C E -148.694615669404
  B       0.723811     -0.045363      0.924019
  B       0.919773     -0.207548     -0.729062
  B      -0.192192     -1.185995     -0.002524
  B      -0.870457      0.154889      0.794571
  B       0.197323      1.169821     -0.103676
  B      -0.778258      0.114197     -0.883328
6
Coordinates from ORCA-job B6_random_3d_seed1000_d1.60_q0_m3_R2SCAN-3C E -148.695392716135
  B       0.723534     -0.072722      0.916738
  B       0.905435     -0.194396     -0.749309
  B      -0.174127     -1.162525      0.031524
  B      -0.881275      0.167624      0.785103
  B       0.205247      1.164978     -0.077317
  B      -0.778814      0.097041     -0.906739
6
Coordinates from ORCA-job B6_random_3d_seed1000_d1.60_q0_m3_R2SCAN-3C E -148.695611944503
  B       0.727632     -0.070317      0.916881
  B       0.901130     -0.192457     -0.747825
  B      -0.177764     -1.163684      0.031880
  B      -0.882819      0.163878      0.780825
  B       0.206886      1.165201     -0.078575
  B      -0.775065      0.097379     -0.903185
6
Coordinates from ORCA-job B6_random_3d_seed1000_d1.60_q0_m3_R2SCAN-3C E -148.695880576605
  B       0.734910     -0.071709      0.913901
  B       0.889688     -0.187527     -0.750342
  B      -0.179564     -1.165030      0.039146
  B      -0.887905      0.163772      0.767361
  B       0.209335      1.166486     -0.072316
  B      -0.766463      0.094008     -0.897751
6
Coordinates from ORCA-job B6_random_3d_seed1000_d1.60_q0_m3_R2SCAN-3C E -148.695996671548
  B       0.742522     -0.072075      0.914272
  B       0.885308     -0.187425     -0.751905
  B      -0.182045     -1.164669      0.041620
  B      -0.889227      0.165934      0.761572
  B       0.206778      1.167197     -0.065772
  B      -0.763336      0.091038     -0.899786
6
Coordinates from ORCA-job B6_random_3d_seed1000_d1.60_q0_m3_R2SCAN-3C E -148.696096801906
  B       0.748731     -0.079131      0.912447
  B       0.885094     -0.185416     -0.756610
  B      -0.180696     -1.165279      0.048224
  B      -0.892555      0.174580      0.751678
  B       0.202558      1.168555     -0.056624
  B      -0.763133      0.086691     -0.899115
6
Coordinates from ORCA-job B6_random_3d_seed1000_d1.60_q0_m3_R2SCAN-3C E -148.696127760130
  B       0.751631     -0.078569      0.912695
  B       0.884087     -0.185891     -0.759111
  B      -0.182126     -1.165480      0.049425
  B      -0.892894      0.177006      0.753012
  B       0.200016      1.167694     -0.052199
  B      -0.760715      0.085240     -0.903823
6
Coordinates from ORCA-job B6_random_3d_seed1000_d1.60_q0_m3_R2SCAN-3C E -148.696146658399
  B       0.751719     -0.079369      0.912177
  B       0.885820     -0.184820     -0.760444
  B      -0.182728     -1.166034      0.050763
  B      -0.893641      0.177990      0.753913
  B       0.199172      1.166844     -0.051991
  B      -0.760341      0.085389     -0.904418
6
Coordinates from ORCA-job B6_random_3d_seed1000_d1.60_q0_m3_R2SCAN-3C E -148.696162828302
  B       0.752154     -0.079949      0.910909
  B       0.887485     -0.182758     -0.762078
  B      -0.184572     -1.167211      0.053008
  B      -0.894502      0.178749      0.754793
  B       0.197849      1.165323     -0.051844
  B      -0.758414      0.085845     -0.904789
6
Coordinates from ORCA-job B6_random_3d_seed1000_d1.60_q0_m3_R2SCAN-3C E -148.696167427584
  B       0.752898     -0.080130      0.910499
  B       0.888034     -0.182003     -0.761876
  B      -0.185991     -1.167369      0.053544
  B      -0.894149      0.178685      0.754962
  B       0.196799      1.164821     -0.052090
  B      -0.757590      0.085997     -0.905038
6
Coordinates from ORCA-job B6_random_3d_seed1000_d1.60_q0_m3_R2SCAN-3C E -148.696173421767
  B       0.754049     -0.080636      0.909639
  B       0.888620     -0.181074     -0.760868
  B      -0.188301     -1.167383      0.053981
  B      -0.892854      0.178793      0.755286
  B       0.194650      1.164409     -0.052392
  B      -0.756165      0.085890     -0.905645
6
Coordinates from ORCA-job B6_random_3d_seed1000_d1.60_q0_m3_R2SCAN-3C E -148.696177192491
  B       0.754686     -0.081196      0.908899
  B       0.889258     -0.180755     -0.759497
  B      -0.189902     -1.167110      0.053676
  B      -0.891430      0.179046      0.755940
  B       0.192838      1.164523     -0.052756
  B      -0.755450      0.085492     -0.906262
6
Coordinates from ORCA-job B6_random_3d_seed1000_d1.60_q0_m3_R2SCAN-3C E -148.696180099432
  B       0.754898     -0.081941      0.908118
  B       0.889823     -0.180712     -0.758148
  B      -0.190857     -1.166642      0.053056
  B      -0.890290      0.179500      0.756838
  B       0.191516      1.165095     -0.053018
  B      -0.755091      0.084700     -0.906847
6
Coordinates from ORCA-job B6_random_3d_seed1000_d1.60_q0_m3_R2SCAN-3C E -148.696181530625
  B       0.754916     -0.082479      0.907492
  B       0.890305     -0.180749     -0.757440
  B      -0.191254     -1.166256      0.052583
  B      -0.889953      0.179910      0.757575
  B       0.190996      1.165671     -0.053033
  B      -0.755010      0.083902     -0.907178
6
Coordinates from ORCA-job B6_random_3d_seed1000_d1.60_q0_m3_R2SCAN-3C E -148.696182079750
  B       0.754929     -0.082791      0.907108
  B       0.890545     -0.180664     -0.757370
  B      -0.191357     -1.166059      0.052501
  B      -0.890201      0.180154      0.757922
  B       0.191039      1.166030     -0.052880
  B      -0.754955      0.083330     -0.907280
6
Coordinates from ORCA-job B6_random_3d_seed1000_d1.60_q0_m3_R2SCAN-3C E -148.696182225807
  B       0.754965     -0.082833      0.907003
  B       0.890491     -0.180544     -0.757597
  B      -0.191320     -1.166041      0.052657
  B      -0.890548      0.180183      0.757848
  B       0.191296      1.166101     -0.052701
  B      -0.754886      0.083134     -0.907209
