6
Coordinates from ORCA-job B6_compact_planar_triangle_d2.50_q0_m1_R2SCAN-3C E -148.630568467114
  B          -1.69326138427990     -0.97785292629526     -0.00000000447690
  B          -0.00000000539385     -0.92918941991583      0.00000000415166
  B           1.69326136057511     -0.97785287772749     -0.00000000392714
  B          -0.80474607617793      0.46469595621595      0.00000000484020
  B           0.80474607372753      0.46469596441167      0.00000000364888
  B           0.00000003154904      1.95550332331095     -0.00000000423671
