6
Coordinates from ORCA-job B6_compact_planar_triangle_d2.50_q0_m1_R2SCAN-3C E -148.172903834839
  B      -2.500000     -1.443376      0.000000
  B       0.000000     -1.443376      0.000000
  B       2.500000     -1.443376      0.000000
  B      -1.250000      0.721688      0.000000
  B       1.250000      0.721688      0.000000
  B       0.000000      2.886751      0.000000
6
Coordinates from ORCA-job B6_compact_planar_triangle_d2.50_q0_m1_R2SCAN-3C E -148.200525483258
  B      -2.448817     -1.413825     -0.000000
  B       0.000000     -1.410928      0.000000
  B       2.448817     -1.413825      0.000000
  B      -1.221899      0.705465      0.000000
  B       1.221899      0.705465     -0.000000
  B       0.000000      2.827649      0.000000
6
Coordinates from ORCA-job B6_compact_planar_triangle_d2.50_q0_m1_R2SCAN-3C E -148.229599706865
  B      -2.398167     -1.384582     -0.000000
  B       0.000000     -1.377936      0.000000
  B       2.398167     -1.384582     -0.000000
  B      -1.193324      0.688968      0.000000
  B       1.193324      0.688968      0.000000
  B      -0.000000      2.769163     -0.000000
6
Coordinates from ORCA-job B6_compact_planar_triangle_d2.50_q0_m1_R2SCAN-3C E -148.275908422547
  B      -2.322732     -1.341018      0.000000
  B       0.000000     -1.327908     -0.000000
  B       2.322732     -1.341018     -0.000000
  B      -1.149999      0.663948     -0.000000
  B       1.149999      0.663948      0.000000
  B      -0.000000      2.682048      0.000000
6
Coordinates from ORCA-job B6_compact_planar_triangle_d2.50_q0_m1_R2SCAN-3C E -148.350667282068
  B      -2.210161     -1.275982     -0.000000
  B      -0.000000     -1.252297      0.000000
  B       2.210161     -1.275982     -0.000000
  B      -1.084519      0.626140     -0.000000
  B       1.084519      0.626140      0.000000
  B      -0.000000      2.551982     -0.000000
6
Coordinates from ORCA-job B6_compact_planar_triangle_d2.50_q0_m1_R2SCAN-3C E -148.433117745623
  B      -2.094365     -1.209118      0.000000
  B      -0.000000     -1.172914     -0.000000
  B       2.094365     -1.209118     -0.000000
  B      -1.015775      0.586448     -0.000000
  B       1.015775      0.586448      0.000000
  B       0.000000      2.418255      0.000000
6
Coordinates from ORCA-job B6_compact_planar_triangle_d2.50_q0_m1_R2SCAN-3C E -148.515026123178
  B      -1.977561     -1.141648      0.000000
  B      -0.000000     -1.094497     -0.000000
  B       1.977561     -1.141648     -0.000000
  B      -0.947854      0.547258     -0.000000
  B       0.947854      0.547258      0.000000
  B       0.000000      2.283278     -0.000000
6
Coordinates from ORCA-job B6_compact_planar_triangle_d2.50_q0_m1_R2SCAN-3C E -148.585823136628
  B      -1.858724     -1.073021      0.000000
  B      -0.000000     -1.018034     -0.000000
  B       1.858724     -1.073021     -0.000000
  B      -0.881636      0.508969     -0.000000
  B       0.881636      0.508969      0.000000
  B       0.000000      2.146140     -0.000000
6
Coordinates from ORCA-job B6_compact_planar_triangle_d2.50_q0_m1_R2SCAN-3C E -148.627537520240
  B      -1.733591     -1.000866      0.000000
  B      -0.000000     -0.948682     -0.000000
  B       1.733591     -1.000866     -0.000000
  B      -0.821570      0.474376     -0.000000
  B       0.821570      0.474376      0.000000
  B       0.000000      2.001660     -0.000000
6
Coordinates from ORCA-job B6_compact_planar_triangle_d2.50_q0_m1_R2SCAN-3C E -148.629935222634
  B      -1.674098     -0.966392     -0.000000
  B       0.000000     -0.926196      0.000000
  B       1.674098     -0.966392     -0.000000
  B      -0.802180      0.463143      0.000000
  B       0.802180      0.463143      0.000000
  B      -0.000000      1.932695     -0.000000
6
Coordinates from ORCA-job B6_compact_planar_triangle_d2.50_q0_m1_R2SCAN-3C E -148.630167887097
  B      -1.699455     -0.981442     -0.000000
  B      -0.000000     -0.919691      0.000000
  B       1.699455     -0.981442     -0.000000
  B      -0.796544      0.459816      0.000000
  B       0.796544      0.459816      0.000000
  B       0.000000      1.962944     -0.000000
6
Coordinates from ORCA-job B6_compact_planar_triangle_d2.50_q0_m1_R2SCAN-3C E -148.630249070606
  B      -1.700392     -0.981892     -0.000000
  B       0.000000     -0.939093      0.000000
  B       1.700392     -0.981892     -0.000000
  B      -0.813253      0.469770      0.000000
  B       0.813253      0.469770      0.000000
  B       0.000000      1.963338     -0.000000
6
Coordinates from ORCA-job B6_compact_planar_triangle_d2.50_q0_m1_R2SCAN-3C E -148.630564155905
  B      -1.691981     -0.976760     -0.000000
  B       0.000000     -0.929412      0.000000
  B       1.691981     -0.976760     -0.000000
  B      -0.805054      0.464682      0.000000
  B       0.805054      0.464682      0.000000
  B      -0.000000      1.953567     -0.000000
6
Coordinates from ORCA-job B6_compact_planar_triangle_d2.50_q0_m1_R2SCAN-3C E -148.630568108343
  B      -1.693578     -0.978092     -0.000000
  B      -0.000000     -0.929105      0.000000
  B       1.693578     -0.978092     -0.000000
  B      -0.804494      0.464922      0.000000
  B       0.804494      0.464922      0.000000
  B       0.000000      1.955444     -0.000000
6
Coordinates from ORCA-job B6_compact_planar_triangle_d2.50_q0_m1_R2SCAN-3C E -148.630567214129
  B      -1.693437     -0.977549      0.000000
  B      -0.000000     -0.929134     -0.000000
  B       1.693437     -0.977549      0.000000
  B      -0.805132      0.464003      0.000000
  B       0.805132      0.464003     -0.000000
  B      -0.000000      1.956225      0.000000
6
Coordinates from ORCA-job B6_compact_planar_triangle_d2.50_q0_m1_R2SCAN-3C E -148.630568465851
  B      -1.693466     -0.977644     -0.000000
  B       0.000000     -0.929197      0.000000
  B       1.693466     -0.977644     -0.000000
  B      -0.804797      0.464665      0.000000
  B       0.804797      0.464665      0.000000
  B      -0.000000      1.955155     -0.000000
6
Coordinates from ORCA-job B6_compact_planar_triangle_d2.50_q0_m1_R2SCAN-3C E -148.630568467114
  B      -1.693261     -0.977853     -0.000000
  B      -0.000000     -0.929189      0.000000
  B       1.693261     -0.977853     -0.000000
  B      -0.804746      0.464696      0.000000
  B       0.804746      0.464696      0.000000
  B       0.000000      1.955503     -0.000000
