6
Coordinates from ORCA-job B6_random_3d_seed1003_d1.60_q0_m3_R2SCAN-3C E -148.679240980091
  B       0.160685      0.723724     -0.985141
  B      -0.119812     -0.690654      0.867320
  B      -1.173483      0.156398     -0.045354
  B       1.267697     -0.101942      0.122092
  B       0.062456      0.817686      0.738777
  B      -0.197544     -0.905212     -0.697695
6
Coordinates from ORCA-job B6_random_3d_seed1003_d1.60_q0_m3_R2SCAN-3C E -148.685614594216
  B       0.160443      0.722790     -0.975973
  B      -0.121597     -0.703997      0.875560
  B      -1.171108      0.164078     -0.042634
  B       1.256278     -0.110498      0.109378
  B       0.057852      0.840923      0.739582
  B      -0.181869     -0.913296     -0.705912
6
Coordinates from ORCA-job B6_random_3d_seed1003_d1.60_q0_m3_R2SCAN-3C E -148.692529029806
  B       0.160590      0.718038     -0.957590
  B      -0.123345     -0.725195      0.890055
  B      -1.165582      0.176079     -0.040362
  B       1.229389     -0.123716      0.085904
  B       0.052883      0.879762      0.742073
  B      -0.153935     -0.924967     -0.720080
6
Coordinates from ORCA-job B6_random_3d_seed1003_d1.60_q0_m3_R2SCAN-3C E -148.694822064335
  B       0.160583      0.713314     -0.944167
  B      -0.123916     -0.736742      0.899459
  B      -1.161874      0.181529     -0.040971
  B       1.206242     -0.131604      0.070274
  B       0.053519      0.903086      0.743869
  B      -0.134554     -0.929583     -0.728465
6
Coordinates from ORCA-job B6_random_3d_seed1003_d1.60_q0_m3_R2SCAN-3C E -148.695647903522
  B       0.159239      0.709448     -0.931647
  B      -0.124903     -0.744647      0.908617
  B      -1.160064      0.183028     -0.043610
  B       1.182541     -0.139418      0.056868
  B       0.058738      0.921720      0.744679
  B      -0.115551     -0.930130     -0.734908
6
Coordinates from ORCA-job B6_random_3d_seed1003_d1.60_q0_m3_R2SCAN-3C E -148.695807652774
  B       0.157427      0.709908     -0.929614
  B      -0.125793     -0.744438      0.911431
  B      -1.161690      0.180370     -0.045737
  B       1.177404     -0.141781      0.055621
  B       0.063676      0.923480      0.743949
  B      -0.111025     -0.927539     -0.735651
6
Coordinates from ORCA-job B6_random_3d_seed1003_d1.60_q0_m3_R2SCAN-3C E -148.696083191385
  B       0.151296      0.713933     -0.927088
  B      -0.129223     -0.740290      0.918022
  B      -1.168213      0.170284     -0.051769
  B       1.168900     -0.147823      0.056042
  B       0.078951      0.922705      0.740802
  B      -0.101711     -0.918808     -0.736009
6
Coordinates from ORCA-job B6_random_3d_seed1003_d1.60_q0_m3_R2SCAN-3C E -148.696127970416
  B       0.148995      0.716797     -0.927124
  B      -0.131184     -0.737367      0.919443
  B      -1.170718      0.166446     -0.053053
  B       1.169077     -0.150010      0.056990
  B       0.083478      0.920925      0.739594
  B      -0.099647     -0.916790     -0.735848
6
Coordinates from ORCA-job B6_random_3d_seed1003_d1.60_q0_m3_R2SCAN-3C E -148.696161781403
  B       0.146485      0.720556     -0.926675
  B      -0.134009     -0.733770      0.920659
  B      -1.172827      0.162794     -0.053544
  B       1.170025     -0.153045      0.057144
  B       0.087189      0.919685      0.738487
  B      -0.096863     -0.916220     -0.736070
6
Coordinates from ORCA-job B6_random_3d_seed1003_d1.60_q0_m3_R2SCAN-3C E -148.696187837438
  B       0.143873      0.724518     -0.925416
  B      -0.137390     -0.729971      0.921707
  B      -1.174019      0.159714     -0.053376
  B       1.170925     -0.156672      0.056253
  B       0.089905      0.919431      0.737633
  B      -0.093294     -0.917020     -0.736801
6
Coordinates from ORCA-job B6_random_3d_seed1003_d1.60_q0_m3_R2SCAN-3C E -148.696199787204
  B       0.142235      0.726656     -0.924031
  B      -0.139644     -0.727662      0.922147
  B      -1.173693      0.158450     -0.052928
  B       1.171266     -0.158950      0.055046
  B       0.090716      0.919960      0.737423
  B      -0.090880     -0.918454     -0.737658
6
Coordinates from ORCA-job B6_random_3d_seed1003_d1.60_q0_m3_R2SCAN-3C E -148.696203384613
  B       0.141679      0.726883     -0.923262
  B      -0.140330     -0.727016      0.922161
  B      -1.172734      0.158486     -0.052749
  B       1.171184     -0.159397      0.054405
  B       0.090482      0.920392      0.737621
  B      -0.090282     -0.919348     -0.738176
6
Coordinates from ORCA-job B6_random_3d_seed1003_d1.60_q0_m3_R2SCAN-3C E -148.696204751532
  B       0.141454      0.726578     -0.922929
  B      -0.140462     -0.726864      0.922111
  B      -1.171850      0.158727     -0.052817
  B       1.171113     -0.159150      0.054214
  B       0.090201      0.920458      0.737864
  B      -0.090456     -0.919750     -0.738444
6
Coordinates from ORCA-job B6_random_3d_seed1003_d1.60_q0_m3_R2SCAN-3C E -148.696205278502
  B       0.141223      0.726398     -0.922790
  B      -0.140558     -0.726743      0.922214
  B      -1.171358      0.158734     -0.053050
  B       1.171046     -0.158913      0.054194
  B       0.090275      0.920317      0.737993
  B      -0.090628     -0.919793     -0.738561
6
Coordinates from ORCA-job B6_random_3d_seed1003_d1.60_q0_m3_R2SCAN-3C E -148.696205450883
  B       0.141044      0.726423     -0.922771
  B      -0.140665     -0.726647      0.922384
  B      -1.171255      0.158606     -0.053270
  B       1.171018     -0.158838      0.054202
  B       0.090509      0.920152      0.738019
  B      -0.090651     -0.919696     -0.738565
