6
Coordinates from ORCA-job B6_random_3d_seed1003_d1.60_q0_m3_R2SCAN-3C E -148.696205450883
  B           0.14104428878492      0.72642329991847     -0.92277066160127
  B          -0.14066476038799     -0.72664718413120      0.92238396712433
  B          -1.17125535798773      0.15860587868138     -0.05327017401494
  B           1.17101805314277     -0.15883794315763      0.05420216866219
  B           0.09050888938568      0.92015186520057      0.73801932575903
  B          -0.09065111293765     -0.91969590651158     -0.73856462592934
