6
Coordinates from ORCA-job B6_planar_ring_d3.00_q0_m1_R2SCAN-3C E -147.899239278120
  B       3.000000     -0.000000      0.000000
  B       1.500000      2.598076      0.000000
  B      -1.500000      2.598076      0.000000
  B      -3.000000      0.000000      0.000000
  B      -1.500000     -2.598076      0.000000
  B       1.500000     -2.598076      0.000000
6
Coordinates from ORCA-job B6_planar_ring_d3.00_q0_m1_R2SCAN-3C E -147.915949676194
  B       2.983031      0.000000      0.000000
  B       1.457819      2.526069     -0.000000
  B      -1.457819      2.526069     -0.000000
  B      -2.983031     -0.000000      0.000000
  B      -1.457819     -2.526069     -0.000000
  B       1.457819     -2.526069     -0.000000
6
Coordinates from ORCA-job B6_planar_ring_d3.00_q0_m1_R2SCAN-3C E -147.933720287117
  B       2.965019      0.000000      0.000000
  B       1.415466      2.453761     -0.000000
  B      -1.415466      2.453761     -0.000000
  B      -2.965019     -0.000000      0.000000
  B      -1.415466     -2.453761     -0.000000
  B       1.415466     -2.453761     -0.000000
6
Coordinates from ORCA-job B6_planar_ring_d3.00_q0_m1_R2SCAN-3C E -147.962359993525
  B       2.924530     -0.000000      0.000000
  B       1.351271      2.351142     -0.000000
  B      -1.351271      2.351142      0.000000
  B      -2.924530      0.000000      0.000000
  B      -1.351271     -2.351142     -0.000000
  B       1.351271     -2.351142     -0.000000
6
Coordinates from ORCA-job B6_planar_ring_d3.00_q0_m1_R2SCAN-3C E -148.004668726302
  B       2.862526     -0.000000      0.000000
  B       1.271894      2.206120     -0.000000
  B      -1.271894      2.206120     -0.000000
  B      -2.862526      0.000000      0.000000
  B      -1.271894     -2.206120     -0.000000
  B       1.271894     -2.206120     -0.000000
6
Coordinates from ORCA-job B6_planar_ring_d3.00_q0_m1_R2SCAN-3C E -148.053071512970
  B       2.802699     -0.000000      0.000000
  B       1.192518      2.050802     -0.000000
  B      -1.192518      2.050802     -0.000000
  B      -2.802699      0.000000      0.000000
  B      -1.192518     -2.050802     -0.000000
  B       1.192518     -2.050802     -0.000000
6
Coordinates from ORCA-job B6_planar_ring_d3.00_q0_m1_R2SCAN-3C E -148.107474754885
  B       2.748372     -0.000000      0.000000
  B       1.113141      1.885203     -0.000000
  B      -1.113141      1.885202     -0.000000
  B      -2.748372      0.000000      0.000000
  B      -1.113141     -1.885203     -0.000000
  B       1.113141     -1.885202     -0.000000
6
Coordinates from ORCA-job B6_planar_ring_d3.00_q0_m1_R2SCAN-3C E -148.168010727745
  B       2.701838     -0.000000      0.000000
  B       1.033765      1.703028     -0.000000
  B      -1.033764      1.703027     -0.000000
  B      -2.701837      0.000000      0.000000
  B      -1.033765     -1.703028     -0.000000
  B       1.033764     -1.703027     -0.000000
6
Coordinates from ORCA-job B6_planar_ring_d3.00_q0_m1_R2SCAN-3C E -148.237074483860
  B       2.666316     -0.000001      0.000000
  B       0.954388      1.490328     -0.000000
  B      -0.954388      1.490326     -0.000000
  B      -2.666316      0.000001      0.000000
  B      -0.954388     -1.490327     -0.000000
  B       0.954388     -1.490327     -0.000000
6
Coordinates from ORCA-job B6_planar_ring_d3.00_q0_m1_R2SCAN-3C E -148.442088664211
  B       2.648767     -0.000001      0.000003
  B       0.880511      1.229565     -0.000001
  B      -0.880512      1.229564     -0.000001
  B      -2.648766      0.000001      0.000003
  B      -0.880511     -1.229565     -0.000001
  B       0.880511     -1.229564     -0.000001
6
Coordinates from ORCA-job B6_planar_ring_d3.00_q0_m1_R2SCAN-3C E -148.557163811244
  B       2.537449     -0.000001      0.000003
  B       0.819678      1.028382     -0.000001
  B      -0.819679      1.028381     -0.000001
  B      -2.537448      0.000001      0.000003
  B      -0.819679     -1.028382     -0.000001
  B       0.819679     -1.028381     -0.000001
6
Coordinates from ORCA-job B6_planar_ring_d3.00_q0_m1_R2SCAN-3C E -148.615759497653
  B       2.445082     -0.000001      0.000002
  B       0.801633      0.921398     -0.000001
  B      -0.801634      0.921395     -0.000001
  B      -2.445081      0.000001      0.000002
  B      -0.801633     -0.921396     -0.000001
  B       0.801633     -0.921397     -0.000001
6
Coordinates from ORCA-job B6_planar_ring_d3.00_q0_m1_R2SCAN-3C E -148.681063891703
  B       2.223329     -0.000001      0.000002
  B       0.767890      0.926596     -0.000001
  B      -0.767891      0.926594     -0.000001
  B      -2.223327      0.000001      0.000002
  B      -0.767891     -0.926595     -0.000001
  B       0.767890     -0.926595     -0.000001
6
Coordinates from ORCA-job B6_planar_ring_d3.00_q0_m1_R2SCAN-3C E -148.704452158182
  B       2.111500     -0.000001      0.000002
  B       0.817880      0.883640     -0.000001
  B      -0.817882      0.883640     -0.000001
  B      -2.111498      0.000001      0.000002
  B      -0.817881     -0.883640     -0.000001
  B       0.817881     -0.883640     -0.000001
6
Coordinates from ORCA-job B6_planar_ring_d3.00_q0_m1_R2SCAN-3C E -148.709907283448
  B       2.034154      0.000005      0.000002
  B       0.779644      0.928597     -0.000001
  B      -0.779632      0.928592     -0.000001
  B      -2.034156     -0.000005      0.000002
  B      -0.779644     -0.928593     -0.000001
  B       0.779632     -0.928597     -0.000001
6
Coordinates from ORCA-job B6_planar_ring_d3.00_q0_m1_R2SCAN-3C E -148.710456335911
  B       2.070822     -0.000082      0.000002
  B       0.791890      0.930699     -0.000001
  B      -0.792056      0.930727     -0.000001
  B      -2.070860      0.000082      0.000002
  B      -0.791871     -0.930721     -0.000001
  B       0.792075     -0.930706     -0.000001
6
Coordinates from ORCA-job B6_planar_ring_d3.00_q0_m1_R2SCAN-3C E -148.710619315186
  B       2.061820      0.001262      0.000003
  B       0.791546      0.924909     -0.000001
  B      -0.788805      0.924655     -0.000001
  B      -2.061509     -0.001264      0.000003
  B      -0.791706     -0.924750     -0.000001
  B       0.788655     -0.924812     -0.000001
6
Coordinates from ORCA-job B6_planar_ring_d3.00_q0_m1_R2SCAN-3C E -148.707473998616
  B       2.052113     -0.026710      0.000004
  B       0.757913      0.918313     -0.000002
  B      -0.817565      0.922250     -0.000002
  B      -2.055739      0.026843      0.000004
  B      -0.755971     -0.920248     -0.000002
  B       0.819250     -0.920447     -0.000002
6
Coordinates from ORCA-job B6_planar_ring_d3.00_q0_m1_R2SCAN-3C E -148.710625149666
  B       2.060914     -0.000226      0.000004
  B       0.788726      0.924269     -0.000002
  B      -0.789600      0.925250     -0.000002
  B      -2.062390      0.001016      0.000004
  B      -0.787804     -0.925403     -0.000002
  B       0.790154     -0.924905     -0.000002
6
Coordinates from ORCA-job B6_planar_ring_d3.00_q0_m1_R2SCAN-3C E -148.710078919629
  B       2.071430     -0.007330      0.000005
  B       0.780396      0.933513     -0.000003
  B      -0.790823      0.923744     -0.000003
  B      -2.052035     -0.006858      0.000005
  B      -0.797834     -0.916438     -0.000003
  B       0.788865     -0.926631     -0.000003
6
Coordinates from ORCA-job B6_planar_ring_d3.00_q0_m1_R2SCAN-3C E -148.710569011076
  B       2.064203      0.000549      0.000005
  B       0.790585      0.925893     -0.000003
  B      -0.793498      0.923463     -0.000003
  B      -2.059045      0.000681      0.000005
  B      -0.788050     -0.923884     -0.000003
  B       0.785805     -0.926702     -0.000003
6
Coordinates from ORCA-job B6_planar_ring_d3.00_q0_m1_R2SCAN-3C E -148.696773973549
  B       2.008447      0.000967      0.000005
  B       0.787966      0.896967     -0.000003
  B      -0.730360      0.949763     -0.000003
  B      -2.114158     -0.001890      0.000006
  B      -0.793204     -0.951183     -0.000003
  B       0.841310     -0.894624     -0.000003
6
Coordinates from ORCA-job B6_planar_ring_d3.00_q0_m1_R2SCAN-3C E -148.710453824806
  B       2.057684      0.002351      0.000006
  B       0.791308      0.923463     -0.000003
  B      -0.781971      0.926422     -0.000003
  B      -2.071350      0.000372      0.000006
  B      -0.790909     -0.928409     -0.000003
  B       0.795239     -0.924198     -0.000003
6
Coordinates from ORCA-job B6_planar_ring_d3.00_q0_m1_R2SCAN-3C E -148.710397708481
  B       2.058649     -0.013379      0.000008
  B       0.795053      0.930573     -0.000004
  B      -0.794711      0.931481     -0.000004
  B      -2.060891     -0.012777      0.000008
  B      -0.781926     -0.918349     -0.000004
  B       0.783826     -0.917550     -0.000004
6
Coordinates from ORCA-job B6_planar_ring_d3.00_q0_m1_R2SCAN-3C E -148.708430365389
  B       2.069480      0.021985      0.000012
  B       0.768021      0.914354     -0.000006
  B      -0.796599      0.903246     -0.000006
  B      -2.031208      0.029444      0.000012
  B      -0.796483     -0.927193     -0.000006
  B       0.786788     -0.941834     -0.000006
6
Coordinates from ORCA-job B6_planar_ring_d3.00_q0_m1_R2SCAN-3C E -148.710617807656
  B       2.062501      0.002429      0.000010
  B       0.789159      0.923744     -0.000005
  B      -0.787279      0.924041     -0.000005
  B      -2.063474      0.001783      0.000010
  B      -0.791478     -0.926360     -0.000005
  B       0.790571     -0.925637     -0.000005
6
Coordinates from ORCA-job B6_planar_ring_d3.00_q0_m1_R2SCAN-3C E -148.710628427534
  B       2.061653     -0.000876      0.000015
  B       0.789763      0.925382     -0.000007
  B      -0.789679      0.925250     -0.000007
  B      -2.061416     -0.000571      0.000015
  B      -0.789051     -0.924586     -0.000007
  B       0.788729     -0.924600     -0.000007
6
Coordinates from ORCA-job B6_planar_ring_d3.00_q0_m1_R2SCAN-3C E -148.710629290724
  B       2.061674     -0.000132      0.000016
  B       0.789504      0.925021     -0.000008
  B      -0.789212      0.924952     -0.000008
  B      -2.061679      0.000095      0.000016
  B      -0.789479     -0.924992     -0.000008
  B       0.789193     -0.924944     -0.000008
6
Coordinates from ORCA-job B6_planar_ring_d3.00_q0_m1_R2SCAN-3C E -148.710629295532
  B       2.061638     -0.000128      0.000019
  B       0.789466      0.924992     -0.000009
  B      -0.789230      0.924957     -0.000009
  B      -2.061637      0.000125      0.000019
  B      -0.789464     -0.924986     -0.000009
  B       0.789227     -0.924960     -0.000009
