6
Coordinates from ORCA-job B6_planar_ring_d3.00_q0_m1_R2SCAN-3C E -148.710629295532
  B           2.06163836340203     -0.00012823920668      0.00001863084700
  B           0.78946624332540      0.92499151881005     -0.00000925715614
  B          -0.78923031596981      0.92495723418599     -0.00000935000524
  B          -2.06163732821590      0.00012489503430      0.00001864408619
  B          -0.78946350954014     -0.92498566888162     -0.00000928486097
  B           0.78922654699841     -0.92495973994204     -0.00000938291084
