6
Coordinates from ORCA-job B6_planar_ring_d2.00_q0_m1_R2SCAN-3C
  B           1.69474592936779      0.00000276892755     -0.00009604935609
  B           0.83487862463147      1.43915199303553      0.00017245476075
  B          -0.83487912777087      1.43915301910834     -0.00007640320290
  B          -1.69474602221529      0.00000277584046     -0.00009605373487
  B          -0.83488316759291     -1.43915484670245      0.00017245907635
  B           0.83488376357980     -1.43915571020944     -0.00007640754324
