6
Coordinates from ORCA-job B6_planar_ring_d2.00_q0_m1_R2SCAN-3C E -148.384536448485
  B       2.000000     -0.000000      0.000000
  B       1.000000      1.732051      0.000000
  B      -1.000000      1.732051      0.000000
  B      -2.000000      0.000000      0.000000
  B      -1.000000     -1.732051      0.000000
  B       1.000000     -1.732051      0.000000
6
Coordinates from ORCA-job B6_planar_ring_d2.00_q0_m1_R2SCAN-3C E -148.423733267372
  B       1.935186      0.000000      0.000000
  B       0.967603      1.675920      0.000000
  B      -0.967603      1.675920     -0.000000
  B      -1.935186     -0.000000      0.000000
  B      -0.967603     -1.675920      0.000000
  B       0.967603     -1.675920     -0.000000
6
Coordinates from ORCA-job B6_planar_ring_d2.00_q0_m1_R2SCAN-3C E -148.459487551197
  B       1.870517     -0.000000      0.000000
  B       0.935217      1.619699     -0.000000
  B      -0.935217      1.619699     -0.000000
  B      -1.870517     -0.000000      0.000000
  B      -0.935217     -1.619699     -0.000000
  B       0.935217     -1.619699     -0.000000
6
Coordinates from ORCA-job B6_planar_ring_d2.00_q0_m1_R2SCAN-3C E -148.501425952544
  B       1.773447     -0.000000     -0.000000
  B       0.886606      1.535425      0.000000
  B      -0.886606      1.535425      0.000000
  B      -1.773447      0.000000     -0.000000
  B      -0.886606     -1.535425     -0.000000
  B       0.886606     -1.535425      0.000000
6
Coordinates from ORCA-job B6_planar_ring_d2.00_q0_m1_R2SCAN-3C E -148.518809913033
  B       1.654334      0.000000     -0.000000
  B       0.826750      1.431324      0.000000
  B      -0.826750      1.431324     -0.000000
  B      -1.654334      0.000000     -0.000000
  B      -0.826750     -1.431324      0.000000
  B       0.826750     -1.431325     -0.000000
