6
Coordinates from ORCA-job B6_planar_ring_d3.50_q0_m3_R2SCAN-3C E -147.823655934916
  B       3.500000     -0.000000      0.000000
  B       1.750000      3.031089      0.000000
  B      -1.750000      3.031089      0.000000
  B      -3.500000      0.000000      0.000000
  B      -1.750000     -3.031089      0.000000
  B       1.750000     -3.031089      0.000000
6
Coordinates from ORCA-job B6_planar_ring_d3.50_q0_m3_R2SCAN-3C E -147.888775465464
  B       3.435320      0.000000     -0.000000
  B       1.717589      2.974889      0.000000
  B      -1.717589      2.974889     -0.000000
  B      -3.435320     -0.000000     -0.000000
  B      -1.717589     -2.974889      0.000000
  B       1.717589     -2.974889     -0.000000
6
Coordinates from ORCA-job B6_planar_ring_d3.50_q0_m3_R2SCAN-3C E -147.898053518210
  B       3.388289     -0.000001     -0.000002
  B       1.680291      2.902430      0.000002
  B      -1.688020      2.925949      0.000001
  B      -3.372836      0.000000     -0.000003
  B      -1.688019     -2.925946      0.000003
  B       1.680295     -2.902433     -0.000001
6
Coordinates from ORCA-job B6_planar_ring_d3.50_q0_m3_R2SCAN-3C E -147.904528082800
  B       3.356002     -0.000001     -0.000002
  B       1.655698      2.854807      0.000002
  B      -1.668023      2.892756      0.000001
  B      -3.331358      0.000000     -0.000004
  B      -1.668021     -2.892752      0.000004
  B       1.655702     -2.854811     -0.000001
6
Coordinates from ORCA-job B6_planar_ring_d3.50_q0_m3_R2SCAN-3C E -147.914698967454
  B       3.305717     -0.000001     -0.000003
  B       1.619131      2.783874      0.000003
  B      -1.637117      2.843335      0.000001
  B      -3.269752      0.000001     -0.000005
  B      -1.637115     -2.843330      0.000005
  B       1.619137     -2.783879     -0.000001
6
Coordinates from ORCA-job B6_planar_ring_d3.50_q0_m3_R2SCAN-3C E -147.931038591547
  B       3.226370     -0.000002     -0.000005
  B       1.564851      2.678633      0.000005
  B      -1.588817      2.770213      0.000002
  B      -3.178448      0.000001     -0.000008
  B      -1.588816     -2.770206      0.000008
  B       1.564860     -2.678639     -0.000002
6
Coordinates from ORCA-job B6_planar_ring_d3.50_q0_m3_R2SCAN-3C E -147.958192300025
  B       3.099739     -0.000002     -0.000008
  B       1.484500      2.523284      0.000008
  B      -1.512541      2.662501      0.000003
  B      -3.043672      0.000001     -0.000014
  B      -1.512540     -2.662490      0.000014
  B       1.484514     -2.523293     -0.000002
6
Coordinates from ORCA-job B6_planar_ring_d3.50_q0_m3_R2SCAN-3C E -147.989609801193
  B       2.964254     -0.000002     -0.000012
  B       1.403760      2.369720      0.000011
  B      -1.431953      2.551395      0.000005
  B      -2.907884     -0.000000     -0.000020
  B      -1.431952     -2.551382      0.000019
  B       1.403775     -2.369731     -0.000003
6
Coordinates from ORCA-job B6_planar_ring_d3.50_q0_m3_R2SCAN-3C E -148.025409500314
  B       2.821786     -0.000003     -0.000015
  B       1.325552      2.222057      0.000013
  B      -1.348401      2.439640      0.000007
  B      -2.776107     -0.000001     -0.000026
  B      -1.348399     -2.439624      0.000024
  B       1.325569     -2.222070     -0.000003
6
Coordinates from ORCA-job B6_planar_ring_d3.50_q0_m3_R2SCAN-3C E -148.066698203335
  B       2.672232     -0.000003     -0.000021
  B       1.250341      2.081065      0.000017
  B      -1.261779      2.326398      0.000011
  B      -2.649375     -0.000002     -0.000034
  B      -1.261777     -2.326380      0.000030
  B       1.250358     -2.081078     -0.000002
6
Coordinates from ORCA-job B6_planar_ring_d3.50_q0_m3_R2SCAN-3C E -148.134791887744
  B       2.513519     -0.000003     -0.000061
  B       1.179302      1.949230      0.000040
  B      -1.171511      2.211238      0.000027
  B      -2.529122     -0.000003     -0.000072
  B      -1.171509     -2.211217      0.000048
  B       1.179321     -1.949245      0.000018
6
Coordinates from ORCA-job B6_planar_ring_d3.50_q0_m3_R2SCAN-3C E -148.208867493258
  B       2.357791     -0.000000     -0.000062
  B       1.092508      1.804657      0.000036
  B      -1.092678      2.137879      0.000036
  B      -2.357456     -0.000013     -0.000083
  B      -1.092692     -2.137857      0.000057
  B       1.092527     -1.804666      0.000015
6
Coordinates from ORCA-job B6_planar_ring_d3.50_q0_m3_R2SCAN-3C E -148.265403182069
  B       2.237449      0.000001     -0.000061
  B       1.039994      1.708044      0.000034
  B      -1.032027      2.081231      0.000039
  B      -2.253385     -0.000013     -0.000087
  B      -1.032047     -2.081209      0.000060
  B       1.040017     -1.708053      0.000014
6
Coordinates from ORCA-job B6_planar_ring_d3.50_q0_m3_R2SCAN-3C E -148.337784848170
  B       2.114695      0.000004     -0.000070
  B       0.989862      1.617062      0.000026
  B      -0.964520      2.015608      0.000080
  B      -2.165362     -0.000018     -0.000144
  B      -0.964551     -2.015595      0.000102
  B       0.989876     -1.617061      0.000005
6
Coordinates from ORCA-job B6_planar_ring_d3.50_q0_m3_R2SCAN-3C E -148.450410468577
  B       1.956437     -0.002226     -0.000066
  B       0.895872      1.474915      0.000025
  B      -0.880598      1.939387      0.000077
  B      -1.990498      0.001071     -0.000139
  B      -0.878908     -1.939144      0.000101
  B       0.897695     -1.474003      0.000002
6
Coordinates from ORCA-job B6_planar_ring_d3.50_q0_m3_R2SCAN-3C E -148.546622690996
  B       1.783550     -0.001457     -0.000065
  B       0.806951      1.340717      0.000024
  B      -0.796550      1.847771      0.000076
  B      -1.811744      0.003364     -0.000138
  B      -0.796899     -1.848176      0.000100
  B       0.814692     -1.342219      0.000002
6
Coordinates from ORCA-job B6_planar_ring_d3.50_q0_m3_R2SCAN-3C E -148.601060470164
  B       1.650243      0.005385     -0.000080
  B       0.750318      1.222572      0.000026
  B      -0.766339      1.754718      0.000093
  B      -1.615146      0.001774     -0.000159
  B      -0.760534     -1.755216      0.000118
  B       0.741458     -1.229233      0.000003
6
Coordinates from ORCA-job B6_planar_ring_d3.50_q0_m3_R2SCAN-3C E -148.643327765779
  B       1.614830     -0.008783     -0.000079
  B       0.663953      1.165956      0.000023
  B      -0.781516      1.687130      0.000082
  B      -1.397387      0.004112     -0.000132
  B      -0.776795     -1.683867      0.000112
  B       0.676914     -1.164547     -0.000007
6
Coordinates from ORCA-job B6_planar_ring_d3.50_q0_m3_R2SCAN-3C E -148.676411111563
  B       1.671938      0.032307     -0.000074
  B       0.652811      1.072273      0.000016
  B      -0.845306      1.581695      0.000063
  B      -1.237022     -0.004203     -0.000086
  B      -0.853941     -1.597767      0.000095
  B       0.611519     -1.084305     -0.000015
6
Coordinates from ORCA-job B6_planar_ring_d3.50_q0_m3_R2SCAN-3C E -148.683604652325
  B       1.810240     -0.023730     -0.000075
  B       0.576092      1.023237      0.000014
  B      -0.935173      1.498306      0.000046
  B      -1.144065      0.001760     -0.000041
  B      -0.923707     -1.486270      0.000076
  B       0.616613     -1.013303     -0.000020
6
Coordinates from ORCA-job B6_planar_ring_d3.50_q0_m3_R2SCAN-3C E -148.677360146081
  B       1.813458      0.018791     -0.000075
  B       0.537150      1.079802      0.000014
  B      -0.907764      1.598084      0.000038
  B      -1.054252      0.010739     -0.000028
  B      -0.898258     -1.612236      0.000070
  B       0.509666     -1.095178     -0.000018
6
Coordinates from ORCA-job B6_planar_ring_d3.50_q0_m3_R2SCAN-3C E -148.683647450370
  B       1.777744      0.007492     -0.000080
  B       0.582411      1.055690      0.000019
  B      -0.898330      1.647284      0.000048
  B      -1.133822     -0.010011     -0.000055
  B      -0.930596     -1.658739      0.000083
  B       0.602593     -1.041716     -0.000016
6
Coordinates from ORCA-job B6_planar_ring_d3.50_q0_m3_R2SCAN-3C E -148.689887957650
  B       1.787379     -0.009711     -0.000084
  B       0.599528      1.013521      0.000023
  B      -0.923261      1.555780      0.000053
  B      -1.165021      0.002910     -0.000066
  B      -0.900483     -1.549594      0.000086
  B       0.601857     -1.012906     -0.000012
6
Coordinates from ORCA-job B6_planar_ring_d3.50_q0_m3_R2SCAN-3C E -148.688607222017
  B       1.799646      0.034120     -0.000088
  B       0.582678      1.030518      0.000026
  B      -0.870784      1.534416      0.000053
  B      -1.158526     -0.025357     -0.000069
  B      -0.932832     -1.551236      0.000088
  B       0.579818     -1.022462     -0.000009
6
Coordinates from ORCA-job B6_planar_ring_d3.50_q0_m3_R2SCAN-3C E -148.689371857001
  B       1.802739      0.004405     -0.000094
  B       0.575515      1.036159      0.000032
  B      -0.900519      1.572264      0.000054
  B      -1.163379      0.018858     -0.000078
  B      -0.891128     -1.586695      0.000091
  B       0.576772     -1.044991     -0.000006
6
Coordinates from ORCA-job B6_planar_ring_d3.50_q0_m3_R2SCAN-3C E -148.690740165464
  B       1.797778     -0.009520     -0.000095
  B       0.590849      1.020716      0.000034
  B      -0.913489      1.571582      0.000055
  B      -1.171288     -0.001919     -0.000079
  B      -0.891035     -1.562296      0.000090
  B       0.587185     -1.018562     -0.000006
6
Coordinates from ORCA-job B6_planar_ring_d3.50_q0_m3_R2SCAN-3C E -148.690587111907
  B       1.799419      0.007614     -0.000096
  B       0.585736      1.008739      0.000034
  B      -0.898275      1.543649      0.000055
  B      -1.171148      0.005355     -0.000080
  B      -0.910881     -1.556710      0.000092
  B       0.595150     -1.008647     -0.000004
6
Coordinates from ORCA-job B6_planar_ring_d3.50_q0_m3_R2SCAN-3C E -148.690878059756
  B       1.801332      0.006431     -0.000111
  B       0.584140      1.020459      0.000051
  B      -0.895160      1.557770      0.000055
  B      -1.169114     -0.006582     -0.000096
  B      -0.902660     -1.560542      0.000097
  B       0.581463     -1.017537      0.000003
6
Coordinates from ORCA-job B6_planar_ring_d3.50_q0_m3_R2SCAN-3C E -148.690942158651
  B       1.799709     -0.003058     -0.000125
  B       0.588309      1.017976      0.000067
  B      -0.905314      1.562914      0.000057
  B      -1.177380      0.000974     -0.000114
  B      -0.895007     -1.560932      0.000104
  B       0.589682     -1.017874      0.000011
6
Coordinates from ORCA-job B6_planar_ring_d3.50_q0_m3_R2SCAN-3C E -148.690983374439
  B       1.800685      0.001098     -0.000135
  B       0.585209      1.015461      0.000078
  B      -0.902123      1.558997      0.000058
  B      -1.170681     -0.000497     -0.000124
  B      -0.899856     -1.560181      0.000108
  B       0.586766     -1.014878      0.000016
6
Coordinates from ORCA-job B6_planar_ring_d3.50_q0_m3_R2SCAN-3C E -148.690983609703
  B       1.800634      0.001664     -0.000155
  B       0.586493      1.017035      0.000100
  B      -0.900456      1.558056      0.000062
  B      -1.175094     -0.001019     -0.000152
  B      -0.899366     -1.559574      0.000120
  B       0.587789     -1.016160      0.000026
6
Coordinates from ORCA-job B6_planar_ring_d3.50_q0_m3_R2SCAN-3C E -148.690985070432
  B       1.800651      0.001163     -0.000167
  B       0.585882      1.016340      0.000112
  B      -0.901377      1.558830      0.000063
  B      -1.173078     -0.000773     -0.000167
  B      -0.899284     -1.559978      0.000127
  B       0.587206     -1.015583      0.000031
6
Coordinates from ORCA-job B6_planar_ring_d3.50_q0_m3_R2SCAN-3C E -148.690985076312
  B       1.800695      0.001183     -0.000191
  B       0.585891      1.016285      0.000139
  B      -0.901366      1.558774      0.000068
  B      -1.173122     -0.000767     -0.000200
  B      -0.899324     -1.559956      0.000142
  B       0.587227     -1.015519      0.000042
