6
Coordinates from ORCA-job B6_planar_ring_d3.50_q0_m3_R2SCAN-3C E -148.690985076312
  B           1.80069487664285      0.00118347906807     -0.00019087404499
  B           0.58589060485885      1.01628542103591      0.00013876967935
  B          -0.90136611275580      1.55877403587585      0.00006826162301
  B          -1.17312249797598     -0.00076743617863     -0.00020006845757
  B          -0.89932359757196     -1.55995617965646      0.00014194257556
  B           0.58722672680204     -1.01551932014475      0.00004196862464
