6
Coordinates from ORCA-job B6_random_3d_seed1004_d3.00_q0_m3_R2SCAN-3C E -148.016443396945
  B      -0.920069     -0.806075      1.856153
  B       1.375372      1.252369      1.415331
  B       1.540563     -1.619722      0.600001
  B      -2.108991      0.137477     -0.687796
  B       0.027843      2.030090     -1.217974
  B       0.085282     -0.994139     -1.965715
6
Coordinates from ORCA-job B6_random_3d_seed1004_d3.00_q0_m3_R2SCAN-3C E -148.032839010368
  B      -0.898859     -0.807575      1.811281
  B       1.364077      1.240855      1.390124
  B       1.513567     -1.592193      0.603077
  B      -2.065214      0.137681     -0.692219
  B       0.022040      2.008842     -1.190749
  B       0.064390     -0.987609     -1.921513
6
Coordinates from ORCA-job B6_random_3d_seed1004_d3.00_q0_m3_R2SCAN-3C E -148.050236412611
  B      -0.877373     -0.808926      1.767951
  B       1.352351      1.229560      1.365830
  B       1.485310     -1.564486      0.605726
  B      -2.019939      0.136968     -0.696336
  B       0.016512      1.987269     -1.164373
  B       0.043139     -0.980385     -1.878798
6
Coordinates from ORCA-job B6_random_3d_seed1004_d3.00_q0_m3_R2SCAN-3C E -148.078358446475
  B      -0.844818     -0.810328      1.706106
  B       1.333351      1.212502      1.330741
  B       1.440690     -1.522520      0.608428
  B      -1.949647      0.134547     -0.701159
  B       0.008820      1.953679     -1.126612
  B       0.011604     -0.967880     -1.817505
6
Coordinates from ORCA-job B6_random_3d_seed1004_d3.00_q0_m3_R2SCAN-3C E -148.124412602290
  B      -0.796291     -0.810204      1.619589
  B       1.302314      1.185691      1.280570
  B       1.370908     -1.459249      0.609772
  B      -1.845389      0.132251     -0.702571
  B      -0.002846      1.899196     -1.073682
  B      -0.028697     -0.947684     -1.733678
6
Coordinates from ORCA-job B6_random_3d_seed1004_d3.00_q0_m3_R2SCAN-3C E -148.178827762812
  B      -0.748450     -0.807813      1.536801
  B       1.268055      1.155794      1.230566
  B       1.296468     -1.392914      0.607282
  B      -1.734193      0.130415     -0.699039
  B      -0.016430      1.838592     -1.022947
  B      -0.065451     -0.924074     -1.652664
6
Coordinates from ORCA-job B6_random_3d_seed1004_d3.00_q0_m3_R2SCAN-3C E -148.241430518320
  B      -0.702958     -0.804700      1.457068
  B       1.232059      1.123323      1.178983
  B       1.217790     -1.324570      0.601873
  B      -1.619192      0.127246     -0.689268
  B      -0.030464      1.774663     -0.975457
  B      -0.097234     -0.895962     -1.573199
6
Coordinates from ORCA-job B6_random_3d_seed1004_d3.00_q0_m3_R2SCAN-3C E -148.310879750055
  B      -0.660158     -0.800299      1.375446
  B       1.194635      1.089028      1.122722
  B       1.138576     -1.255632      0.595309
  B      -1.505211      0.122849     -0.674974
  B      -0.043288      1.708352     -0.927158
  B      -0.124554     -0.864299     -1.491345
6
Coordinates from ORCA-job B6_random_3d_seed1004_d3.00_q0_m3_R2SCAN-3C E -148.359452602739
  B      -0.635037     -0.794792      1.318650
  B       1.169295      1.063948      1.080799
  B       1.087886     -1.209526      0.590287
  B      -1.432996      0.122117     -0.662016
  B      -0.052544      1.661692     -0.892067
  B      -0.136604     -0.843440     -1.435653
6
Coordinates from ORCA-job B6_random_3d_seed1004_d3.00_q0_m3_R2SCAN-3C E -148.432809149292
  B      -0.602922     -0.780032      1.230960
  B       1.129219      1.021682      1.011610
  B       1.014977     -1.138419      0.578933
  B      -1.334131      0.124684     -0.635034
  B      -0.065459      1.587085     -0.833864
  B      -0.141685     -0.814999     -1.352605
6
Coordinates from ORCA-job B6_random_3d_seed1004_d3.00_q0_m3_R2SCAN-3C E -148.503708717011
  B      -0.584501     -0.758243      1.141551
  B       1.087175      0.974618      0.931355
  B       0.949932     -1.064966      0.561742
  B      -1.243206      0.135779     -0.598032
  B      -0.079613      1.508843     -0.765391
  B      -0.129787     -0.796031     -1.271224
6
Coordinates from ORCA-job B6_random_3d_seed1004_d3.00_q0_m3_R2SCAN-3C E -148.572167756174
  B      -0.592877     -0.727100      1.056335
  B       1.043336      0.918361      0.837063
  B       0.905910     -0.987608      0.534171
  B      -1.172897      0.154117     -0.550092
  B      -0.089501      1.431855     -0.685335
  B      -0.093970     -0.789625     -1.192142
6
Coordinates from ORCA-job B6_random_3d_seed1004_d3.00_q0_m3_R2SCAN-3C E -148.632616530053
  B      -0.619920     -0.688441      0.970225
  B       1.003951      0.861004      0.742809
  B       0.875777     -0.909068      0.493079
  B      -1.129455      0.160515     -0.496435
  B      -0.085536      1.365860     -0.602338
  B      -0.044817     -0.789870     -1.107339
6
Coordinates from ORCA-job B6_random_3d_seed1004_d3.00_q0_m3_R2SCAN-3C E -148.674925169856
  B      -0.654353     -0.655792      0.884088
  B       0.970863      0.796909      0.642394
  B       0.857760     -0.830110      0.453850
  B      -1.123542      0.157410     -0.447665
  B      -0.065973      1.322522     -0.521015
  B       0.015245     -0.790939     -1.011652
6
Coordinates from ORCA-job B6_random_3d_seed1004_d3.00_q0_m3_R2SCAN-3C E -148.685544627143
  B      -0.685980     -0.630374      0.827653
  B       0.977051      0.716791      0.563005
  B       0.892962     -0.805271      0.440848
  B      -1.158678      0.218214     -0.456285
  B      -0.117744      1.281474     -0.470117
  B       0.092389     -0.780834     -0.905104
6
Coordinates from ORCA-job B6_random_3d_seed1004_d3.00_q0_m3_R2SCAN-3C E -148.687497169209
  B      -0.685056     -0.620033      0.775556
  B       0.965302      0.750036      0.509229
  B       0.893978     -0.829847      0.456082
  B      -1.195646      0.170440     -0.455137
  B      -0.063815      1.303612     -0.417052
  B       0.085237     -0.774208     -0.868678
6
Coordinates from ORCA-job B6_random_3d_seed1004_d3.00_q0_m3_R2SCAN-3C E -148.692448292252
  B      -0.666037     -0.605454      0.785328
  B       1.021705      0.706114      0.535500
  B       0.936899     -0.843054      0.527040
  B      -1.249049      0.157869     -0.493331
  B      -0.105116      1.339061     -0.438592
  B       0.061598     -0.754536     -0.915945
6
Coordinates from ORCA-job B6_random_3d_seed1004_d3.00_q0_m3_R2SCAN-3C E -148.696138673822
  B      -0.666157     -0.596810      0.799700
  B       1.012353      0.725095      0.510345
  B       0.928416     -0.889691      0.511428
  B      -1.225635      0.191502     -0.505748
  B      -0.142803      1.324061     -0.425905
  B       0.093827     -0.754157     -0.889819
6
Coordinates from ORCA-job B6_random_3d_seed1004_d3.00_q0_m3_R2SCAN-3C E -148.697935020832
  B      -0.668868     -0.584622      0.796592
  B       1.005156      0.698140      0.486412
  B       0.916100     -0.867313      0.499051
  B      -1.221116      0.180828     -0.510437
  B      -0.139901      1.314918     -0.404486
  B       0.108629     -0.741951     -0.867133
6
Coordinates from ORCA-job B6_random_3d_seed1004_d3.00_q0_m3_R2SCAN-3C E -148.698722815254
  B      -0.673204     -0.563631      0.796596
  B       1.007341      0.687166      0.465897
  B       0.927032     -0.872534      0.519572
  B      -1.219830      0.172082     -0.521354
  B      -0.149622      1.310774     -0.380134
  B       0.108284     -0.733857     -0.880577
6
Coordinates from ORCA-job B6_random_3d_seed1004_d3.00_q0_m3_R2SCAN-3C E -148.699549436860
  B      -0.663384     -0.551452      0.796844
  B       1.024069      0.679906      0.452630
  B       0.917140     -0.886073      0.529667
  B      -1.226682      0.161790     -0.537201
  B      -0.168577      1.328950     -0.364649
  B       0.117434     -0.733121     -0.877291
6
Coordinates from ORCA-job B6_random_3d_seed1004_d3.00_q0_m3_R2SCAN-3C E -148.700089743959
  B      -0.660334     -0.540481      0.805530
  B       1.026612      0.670534      0.427550
  B       0.911346     -0.887678      0.537605
  B      -1.219570      0.160248     -0.557157
  B      -0.182072      1.329485     -0.337333
  B       0.124018     -0.732108     -0.876195
6
Coordinates from ORCA-job B6_random_3d_seed1004_d3.00_q0_m3_R2SCAN-3C E -148.699876924242
  B      -0.673290     -0.511896      0.787183
  B       1.044071      0.662160      0.395775
  B       0.908090     -0.890960      0.541675
  B      -1.195793      0.147898     -0.566167
  B      -0.211481      1.332528     -0.295147
  B       0.128404     -0.739729     -0.863318
6
Coordinates from ORCA-job B6_random_3d_seed1004_d3.00_q0_m3_R2SCAN-3C E -148.700489945708
  B      -0.661105     -0.522660      0.795895
  B       1.042569      0.665459      0.394693
  B       0.904807     -0.884926      0.551222
  B      -1.204715      0.154209     -0.579027
  B      -0.205088      1.336945     -0.289529
  B       0.123532     -0.749027     -0.873255
6
Coordinates from ORCA-job B6_random_3d_seed1004_d3.00_q0_m3_R2SCAN-3C E -148.700497641365
  B      -0.665528     -0.526959      0.799612
  B       1.048010      0.668927      0.395723
  B       0.905737     -0.883128      0.548807
  B      -1.202492      0.152632     -0.583452
  B      -0.204408      1.337146     -0.289142
  B       0.118681     -0.748618     -0.871549
6
Coordinates from ORCA-job B6_random_3d_seed1004_d3.00_q0_m3_R2SCAN-3C E -148.700519519122
  B      -0.664831     -0.525707      0.796521
  B       1.050074      0.670641      0.395371
  B       0.904511     -0.881615      0.549601
  B      -1.203243      0.154237     -0.583079
  B      -0.205558      1.335631     -0.285810
  B       0.119046     -0.753187     -0.872603
6
Coordinates from ORCA-job B6_random_3d_seed1004_d3.00_q0_m3_R2SCAN-3C E -148.700529451662
  B      -0.665335     -0.523311      0.795558
  B       1.053176      0.672153      0.395980
  B       0.903692     -0.879889      0.549112
  B      -1.204454      0.153304     -0.584308
  B      -0.205625      1.332396     -0.282648
  B       0.118546     -0.754653     -0.873694
6
Coordinates from ORCA-job B6_random_3d_seed1004_d3.00_q0_m3_R2SCAN-3C E -148.700550308564
  B      -0.667339     -0.517795      0.793822
  B       1.062871      0.677546      0.400698
  B       0.902509     -0.875376      0.546162
  B      -1.209857      0.150983     -0.587901
  B      -0.204379      1.320425     -0.277237
  B       0.116195     -0.755783     -0.875544
6
Coordinates from ORCA-job B6_random_3d_seed1004_d3.00_q0_m3_R2SCAN-3C E -148.700563284673
  B      -0.669297     -0.513429      0.793194
  B       1.072192      0.682796      0.406541
  B       0.901515     -0.871339      0.542927
  B      -1.215530      0.148380     -0.591097
  B      -0.202269      1.307714     -0.274511
  B       0.113389     -0.754121     -0.877054
6
Coordinates from ORCA-job B6_random_3d_seed1004_d3.00_q0_m3_R2SCAN-3C E -148.700568114365
  B      -0.670312     -0.512776      0.793098
  B       1.076902      0.685598      0.409874
  B       0.901021     -0.869281      0.541574
  B      -1.218476      0.147278     -0.592237
  B      -0.200582      1.300938     -0.274843
  B       0.111447     -0.751757     -0.877466
6
Coordinates from ORCA-job B6_random_3d_seed1004_d3.00_q0_m3_R2SCAN-3C E -148.700569426870
  B      -0.670583     -0.513512      0.793125
  B       1.078232      0.686141      0.410085
  B       0.900566     -0.868775      0.541999
  B      -1.219088      0.147025     -0.592271
  B      -0.200101      1.299331     -0.275371
  B       0.110975     -0.750210     -0.877568
6
Coordinates from ORCA-job B6_random_3d_seed1004_d3.00_q0_m3_R2SCAN-3C E -148.700569905720
  B      -0.670539     -0.514639      0.793000
  B       1.077926      0.685601      0.409011
  B       0.900288     -0.869006      0.542990
  B      -1.218876      0.147201     -0.591744
  B      -0.200126      1.299973     -0.275981
  B       0.111328     -0.749130     -0.877275
6
Coordinates from ORCA-job B6_random_3d_seed1004_d3.00_q0_m3_R2SCAN-3C E -148.700570028650
  B      -0.670751     -0.514526      0.792830
  B       1.078669      0.685869      0.408872
  B       0.900029     -0.868722      0.543192
  B      -1.219234      0.147087     -0.591826
  B      -0.200104      1.299247     -0.275588
  B       0.111392     -0.748955     -0.877479
6
Coordinates from ORCA-job B6_random_3d_seed1004_d3.00_q0_m3_R2SCAN-3C E -148.700570048859
  B      -0.670845     -0.514601      0.792751
  B       1.078730      0.685899      0.408751
  B       0.899991     -0.868641      0.543261
  B      -1.219215      0.147111     -0.591760
  B      -0.200099      1.299321     -0.275481
  B       0.111438     -0.749089     -0.877522
