6
Coordinates from ORCA-job B6_random_3d_seed1004_d3.00_q0_m3_R2SCAN-3C E -148.700570048859
  B          -0.67084465559172     -0.51460148607604      0.79275076987371
  B           1.07872963001627      0.68589886918832      0.40875060167694
  B           0.89999090383919     -0.86864101487812      0.54326095385364
  B          -1.21921535962671      0.14711086921899     -0.59175981662225
  B          -0.20009885946339      1.29932142387243     -0.27548065382326
  B           0.11143834082637     -0.74908866132558     -0.87752185495879
