6
Coordinates from ORCA-job B6_random_3d_seed1004_d1.60_q0_m3_R2SCAN-3C E -148.700569143830
  B          -0.65190512617800     -0.50138698473455      0.81581775873036
  B           1.08883182564009      0.68087528867783      0.37269413301055
  B           0.90925443429398     -0.87074338811062      0.52965782265771
  B          -1.23113666013995      0.14908549773456     -0.56186708032480
  B          -0.20030346648773      1.30188223760768     -0.28486800009790
  B           0.08525899287160     -0.75971266117490     -0.87143463397592
