6
Coordinates from ORCA-job B6_random_3d_seed1004_d1.60_q0_m3_R2SCAN-3C E -148.601224445105
  B      -0.483843     -0.437589      0.975711
  B       0.749165      0.681756      0.742002
  B       0.825772     -0.859279      0.339506
  B      -1.110507      0.087165     -0.369428
  B       0.009715      1.088585     -0.666679
  B       0.009698     -0.560638     -1.021112
6
Coordinates from ORCA-job B6_random_3d_seed1004_d1.60_q0_m3_R2SCAN-3C E -148.631104529257
  B      -0.508462     -0.452511      0.968995
  B       0.773603      0.697072      0.724128
  B       0.856858     -0.875475      0.349541
  B      -1.155230      0.102211     -0.377187
  B       0.009438      1.118110     -0.650613
  B       0.023794     -0.589407     -1.014864
6
Coordinates from ORCA-job B6_random_3d_seed1004_d1.60_q0_m3_R2SCAN-3C E -148.651192108903
  B      -0.531569     -0.464169      0.956882
  B       0.799260      0.705263      0.704616
  B       0.890444     -0.888938      0.361212
  B      -1.201176      0.120042     -0.387503
  B       0.004333      1.143482     -0.632697
  B       0.038707     -0.615680     -1.002511
6
Coordinates from ORCA-job B6_random_3d_seed1004_d1.60_q0_m3_R2SCAN-3C E -148.664476047970
  B      -0.552951     -0.473888      0.937735
  B       0.827531      0.707096      0.682320
  B       0.921554     -0.897623      0.374510
  B      -1.241193      0.138627     -0.399858
  B      -0.007278      1.165589     -0.611708
  B       0.052337     -0.639801     -0.983000
6
Coordinates from ORCA-job B6_random_3d_seed1004_d1.60_q0_m3_R2SCAN-3C E -148.677210888823
  B      -0.581536     -0.484628      0.901091
  B       0.873714      0.701688      0.644605
  B       0.958414     -0.903718      0.395992
  B      -1.286405      0.163214     -0.420022
  B      -0.034584      1.194780     -0.575494
  B       0.070397     -0.671335     -0.946172
6
Coordinates from ORCA-job B6_random_3d_seed1004_d1.60_q0_m3_R2SCAN-3C E -148.685959094262
  B      -0.610430     -0.490914      0.854716
  B       0.928766      0.688684      0.594442
  B       0.985084     -0.904886      0.421205
  B      -1.318077      0.184010     -0.442829
  B      -0.075450      1.224282     -0.527030
  B       0.090107     -0.701177     -0.900504
6
Coordinates from ORCA-job B6_random_3d_seed1004_d1.60_q0_m3_R2SCAN-3C E -148.690473348039
  B      -0.630058     -0.491439      0.818928
  B       0.970587      0.676470      0.546696
  B       0.990398     -0.902408      0.441812
  B      -1.323002      0.192968     -0.459132
  B      -0.112901      1.244091     -0.481271
  B       0.104975     -0.719683     -0.867034
6
Coordinates from ORCA-job B6_random_3d_seed1004_d1.60_q0_m3_R2SCAN-3C E -148.693413816904
  B      -0.641334     -0.489696      0.797374
  B       0.999125      0.668853      0.502592
  B       0.979420     -0.898805      0.459965
  B      -1.308345      0.192286     -0.470816
  B      -0.142964      1.256375     -0.439605
  B       0.114098     -0.729013     -0.849510
6
Coordinates from ORCA-job B6_random_3d_seed1004_d1.60_q0_m3_R2SCAN-3C E -148.695953694351
  B      -0.645692     -0.488758      0.789699
  B       1.020020      0.666022      0.459544
  B       0.956056     -0.894427      0.479639
  B      -1.281007      0.183313     -0.482708
  B      -0.166271      1.265285     -0.399305
  B       0.116894     -0.731435     -0.846870
6
Coordinates from ORCA-job B6_random_3d_seed1004_d1.60_q0_m3_R2SCAN-3C E -148.698108770545
  B      -0.644170     -0.491729      0.795320
  B       1.037189      0.667175      0.420259
  B       0.927141     -0.889095      0.501659
  B      -1.251047      0.168155     -0.498826
  B      -0.181380      1.274668     -0.362112
  B       0.112266     -0.729174     -0.856301
6
Coordinates from ORCA-job B6_random_3d_seed1004_d1.60_q0_m3_R2SCAN-3C E -148.699477489485
  B      -0.641866     -0.498429      0.805968
  B       1.053679      0.669032      0.391201
  B       0.907411     -0.884020      0.521989
  B      -1.233551      0.154759     -0.518718
  B      -0.189735      1.286591     -0.332945
  B       0.104062     -0.727932     -0.867496
6
Coordinates from ORCA-job B6_random_3d_seed1004_d1.60_q0_m3_R2SCAN-3C E -148.700214537934
  B      -0.643258     -0.505446      0.812612
  B       1.068820      0.669538      0.374054
  B       0.903371     -0.880264      0.536225
  B      -1.231885      0.149259     -0.537032
  B      -0.194861      1.298438     -0.313413
  B       0.097812     -0.731525     -0.872447
6
Coordinates from ORCA-job B6_random_3d_seed1004_d1.60_q0_m3_R2SCAN-3C E -148.700444236884
  B      -0.647012     -0.510157      0.813877
  B       1.078565      0.669691      0.365855
  B       0.907193     -0.877662      0.542748
  B      -1.235892      0.149933     -0.548372
  B      -0.197840      1.305888     -0.302345
  B       0.094986     -0.737693     -0.871763
6
Coordinates from ORCA-job B6_random_3d_seed1004_d1.60_q0_m3_R2SCAN-3C E -148.700474786897
  B      -0.649154     -0.511475      0.813605
  B       1.081374      0.670332      0.362688
  B       0.908413     -0.876254      0.543705
  B      -1.235804      0.150920     -0.551704
  B      -0.199052      1.307748     -0.297671
  B       0.094224     -0.741271     -0.870623
6
Coordinates from ORCA-job B6_random_3d_seed1004_d1.60_q0_m3_R2SCAN-3C E -148.700503604880
  B      -0.651888     -0.512448      0.813472
  B       1.083772      0.671980      0.359946
  B       0.909292     -0.874416      0.543092
  B      -1.234093      0.152132     -0.554813
  B      -0.200194      1.309136     -0.292415
  B       0.093111     -0.746384     -0.869281
6
Coordinates from ORCA-job B6_random_3d_seed1004_d1.60_q0_m3_R2SCAN-3C E -148.700527952025
  B      -0.654200     -0.512408      0.814046
  B       1.085078      0.674440      0.359630
  B       0.909585     -0.872850      0.540442
  B      -1.231390      0.152824     -0.556818
  B      -0.200721      1.309641     -0.288724
  B       0.091648     -0.751646     -0.868574
6
Coordinates from ORCA-job B6_random_3d_seed1004_d1.60_q0_m3_R2SCAN-3C E -148.700546324446
  B      -0.655415     -0.511121      0.815409
  B       1.085419      0.677136      0.362337
  B       0.909404     -0.871944      0.536302
  B      -1.228819      0.152544     -0.557652
  B      -0.200539      1.309343     -0.287482
  B       0.089950     -0.755958     -0.868913
6
Coordinates from ORCA-job B6_random_3d_seed1004_d1.60_q0_m3_R2SCAN-3C E -148.700556058154
  B      -0.655202     -0.509227      0.816740
  B       1.085270      0.678869      0.366377
  B       0.909070     -0.871801      0.532806
  B      -1.227781      0.151508     -0.557613
  B      -0.199966      1.308623     -0.288341
  B       0.088608     -0.757973     -0.869969
6
Coordinates from ORCA-job B6_random_3d_seed1004_d1.60_q0_m3_R2SCAN-3C E -148.700560264206
  B      -0.654390     -0.507634      0.817346
  B       1.085309      0.679534      0.369368
  B       0.908875     -0.871870      0.531060
  B      -1.228019      0.150510     -0.557567
  B      -0.199550      1.307974     -0.289292
  B       0.087775     -0.758514     -0.870914
6
Coordinates from ORCA-job B6_random_3d_seed1004_d1.60_q0_m3_R2SCAN-3C E -148.700562527279
  B      -0.653630     -0.506478      0.817268
  B       1.085653      0.679715      0.370865
  B       0.908824     -0.871813      0.530521
  B      -1.228636      0.149894     -0.557846
  B      -0.199453      1.307449     -0.289381
  B       0.087241     -0.758766     -0.871427
6
Coordinates from ORCA-job B6_random_3d_seed1004_d1.60_q0_m3_R2SCAN-3C E -148.700564680233
  B      -0.652799     -0.505094      0.816756
  B       1.086358      0.679973      0.371992
  B       0.908870     -0.871525      0.530210
  B      -1.229439      0.149438     -0.558617
  B      -0.199551      1.306687     -0.288583
  B       0.086561     -0.759479     -0.871758
6
Coordinates from ORCA-job B6_random_3d_seed1004_d1.60_q0_m3_R2SCAN-3C E -148.700566311386
  B      -0.652165     -0.503838      0.816021
  B       1.087100      0.680278      0.372384
  B       0.908937     -0.871136      0.530133
  B      -1.230004      0.149308     -0.559594
  B      -0.199832      1.305783     -0.287141
  B       0.085964     -0.760396     -0.871804
6
Coordinates from ORCA-job B6_random_3d_seed1004_d1.60_q0_m3_R2SCAN-3C E -148.700567321917
  B      -0.651841     -0.502938      0.815456
  B       1.087633      0.680577      0.372248
  B       0.908999     -0.870833      0.530146
  B      -1.230205      0.149436     -0.560476
  B      -0.200168      1.304904     -0.285696
  B       0.085582     -0.761146     -0.871677
6
Coordinates from ORCA-job B6_random_3d_seed1004_d1.60_q0_m3_R2SCAN-3C E -148.700567805043
  B      -0.651794     -0.502563      0.815347
  B       1.087781      0.680705      0.372025
  B       0.909051     -0.870782      0.530146
  B      -1.230186      0.149599     -0.560897
  B      -0.200359      1.304334     -0.285060
  B       0.085508     -0.761293     -0.871561
6
Coordinates from ORCA-job B6_random_3d_seed1004_d1.60_q0_m3_R2SCAN-3C E -148.700568175610
  B      -0.651819     -0.502398      0.815492
  B       1.087729      0.680687      0.371936
  B       0.909116     -0.870897      0.530117
  B      -1.230194      0.149697     -0.561028
  B      -0.200426      1.303874     -0.285029
  B       0.085594     -0.760964     -0.871488
6
Coordinates from ORCA-job B6_random_3d_seed1004_d1.60_q0_m3_R2SCAN-3C E -148.700568525569
  B      -0.651768     -0.501846      0.815754
  B       1.087941      0.680717      0.372076
  B       0.909191     -0.870980      0.529950
  B      -1.230370      0.149606     -0.561473
  B      -0.200539      1.303040     -0.284810
  B       0.085546     -0.760537     -0.871496
6
Coordinates from ORCA-job B6_random_3d_seed1004_d1.60_q0_m3_R2SCAN-3C E -148.700568718272
  B      -0.651794     -0.501763      0.815869
  B       1.088058      0.680663      0.372217
  B       0.909226     -0.871007      0.529900
  B      -1.230546      0.149477     -0.561521
  B      -0.200493      1.302822     -0.284970
  B       0.085550     -0.760191     -0.871496
6
Coordinates from ORCA-job B6_random_3d_seed1004_d1.60_q0_m3_R2SCAN-3C E -148.700568284831
  B      -0.651714     -0.500440      0.816315
  B       1.089198      0.680639      0.373463
  B       0.909476     -0.870972      0.529324
  B      -1.231951      0.148589     -0.562340
  B      -0.200256      1.300547     -0.285254
  B       0.085247     -0.758363     -0.871507
6
Coordinates from ORCA-job B6_random_3d_seed1004_d1.60_q0_m3_R2SCAN-3C E -148.700569040329
  B      -0.651814     -0.501247      0.815937
  B       1.088708      0.680736      0.372773
  B       0.909305     -0.870871      0.529644
  B      -1.231214      0.149049     -0.561876
  B      -0.200327      1.301810     -0.285017
  B       0.085342     -0.759478     -0.871461
6
Coordinates from ORCA-job B6_random_3d_seed1004_d1.60_q0_m3_R2SCAN-3C E -148.700569143830
  B      -0.651905     -0.501387      0.815818
  B       1.088832      0.680875      0.372694
  B       0.909254     -0.870743      0.529658
  B      -1.231137      0.149085     -0.561867
  B      -0.200303      1.301882     -0.284868
  B       0.085259     -0.759713     -0.871435
