6
Coordinates from ORCA-job B6_compact_planar_triangle_d2.00_q0_m3_R2SCAN-3C E -148.661215672110
  B          -1.63972320514797     -0.95028710677258     -0.00000001126622
  B          -0.00000566232547     -0.99293490228952      0.00000000866182
  B           1.63973959955411     -0.95030354227842     -0.00000001274690
  B          -0.83927035811749      0.49170873281750      0.00000001392247
  B           0.83926582373373      0.49171229317963      0.00000001679571
  B          -0.00000619769691      1.91010452534340     -0.00000001536689
