6
Coordinates from ORCA-job B6_compact_planar_triangle_d2.00_q0_m3_R2SCAN-3C E -148.491335995195
  B      -2.000000     -1.154701      0.000000
  B       0.000000     -1.154701      0.000000
  B       2.000000     -1.154701      0.000000
  B      -1.000000      0.577350      0.000000
  B       1.000000      0.577350      0.000000
  B       0.000000      2.309401      0.000000
6
Coordinates from ORCA-job B6_compact_planar_triangle_d2.00_q0_m3_R2SCAN-3C E -148.530456979253
  B      -1.938824     -1.121426     -0.000000
  B      -0.000000     -1.136433      0.000000
  B       1.938826     -1.121428     -0.000000
  B      -0.978942      0.566907      0.000000
  B       0.978942      0.566907      0.000000
  B      -0.000002      2.245473     -0.000000
6
Coordinates from ORCA-job B6_compact_planar_triangle_d2.00_q0_m3_R2SCAN-3C E -148.567567603743
  B      -1.877992     -1.088311     -0.000000
  B       0.000001     -1.117468      0.000000
  B       1.877987     -1.088302     -0.000000
  B      -0.957530      0.556287      0.000000
  B       0.957529      0.556286      0.000000
  B       0.000005      2.181507     -0.000000
6
Coordinates from ORCA-job B6_compact_planar_triangle_d2.00_q0_m3_R2SCAN-3C E -148.615737922834
  B      -1.787532     -1.038800      0.000000
  B      -0.000003     -1.087655     -0.000000
  B       1.787542     -1.038815      0.000000
  B      -0.924819      0.539943      0.000000
  B       0.924820      0.539945     -0.000000
  B      -0.000009      2.085383     -0.000000
6
Coordinates from ORCA-job B6_compact_planar_triangle_d2.00_q0_m3_R2SCAN-3C E -148.657865668154
  B      -1.656975     -0.965497     -0.000000
  B      -0.000001     -1.036651     -0.000000
  B       1.656979     -0.965506     -0.000000
  B      -0.870946      0.512491      0.000000
  B       0.870948      0.512493      0.000000
  B      -0.000006      1.942671     -0.000000
6
Coordinates from ORCA-job B6_compact_planar_triangle_d2.00_q0_m3_R2SCAN-3C E -148.660710990386
  B      -1.622829     -0.940106      0.000000
  B      -0.000000     -1.005989     -0.000000
  B       1.622828     -0.940108      0.000000
  B      -0.839651      0.494383     -0.000000
  B       0.839655      0.494385     -0.000000
  B      -0.000002      1.897435      0.000000
6
Coordinates from ORCA-job B6_compact_planar_triangle_d2.00_q0_m3_R2SCAN-3C E -148.661170115268
  B      -1.636949     -0.946755      0.000000
  B      -0.000000     -1.002970     -0.000000
  B       1.636948     -0.946754      0.000000
  B      -0.839053      0.492862     -0.000000
  B       0.839056      0.492863     -0.000000
  B      -0.000001      1.910754      0.000000
6
Coordinates from ORCA-job B6_compact_planar_triangle_d2.00_q0_m3_R2SCAN-3C E -148.661207374439
  B      -1.639959     -0.948424      0.000000
  B       0.000003     -0.997533     -0.000000
  B       1.639944     -0.948405      0.000000
  B      -0.837484      0.491390     -0.000000
  B       0.837486      0.491388     -0.000000
  B       0.000009      1.911583      0.000000
6
Coordinates from ORCA-job B6_compact_planar_triangle_d2.00_q0_m3_R2SCAN-3C E -148.661213135228
  B      -1.640172     -0.949334     -0.000000
  B      -0.000004     -0.995155      0.000000
  B       1.640184     -0.949345     -0.000000
  B      -0.838168      0.491375      0.000000
  B       0.838163      0.491377      0.000000
  B      -0.000004      1.911082     -0.000000
6
Coordinates from ORCA-job B6_compact_planar_triangle_d2.00_q0_m3_R2SCAN-3C E -148.661215638389
  B      -1.639869     -0.950348      0.000000
  B       0.000007     -0.992889     -0.000000
  B       1.639850     -0.950330      0.000000
  B      -0.839183      0.491702     -0.000000
  B       0.839189      0.491698     -0.000000
  B       0.000006      1.910167      0.000000
6
Coordinates from ORCA-job B6_compact_planar_triangle_d2.00_q0_m3_R2SCAN-3C E -148.661215672110
  B      -1.639723     -0.950287     -0.000000
  B      -0.000006     -0.992935      0.000000
  B       1.639740     -0.950304     -0.000000
  B      -0.839270      0.491709      0.000000
  B       0.839266      0.491712      0.000000
  B      -0.000006      1.910105     -0.000000
