6
Coordinates from ORCA-job B6_rhombic_planar_d2.20_q0_m5_R2SCAN-3C E -148.325863357212
  B      -2.750000     -0.952628      0.000000
  B      -0.550000     -0.952628      0.000000
  B       1.650000     -0.952628      0.000000
  B      -1.650000      0.952628      0.000000
  B       0.550000      0.952628      0.000000
  B       2.750000      0.952628      0.000000
6
Coordinates from ORCA-job B6_rhombic_planar_d2.20_q0_m5_R2SCAN-3C E -148.364940109990
  B      -2.682593     -0.924328      0.000000
  B      -0.530776     -0.934858     -0.000000
  B       1.612871     -0.928118      0.000000
  B      -1.612871      0.928118     -0.000000
  B       0.530776      0.934858     -0.000000
  B       2.682593      0.924328      0.000000
6
Coordinates from ORCA-job B6_rhombic_planar_d2.20_q0_m5_R2SCAN-3C E -148.407423534720
  B      -2.614179     -0.893688      0.000000
  B      -0.509906     -0.918409     -0.000000
  B       1.578964     -0.903536      0.000000
  B      -1.578964      0.903536      0.000000
  B       0.509906      0.918409     -0.000000
  B       2.614179      0.893688      0.000000
6
Coordinates from ORCA-job B6_rhombic_planar_d2.20_q0_m5_R2SCAN-3C E -148.475541729304
  B      -2.509219     -0.845581      0.000000
  B      -0.477181     -0.895047     -0.000000
  B       1.531703     -0.867741      0.000000
  B      -1.531703      0.867741      0.000000
  B       0.477181      0.895047     -0.000000
  B       2.509219      0.845581      0.000000
6
Coordinates from ORCA-job B6_rhombic_planar_d2.20_q0_m5_R2SCAN-3C E -148.574992257492
  B      -2.349873     -0.772424      0.000000
  B      -0.428008     -0.861124      0.000000
  B       1.462264     -0.814691     -0.000000
  B      -1.462264      0.814691     -0.000000
  B       0.428008      0.861124     -0.000000
  B       2.349873      0.772424      0.000000
6
Coordinates from ORCA-job B6_rhombic_planar_d2.20_q0_m5_R2SCAN-3C E -148.656226063113
  B      -2.192144     -0.696498     -0.000000
  B      -0.376584     -0.830398      0.000000
  B       1.385794     -0.754682      0.000000
  B      -1.385794      0.754682      0.000000
  B       0.376584      0.830398      0.000000
  B       2.192144      0.696498     -0.000000
6
Coordinates from ORCA-job B6_rhombic_planar_d2.20_q0_m5_R2SCAN-3C E -148.692958614336
  B      -2.061938     -0.636601     -0.000000
  B      -0.335379     -0.791890     -0.000000
  B       1.280211     -0.682101      0.000000
  B      -1.280211      0.682101      0.000000
  B       0.335379      0.791890      0.000000
  B       2.061938      0.636601     -0.000000
6
Coordinates from ORCA-job B6_rhombic_planar_d2.20_q0_m5_R2SCAN-3C E -148.695543459907
  B      -2.080696     -0.648470     -0.000000
  B      -0.348871     -0.765075     -0.000000
  B       1.237395     -0.653707      0.000000
  B      -1.237395      0.653707     -0.000000
  B       0.348871      0.765075      0.000000
  B       2.080696      0.648470     -0.000000
6
Coordinates from ORCA-job B6_rhombic_planar_d2.20_q0_m5_R2SCAN-3C E -148.695334458801
  B      -2.108757     -0.636991     -0.000000
  B      -0.364889     -0.758351      0.000000
  B       1.264309     -0.622118      0.000000
  B      -1.264309      0.622118      0.000000
  B       0.364889      0.758351      0.000000
  B       2.108757      0.636991     -0.000000
6
Coordinates from ORCA-job B6_rhombic_planar_d2.20_q0_m5_R2SCAN-3C E -148.696343783725
  B      -2.103525     -0.643176     -0.000000
  B      -0.351741     -0.764451      0.000000
  B       1.260699     -0.642940      0.000000
  B      -1.260699      0.642940      0.000000
  B       0.351741      0.764451      0.000000
  B       2.103525      0.643176     -0.000000
6
Coordinates from ORCA-job B6_rhombic_planar_d2.20_q0_m5_R2SCAN-3C E -148.696362991935
  B      -2.101045     -0.642094      0.000000
  B      -0.350624     -0.763967     -0.000000
  B       1.256296     -0.640696      0.000000
  B      -1.256296      0.640696      0.000000
  B       0.350624      0.763967      0.000000
  B       2.101045      0.642094     -0.000000
6
Coordinates from ORCA-job B6_rhombic_planar_d2.20_q0_m5_R2SCAN-3C E -148.696365427457
  B      -2.102091     -0.642086     -0.000000
  B      -0.350965     -0.764626      0.000000
  B       1.256926     -0.640447      0.000000
  B      -1.256926      0.640447      0.000000
  B       0.350965      0.764626      0.000000
  B       2.102091      0.642086     -0.000000
6
Coordinates from ORCA-job B6_rhombic_planar_d2.20_q0_m5_R2SCAN-3C E -148.696365825760
  B      -2.102589     -0.641940      0.000000
  B      -0.350814     -0.765023     -0.000000
  B       1.256885     -0.640130     -0.000000
  B      -1.256885      0.640130     -0.000000
  B       0.350814      0.765023     -0.000000
  B       2.102589      0.641940      0.000000
6
Coordinates from ORCA-job B6_rhombic_planar_d2.20_q0_m5_R2SCAN-3C E -148.696365852361
  B      -2.102667     -0.641905     -0.000000
  B      -0.350776     -0.765126      0.000000
  B       1.256802     -0.640041      0.000000
  B      -1.256801      0.640042      0.000000
  B       0.350776      0.765126      0.000000
  B       2.102667      0.641905     -0.000000
