6
Coordinates from ORCA-job B6_rhombic_planar_d2.20_q0_m5_R2SCAN-3C E -148.696365852361
  B          -2.10266675178971     -0.64190535624613     -0.00000002211574
  B          -0.35077622793396     -0.76512554265257      0.00000001719387
  B           1.25680154489794     -0.64004145858057      0.00000000531634
  B          -1.25680148680037      0.64004154607960      0.00000000255833
  B           0.35077626709934      0.76512558059627      0.00000002157046
  B           2.10266665452677      0.64190523080341     -0.00000002452326
