6
Coordinates from ORCA-job B6_planar_ring_d2.20_q0_m1_R2SCAN-3C E -148.717725000077
  B           2.00451782369303     -0.02545061243602     -0.20297092834268
  B           0.62129741252591      0.72267216865484     -0.07046245899752
  B          -0.90497320414135      1.00041581292243      0.27158098908750
  B          -2.00450456072503      0.02510425008587     -0.20289883274351
  B          -0.62136105455473     -0.72292240530543     -0.06880573586647
  B           0.90502358320218     -0.99981921392169      0.27355696686268
