6
Coordinates from ORCA-job B6_planar_ring_d2.20_q0_m1_R2SCAN-3C E -148.256498718560
  B       2.200000     -0.000000      0.000000
  B       1.100000      1.905256      0.000000
  B      -1.100000      1.905256      0.000000
  B      -2.200000      0.000000      0.000000
  B      -1.100000     -1.905256      0.000000
  B       1.100000     -1.905256      0.000000
6
Coordinates from ORCA-job B6_planar_ring_d2.20_q0_m1_R2SCAN-3C E -148.297475123246
  B       2.135193      0.000000     -0.000000
  B       1.067600      1.849123      0.000000
  B      -1.067600      1.849123     -0.000000
  B      -2.135193     -0.000000      0.000000
  B      -1.067600     -1.849123     -0.000000
  B       1.067600     -1.849123     -0.000000
6
Coordinates from ORCA-job B6_planar_ring_d2.20_q0_m1_R2SCAN-3C E -148.339464985860
  B       2.070451      0.000000     -0.000000
  B       1.035205      1.792950      0.000000
  B      -1.035205      1.792950     -0.000000
  B      -2.070451     -0.000000     -0.000000
  B      -1.035205     -1.792950      0.000000
  B       1.035205     -1.792950     -0.000000
6
Coordinates from ORCA-job B6_planar_ring_d2.20_q0_m1_R2SCAN-3C E -148.401130961121
  B       1.973291      0.000000     -0.000000
  B       0.986601      1.708723      0.000000
  B      -0.986601      1.708723     -0.000000
  B      -1.973291     -0.000000      0.000000
  B      -0.986601     -1.708723      0.000000
  B       0.986601     -1.708723     -0.000000
6
Coordinates from ORCA-job B6_planar_ring_d2.20_q0_m1_R2SCAN-3C E -148.480251394679
  B       1.827517     -0.000000     -0.000000
  B       0.913731      1.582383      0.000000
  B      -0.913731      1.582383     -0.000000
  B      -1.827517     -0.000000     -0.000000
  B      -0.913731     -1.582383      0.000000
  B       0.913731     -1.582383      0.000000
6
Coordinates from ORCA-job B6_planar_ring_d2.20_q0_m1_R2SCAN-3C E -148.519508692357
  B       1.676370      0.000000     -0.000000
  B       0.838108      1.451379      0.000000
  B      -0.838108      1.451379     -0.000000
  B      -1.676370     -0.000000     -0.000000
  B      -0.838108     -1.451379      0.000000
  B       0.838108     -1.451379     -0.000000
6
Coordinates from ORCA-job B6_planar_ring_d2.20_q0_m1_R2SCAN-3C E -148.519544136588
  B       1.671537      0.000001     -0.000000
  B       0.835039      1.446060      0.000000
  B      -0.835039      1.446060     -0.000000
  B      -1.671537      0.000001     -0.000000
  B      -0.835040     -1.446061      0.000000
  B       0.835040     -1.446061     -0.000000
6
Coordinates from ORCA-job B6_planar_ring_d2.20_q0_m1_R2SCAN-3C E -148.600047153920
  B       1.676037      0.000003     -0.000037
  B       0.829849      1.434939      0.000049
  B      -0.829841      1.434953     -0.000012
  B      -1.676053      0.000003     -0.000037
  B      -0.829845     -1.434956      0.000049
  B       0.829853     -1.434942     -0.000012
6
Coordinates from ORCA-job B6_planar_ring_d2.20_q0_m1_R2SCAN-3C E -148.631786728232
  B       1.648182      0.000117     -0.000135
  B       0.750482      1.298216     -0.011055
  B      -0.750289      1.298235      0.011190
  B      -1.648264     -0.000101     -0.000135
  B      -0.750446     -1.298287     -0.011055
  B       0.750335     -1.298181      0.011190
6
Coordinates from ORCA-job B6_planar_ring_d2.20_q0_m1_R2SCAN-3C E -148.649024291353
  B       1.668836      0.000520     -0.000538
  B       0.782056      1.236595     -0.075451
  B      -0.781259      1.236146      0.075986
  B      -1.668717     -0.000548     -0.000540
  B      -0.782107     -1.236478     -0.075444
  B       0.781190     -1.236234      0.075988
6
Coordinates from ORCA-job B6_planar_ring_d2.20_q0_m1_R2SCAN-3C E -148.644347514431
  B       1.714681      0.000074     -0.000605
  B       0.830488      1.127901     -0.050744
  B      -0.829945      1.127142      0.051358
  B      -1.714880     -0.000020     -0.000605
  B      -0.830398     -1.128072     -0.050753
  B       0.830054     -1.127025      0.051349
6
Coordinates from ORCA-job B6_planar_ring_d2.20_q0_m1_R2SCAN-3C E -148.660226625625
  B       1.738362      0.000017     -0.000830
  B       0.818849      1.178957     -0.017970
  B      -0.818301      1.177797      0.018806
  B      -1.738289     -0.000032     -0.000834
  B      -0.818912     -1.178893     -0.017971
  B       0.818290     -1.177846      0.018799
6
Coordinates from ORCA-job B6_planar_ring_d2.20_q0_m1_R2SCAN-3C E -148.665833808862
  B       1.777167      0.001789     -0.002234
  B       0.809367      1.148155      0.002195
  B      -0.806014      1.147156      0.000049
  B      -1.777547     -0.001613     -0.002237
  B      -0.809075     -1.148506      0.002190
  B       0.806103     -1.146980      0.000037
6
Coordinates from ORCA-job B6_planar_ring_d2.20_q0_m1_R2SCAN-3C E -148.681391580754
  B       1.873045     -0.004344     -0.007075
  B       0.796281      1.067228      0.006630
  B      -0.801871      1.063642      0.000453
  B      -1.871516      0.003395     -0.007068
  B      -0.797369     -1.065849      0.006617
  B       0.801430     -1.064073      0.000443
6
Coordinates from ORCA-job B6_planar_ring_d2.20_q0_m1_R2SCAN-3C E -148.696785368246
  B       1.939875     -0.000868     -0.013282
  B       0.798309      1.011218      0.010001
  B      -0.797390      1.008137      0.003282
  B      -1.939176      0.000626     -0.013281
  B      -0.798729     -1.010840      0.009989
  B       0.797110     -1.008274      0.003291
6
Coordinates from ORCA-job B6_planar_ring_d2.20_q0_m1_R2SCAN-3C E -148.704652504563
  B       1.985032     -0.001750     -0.012707
  B       0.796829      0.973396      0.009540
  B      -0.797552      0.970515      0.003170
  B      -1.984415      0.001376     -0.012709
  B      -0.797249     -0.973019      0.009530
  B       0.797355     -0.970517      0.003176
6
Coordinates from ORCA-job B6_planar_ring_d2.20_q0_m1_R2SCAN-3C E -148.709952047267
  B       2.048256      0.003447     -0.011757
  B       0.797983      0.918415      0.007968
  B      -0.788442      0.915557      0.003787
  B      -2.048113     -0.002897     -0.011768
  B      -0.797794     -0.918792      0.007973
  B       0.788110     -0.915731      0.003797
6
Coordinates from ORCA-job B6_planar_ring_d2.20_q0_m1_R2SCAN-3C E -148.709705155550
  B       2.061386     -0.015894     -0.032249
  B       0.774310      0.922110      0.012658
  B      -0.805564      0.920305      0.019621
  B      -2.062116      0.014140     -0.032266
  B      -0.775378     -0.921683      0.012632
  B       0.807361     -0.918979      0.019603
6
Coordinates from ORCA-job B6_planar_ring_d2.20_q0_m1_R2SCAN-3C E -148.710333479599
  B       2.069996      0.002207     -0.048230
  B       0.796007      0.936762      0.010687
  B      -0.787959      0.932337      0.037475
  B      -2.069344     -0.002427     -0.048191
  B      -0.795544     -0.936255      0.010740
  B       0.786844     -0.932624      0.037519
6
Coordinates from ORCA-job B6_planar_ring_d2.20_q0_m1_R2SCAN-3C E -148.710677875735
  B       2.057820      0.001465     -0.048498
  B       0.789232      0.924778      0.013870
  B      -0.784719      0.922120      0.034533
  B      -2.057601     -0.000899     -0.048457
  B      -0.790363     -0.925030      0.013900
  B       0.785631     -0.922434      0.034653
6
Coordinates from ORCA-job B6_planar_ring_d2.20_q0_m1_R2SCAN-3C E -148.710713460938
  B       2.057239     -0.000714     -0.060768
  B       0.790278      0.925292      0.019551
  B      -0.791471      0.924062      0.041144
  B      -2.057763      0.001552     -0.060774
  B      -0.785867     -0.926025      0.019673
  B       0.787584     -0.924167      0.041174
6
Coordinates from ORCA-job B6_planar_ring_d2.20_q0_m1_R2SCAN-3C E -148.710747203399
  B       2.054486     -0.008985     -0.103119
  B       0.784150      0.928895      0.038275
  B      -0.797651      0.930457      0.065245
  B      -2.055322      0.002290     -0.103276
  B      -0.786067     -0.925805      0.038094
  B       0.800403     -0.926853      0.064781
6
Coordinates from ORCA-job B6_planar_ring_d2.20_q0_m1_R2SCAN-3C E -148.710985003676
  B       2.046441     -0.004546     -0.142394
  B       0.781533      0.925006      0.053046
  B      -0.797563      0.926725      0.088607
  B      -2.044840      0.006764     -0.142219
  B      -0.785648     -0.925075      0.053687
  B       0.800077     -0.928874      0.089274
6
Coordinates from ORCA-job B6_planar_ring_d2.20_q0_m1_R2SCAN-3C E -148.711113528002
  B       2.017835     -0.002629     -0.191427
  B       0.786645      0.918560      0.069877
  B      -0.793843      0.929713      0.122025
  B      -2.022763     -0.000763     -0.192039
  B      -0.778694     -0.919698      0.069981
  B       0.790819     -0.925183      0.121584
6
Coordinates from ORCA-job B6_planar_ring_d2.20_q0_m1_R2SCAN-3C E -148.711198659980
  B       2.012513     -0.004794     -0.226393
  B       0.776246      0.918511      0.083040
  B      -0.802968      0.927879      0.141940
  B      -2.007446      0.007170     -0.225569
  B      -0.779366     -0.916650      0.084248
  B       0.801021     -0.932116      0.142735
6
Coordinates from ORCA-job B6_planar_ring_d2.20_q0_m1_R2SCAN-3C E -148.711284807732
  B       2.014657     -0.000740     -0.202782
  B       0.771244      0.917613      0.071395
  B      -0.804702      0.939767      0.128688
  B      -2.013490      0.011006     -0.202223
  B      -0.777543     -0.922197      0.073461
  B       0.809833     -0.945449      0.131460
6
Coordinates from ORCA-job B6_planar_ring_d2.20_q0_m1_R2SCAN-3C E -148.711442753860
  B       2.012516     -0.006141     -0.204500
  B       0.769181      0.913227      0.068502
  B      -0.809650      0.947178      0.135162
  B      -2.014093      0.005373     -0.203923
  B      -0.768388     -0.913907      0.068336
  B       0.810434     -0.945731      0.136422
6
Coordinates from ORCA-job B6_planar_ring_d2.20_q0_m1_R2SCAN-3C E -148.711815941788
  B       2.007451     -0.012908     -0.211180
  B       0.754204      0.894635      0.060309
  B      -0.825838      0.963488      0.152012
  B      -2.010820      0.001814     -0.211143
  B      -0.746874     -0.891292      0.058976
  B       0.821876     -0.955738      0.151027
6
Coordinates from ORCA-job B6_planar_ring_d2.20_q0_m1_R2SCAN-3C E -148.712357324624
  B       2.001500     -0.016957     -0.220755
  B       0.736896      0.875714      0.052177
  B      -0.840262      0.976994      0.170383
  B      -2.006770      0.003464     -0.221398
  B      -0.727605     -0.872327      0.051009
  B       0.836241     -0.966889      0.168583
6
Coordinates from ORCA-job B6_planar_ring_d2.20_q0_m1_R2SCAN-3C E -148.713095678304
  B       1.995949     -0.021150     -0.229881
  B       0.717568      0.855660      0.043989
  B      -0.856160      0.989488      0.187984
  B      -1.999785      0.005094     -0.230633
  B      -0.707603     -0.850168      0.043094
  B       0.850032     -0.978923      0.185446
6
Coordinates from ORCA-job B6_planar_ring_d2.20_q0_m1_R2SCAN-3C E -148.713987181841
  B       1.989531     -0.024785     -0.240192
  B       0.697326      0.831811      0.036683
  B      -0.870969      1.000115      0.205874
  B      -1.994909      0.008533     -0.241703
  B      -0.686756     -0.827051      0.036470
  B       0.865776     -0.988623      0.202868
6
Coordinates from ORCA-job B6_planar_ring_d2.20_q0_m1_R2SCAN-3C E -148.714955044587
  B       1.983298     -0.028649     -0.250285
  B       0.676160      0.807862      0.029597
  B      -0.886486      1.009773      0.223040
  B      -1.987115      0.011082     -0.251874
  B      -0.665503     -0.801401      0.029964
  B       0.879646     -0.998666      0.219556
6
Coordinates from ORCA-job B6_planar_ring_d2.20_q0_m1_R2SCAN-3C E -148.716052853585
  B       1.983506     -0.028160     -0.258682
  B       0.651045      0.777274      0.023707
  B      -0.903253      1.010899      0.233828
  B      -1.981024      0.020384     -0.258445
  B      -0.647757     -0.770788      0.025652
  B       0.897483     -1.009608      0.233938
6
Coordinates from ORCA-job B6_planar_ring_d2.20_q0_m1_R2SCAN-3C E -148.716744133842
  B       1.976661     -0.030487     -0.268249
  B       0.628333      0.746816      0.018306
  B      -0.917252      1.019621      0.248927
  B      -1.976352      0.024424     -0.268576
  B      -0.625515     -0.742894      0.020281
  B       0.914125     -1.017480      0.249310
6
Coordinates from ORCA-job B6_planar_ring_d2.20_q0_m1_R2SCAN-3C E -148.716064845918
  B       2.001127     -0.013838     -0.256840
  B       0.607529      0.697190      0.008692
  B      -0.926311      1.005567      0.237559
  B      -1.996979      0.044837     -0.253992
  B      -0.626525     -0.709515      0.014095
  B       0.941160     -1.024241      0.250487
6
Coordinates from ORCA-job B6_planar_ring_d2.20_q0_m1_R2SCAN-3C E -148.716516496549
  B       1.971723     -0.033331     -0.275453
  B       0.596965      0.701602     -0.001644
  B      -0.939010      1.035681      0.277612
  B      -1.966519      0.019968     -0.275651
  B      -0.592306     -0.693546      0.000301
  B       0.929147     -1.030373      0.274834
6
Coordinates from ORCA-job B6_planar_ring_d2.20_q0_m1_R2SCAN-3C E -148.716910620310
  B       1.974117     -0.031845     -0.264249
  B       0.629588      0.749801      0.002072
  B      -0.915662      1.024403      0.263715
  B      -1.976241      0.019699     -0.265673
  B      -0.622567     -0.745693      0.003014
  B       0.910764     -1.016365      0.261121
6
Coordinates from ORCA-job B6_planar_ring_d2.20_q0_m1_R2SCAN-3C E -148.717220283006
  B       1.987628     -0.024999     -0.259291
  B       0.621680      0.728711     -0.005112
  B      -0.916570      1.008752      0.260827
  B      -1.987757      0.032488     -0.259030
  B      -0.626220     -0.732447     -0.002573
  B       0.921238     -1.012506      0.265179
6
Coordinates from ORCA-job B6_planar_ring_d2.20_q0_m1_R2SCAN-3C E -148.717322544362
  B       1.993286     -0.026535     -0.242632
  B       0.618940      0.727110     -0.012387
  B      -0.920719      1.016861      0.252618
  B      -1.988950      0.025355     -0.242079
  B      -0.620938     -0.724674     -0.009863
  B       0.918381     -1.018116      0.254344
6
Coordinates from ORCA-job B6_planar_ring_d2.20_q0_m1_R2SCAN-3C E -148.717419219114
  B       1.984732     -0.029907     -0.250550
  B       0.616725      0.725148     -0.018213
  B      -0.920019      1.016214      0.267841
  B      -1.984269      0.025566     -0.251016
  B      -0.614697     -0.723538     -0.016131
  B       0.917529     -1.013483      0.268070
6
Coordinates from ORCA-job B6_planar_ring_d2.20_q0_m1_R2SCAN-3C E -148.717520808800
  B       1.990142     -0.028109     -0.242381
  B       0.618007      0.724910     -0.026433
  B      -0.916880      1.012083      0.267190
  B      -1.989650      0.026779     -0.242672
  B      -0.617780     -0.724436     -0.024174
  B       0.916162     -1.011227      0.268469
6
Coordinates from ORCA-job B6_planar_ring_d2.20_q0_m1_R2SCAN-3C E -148.717595958335
  B       1.993760     -0.026938     -0.233326
  B       0.619830      0.725045     -0.034799
  B      -0.914293      1.009211      0.266178
  B      -1.993814      0.027293     -0.233378
  B      -0.620216     -0.725705     -0.032900
  B       0.914733     -1.008906      0.268224
6
Coordinates from ORCA-job B6_planar_ring_d2.20_q0_m1_R2SCAN-3C E -148.717672118528
  B       1.998544     -0.026874     -0.222730
  B       0.620339      0.723987     -0.047590
  B      -0.911391      1.005515      0.268469
  B      -1.998110      0.026385     -0.222876
  B      -0.620629     -0.723807     -0.045439
  B       0.911247     -1.005205      0.270166
6
Coordinates from ORCA-job B6_planar_ring_d2.20_q0_m1_R2SCAN-3C E -148.717723485335
  B       2.003525     -0.025603     -0.205649
  B       0.620886      0.721754     -0.067402
  B      -0.906094      1.001011      0.271244
  B      -2.003973      0.025458     -0.205772
  B      -0.620842     -0.722127     -0.065550
  B       0.906497     -1.000493      0.273128
6
Coordinates from ORCA-job B6_planar_ring_d2.20_q0_m1_R2SCAN-3C E -148.717724949920
  B       2.004560     -0.025464     -0.202998
  B       0.621376      0.722663     -0.070473
  B      -0.905021      1.000390      0.271679
  B      -2.004618      0.025025     -0.203166
  B      -0.621361     -0.722725     -0.068435
  B       0.905064     -0.999888      0.273393
6
Coordinates from ORCA-job B6_planar_ring_d2.20_q0_m1_R2SCAN-3C E -148.717724994267
  B       2.004527     -0.025452     -0.202896
  B       0.621318      0.722654     -0.070541
  B      -0.904971      1.000390      0.271607
  B      -2.004570      0.025101     -0.202909
  B      -0.621349     -0.722874     -0.068759
  B       0.905045     -0.999819      0.273498
6
Coordinates from ORCA-job B6_planar_ring_d2.20_q0_m1_R2SCAN-3C E -148.717725000077
  B       2.004518     -0.025451     -0.202971
  B       0.621297      0.722672     -0.070462
  B      -0.904973      1.000416      0.271581
  B      -2.004505      0.025104     -0.202899
  B      -0.621361     -0.722922     -0.068806
  B       0.905024     -0.999819      0.273557
