6
Coordinates from ORCA-job B6_rectangular_planar_d1.60_q0_m3_R2SCAN-3C E -148.684500538417
  B      -1.600000     -0.800000      0.000000
  B       0.000000     -0.800000      0.000000
  B       1.600000     -0.800000      0.000000
  B      -1.600000      0.800000      0.000000
  B       0.000000      0.800000      0.000000
  B       1.600000      0.800000      0.000000
6
Coordinates from ORCA-job B6_rectangular_planar_d1.60_q0_m3_R2SCAN-3C E -148.693714833864
  B      -1.596271     -0.781370      0.000000
  B       0.000000     -0.828305     -0.000000
  B       1.596271     -0.781370      0.000000
  B      -1.596271      0.781370      0.000000
  B      -0.000000      0.828305     -0.000000
  B       1.596271      0.781370      0.000000
6
Coordinates from ORCA-job B6_rectangular_planar_d1.60_q0_m3_R2SCAN-3C E -148.700705905967
  B      -1.581363     -0.754828     -0.000000
  B      -0.000000     -0.879772      0.000000
  B       1.581363     -0.754829     -0.000000
  B      -1.581363      0.754828     -0.000000
  B      -0.000000      0.879772      0.000000
  B       1.581363      0.754829     -0.000000
6
Coordinates from ORCA-job B6_rectangular_planar_d1.60_q0_m3_R2SCAN-3C E -148.701900661003
  B      -1.574911     -0.755230      0.000000
  B       0.000000     -0.903356     -0.000000
  B       1.574911     -0.755229      0.000000
  B      -1.574911      0.755230      0.000000
  B       0.000000      0.903356     -0.000000
  B       1.574911      0.755229      0.000000
6
Coordinates from ORCA-job B6_rectangular_planar_d1.60_q0_m3_R2SCAN-3C E -148.702491107216
  B      -1.571260     -0.758195     -0.000001
  B      -0.000001     -0.928611      0.000003
  B       1.571260     -0.758198     -0.000001
  B      -1.571263      0.758194     -0.000001
  B      -0.000001      0.928614      0.000003
  B       1.571264      0.758196     -0.000001
6
Coordinates from ORCA-job B6_rectangular_planar_d1.60_q0_m3_R2SCAN-3C E -148.702540361048
  B      -1.571480     -0.758437      0.000008
  B      -0.000001     -0.936977     -0.000016
  B       1.571482     -0.758439      0.000008
  B      -1.571478      0.758438      0.000008
  B      -0.000001      0.936975     -0.000016
  B       1.571480      0.758440      0.000008
6
Coordinates from ORCA-job B6_rectangular_planar_d1.60_q0_m3_R2SCAN-3C E -148.702543317354
  B      -1.571928     -0.758356     -0.000046
  B       0.000000     -0.938926      0.000092
  B       1.571928     -0.758354     -0.000046
  B      -1.571927      0.758356     -0.000046
  B       0.000000      0.938925      0.000092
  B       1.571927      0.758354     -0.000046
6
Coordinates from ORCA-job B6_rectangular_planar_d1.60_q0_m3_R2SCAN-3C E -148.702543337587
  B      -1.572069     -0.758338      0.000232
  B      -0.000002     -0.938975     -0.000463
  B       1.572071     -0.758343      0.000232
  B      -1.572073      0.758336      0.000232
  B      -0.000002      0.938978     -0.000463
  B       1.572074      0.758342      0.000232
6
Coordinates from ORCA-job B6_rectangular_planar_d1.60_q0_m3_R2SCAN-3C E -148.702543307257
  B      -1.572242     -0.758320     -0.000192
  B      -0.000003     -0.939009      0.000385
  B       1.572246     -0.758330     -0.000193
  B      -1.572253      0.758314     -0.000193
  B      -0.000003      0.939019      0.000385
  B       1.572256      0.758324     -0.000192
6
Coordinates from ORCA-job B6_rectangular_planar_d1.60_q0_m3_R2SCAN-3C E -148.702543384697
  B      -1.572100     -0.758339     -0.000005
  B      -0.000001     -0.938942      0.000010
  B       1.572101     -0.758341     -0.000005
  B      -1.572105      0.758337     -0.000005
  B      -0.000001      0.938946      0.000010
  B       1.572106      0.758339     -0.000005
6
Coordinates from ORCA-job B6_rectangular_planar_d1.60_q0_m3_R2SCAN-3C E -148.702543385189
  B      -1.572103     -0.758338      0.000002
  B      -0.000001     -0.938941     -0.000002
  B       1.572104     -0.758341      0.000001
  B      -1.572107      0.758337      0.000001
  B      -0.000001      0.938944     -0.000002
  B       1.572108      0.758339      0.000002
