6
Coordinates from ORCA-job B6_rectangular_planar_d1.60_q0_m3_R2SCAN-3C E -148.702543385189
  B          -1.57210255174598     -0.75833822456295      0.00000162455521
  B          -0.00000143974610     -0.93894108584134     -0.00000235367770
  B           1.57210404325122     -0.75834057275751      0.00000074461046
  B          -1.57210680625793      0.75833698418009      0.00000068112696
  B          -0.00000147020503      0.93894361993309     -0.00000226112635
  B           1.57210822470382      0.75833927904861      0.00000156451142
