6
Coordinates from ORCA-job B6_rectangular_planar_d2.00_q0_m3_R2SCAN-3C E -148.462759173530
  B      -2.000000     -1.000000      0.000000
  B       0.000000     -1.000000      0.000000
  B       2.000000     -1.000000      0.000000
  B      -2.000000      1.000000      0.000000
  B       0.000000      1.000000      0.000000
  B       2.000000      1.000000      0.000000
6
Coordinates from ORCA-job B6_rectangular_planar_d2.00_q0_m3_R2SCAN-3C E -148.509293165851
  B      -1.935930     -0.970619     -0.000000
  B      -0.000000     -0.978509      0.000000
  B       1.935930     -0.970619     -0.000000
  B      -1.935930      0.970619     -0.000000
  B       0.000000      0.978509      0.000000
  B       1.935930      0.970619     -0.000000
6
Coordinates from ORCA-job B6_rectangular_planar_d2.00_q0_m3_R2SCAN-3C E -148.552790414502
  B      -1.870311     -0.941688     -0.000000
  B       0.000000     -0.960895      0.000000
  B       1.870311     -0.941688     -0.000000
  B      -1.870311      0.941688     -0.000000
  B      -0.000000      0.960895      0.000000
  B       1.870311      0.941688     -0.000000
6
Coordinates from ORCA-job B6_rectangular_planar_d2.00_q0_m3_R2SCAN-3C E -148.608905699608
  B      -1.770758     -0.897952     -0.000000
  B      -0.000000     -0.940498      0.000000
  B       1.770758     -0.897952     -0.000000
  B      -1.770758      0.897952     -0.000000
  B       0.000000      0.940498      0.000000
  B       1.770758      0.897952     -0.000000
6
Coordinates from ORCA-job B6_rectangular_planar_d2.00_q0_m3_R2SCAN-3C E -148.654744458743
  B      -1.619513     -0.831953      0.000000
  B      -0.000000     -0.921675     -0.000000
  B       1.619513     -0.831953      0.000000
  B      -1.619513      0.831953      0.000000
  B       0.000000      0.921675     -0.000000
  B       1.619513      0.831953      0.000000
6
Coordinates from ORCA-job B6_rectangular_planar_d2.00_q0_m3_R2SCAN-3C E -148.655561063233
  B      -1.601057     -0.803875     -0.000000
  B       0.000000     -0.926366      0.000000
  B       1.601057     -0.803875     -0.000000
  B      -1.601057      0.803875     -0.000000
  B      -0.000000      0.926366      0.000000
  B       1.601057      0.803875     -0.000000
6
Coordinates from ORCA-job B6_rectangular_planar_d2.00_q0_m3_R2SCAN-3C E -148.656041433126
  B      -1.597489     -0.815888      0.000000
  B      -0.000001     -0.936842     -0.000000
  B       1.597490     -0.815889      0.000000
  B      -1.597489      0.815888      0.000000
  B      -0.000001      0.936842     -0.000000
  B       1.597490      0.815889      0.000000
6
Coordinates from ORCA-job B6_rectangular_planar_d2.00_q0_m3_R2SCAN-3C E -148.656158147524
  B      -1.605618     -0.815438     -0.000000
  B       0.000001     -0.943351      0.000000
  B       1.605617     -0.815438     -0.000000
  B      -1.605618      0.815438     -0.000000
  B       0.000001      0.943351      0.000000
  B       1.605617      0.815438     -0.000000
6
Coordinates from ORCA-job B6_rectangular_planar_d2.00_q0_m3_R2SCAN-3C E -148.656234183944
  B      -1.602290     -0.813609      0.000000
  B       0.000000     -0.950842     -0.000000
  B       1.602290     -0.813607      0.000000
  B      -1.602291      0.813608      0.000000
  B       0.000000      0.950842     -0.000000
  B       1.602291      0.813606      0.000000
6
Coordinates from ORCA-job B6_rectangular_planar_d2.00_q0_m3_R2SCAN-3C E -148.656258399017
  B      -1.599897     -0.812771     -0.000000
  B       0.000001     -0.958989      0.000000
  B       1.599896     -0.812770     -0.000000
  B      -1.599898      0.812770      0.000000
  B       0.000001      0.958990      0.000000
  B       1.599898      0.812770     -0.000000
6
Coordinates from ORCA-job B6_rectangular_planar_d2.00_q0_m3_R2SCAN-3C E -148.656258810832
  B      -1.599839     -0.812807     -0.000000
  B      -0.000007     -0.960107     -0.000000
  B       1.599846     -0.812816      0.000001
  B      -1.599825      0.812813      0.000000
  B      -0.000007      0.960093      0.000000
  B       1.599832      0.812823     -0.000000
6
Coordinates from ORCA-job B6_rectangular_planar_d2.00_q0_m3_R2SCAN-3C E -148.656258814628
  B      -1.599845     -0.812830     -0.000004
  B       0.000005     -0.960181      0.000001
  B       1.599840     -0.812838      0.000003
  B      -1.599856      0.812825      0.000004
  B       0.000005      0.960192     -0.000000
  B       1.599851      0.812832     -0.000003
