6
Coordinates from ORCA-job B6_rectangular_planar_d2.00_q0_m3_R2SCAN-3C E -148.656258814628
  B          -1.59984531210843     -0.81282999248402     -0.00000370851532
  B           0.00000487520488     -0.96018110040107      0.00000062773741
  B           1.59984043073627     -0.81283752253039      0.00000300147821
  B          -1.59985628474899      0.81282460723662      0.00000352510714
  B           0.00000487987975      0.96019186444233     -0.00000026085856
  B           1.59985141103652      0.81283214373653     -0.00000318494887
