6
Coordinates from ORCA-job B6_rhombic_planar_d3.50_q0_m5_R2SCAN-3C E -148.695237739115
  B          -1.44548839100292     -0.37046958133681     -0.00378879109144
  B          -0.18877089551607     -1.28748212410932     -0.01115400816177
  B           1.27816944786797     -0.76992456127230     -0.00606386056045
  B          -1.41197004255254      1.23635439899112      0.01003544613167
  B           0.06050440290225      0.41276515453631      0.00362907151905
  B           1.70755547830132      0.77875671319101      0.00734214216294
