6
Coordinates from ORCA-job B6_rhombic_planar_d3.50_q0_m5_R2SCAN-3C E -147.886314325205
  B      -4.375000     -1.515544      0.000000
  B      -0.875000     -1.515544      0.000000
  B       2.625000     -1.515544      0.000000
  B      -2.625000      1.515544      0.000000
  B       0.875000      1.515544      0.000000
  B       4.375000      1.515544      0.000000
6
Coordinates from ORCA-job B6_rhombic_planar_d3.50_q0_m5_R2SCAN-3C E -147.906440365277
  B      -4.314040     -1.489883     -0.000000
  B      -0.860993     -1.492193      0.000000
  B       2.589751     -1.487920     -0.000000
  B      -2.589752      1.487921      0.000000
  B       0.860992      1.492193      0.000000
  B       4.314042      1.489880     -0.000000
6
Coordinates from ORCA-job B6_rhombic_planar_d3.50_q0_m5_R2SCAN-3C E -147.915211792221
  B      -4.240890     -1.477279      0.000001
  B      -0.846683     -1.466082      0.000008
  B       2.549800     -1.457060     -0.000009
  B      -2.558462      1.472293      0.000040
  B       0.844419      1.478463     -0.000089
  B       4.251816      1.449665      0.000049
6
Coordinates from ORCA-job B6_rhombic_planar_d3.50_q0_m5_R2SCAN-3C E -147.921394013492
  B      -4.191857     -1.467918      0.000001
  B      -0.837264     -1.449226      0.000012
  B       2.524029     -1.436393     -0.000013
  B      -2.538167      1.461565      0.000062
  B       0.833030      1.469185     -0.000138
  B       4.210229      1.422787      0.000076
6
Coordinates from ORCA-job B6_rhombic_planar_d3.50_q0_m5_R2SCAN-3C E -147.931170867468
  B      -4.117244     -1.453989      0.000001
  B      -0.823262     -1.424413      0.000018
  B       2.485770     -1.405169     -0.000019
  B      -2.508338      1.446260      0.000094
  B       0.815614      1.455717     -0.000207
  B       4.147459      1.381593      0.000113
6
Coordinates from ORCA-job B6_rhombic_planar_d3.50_q0_m5_R2SCAN-3C E -147.947000144842
  B      -4.003480     -1.432921     -0.000001
  B      -0.802365     -1.388259      0.000027
  B       2.429107     -1.358104     -0.000026
  B      -2.464580      1.424600      0.000138
  B       0.788970      1.436087     -0.000302
  B       4.052348      1.318597      0.000163
6
Coordinates from ORCA-job B6_rhombic_planar_d3.50_q0_m5_R2SCAN-3C E -147.972865652506
  B      -3.831360     -1.398943     -0.000004
  B      -0.772251     -1.337815      0.000038
  B       2.343047     -1.293186     -0.000034
  B      -2.399037      1.394192      0.000197
  B       0.749656      1.404398     -0.000425
  B       3.909946      1.231353      0.000227
6
Coordinates from ORCA-job B6_rhombic_planar_d3.50_q0_m5_R2SCAN-3C E -148.003090215701
  B      -3.649025     -1.359800     -0.000006
  B      -0.739769     -1.289447      0.000044
  B       2.253094     -1.229831     -0.000037
  B      -2.332119      1.364169      0.000240
  B       0.707947      1.370523     -0.000513
  B       3.759872      1.144387      0.000272
6
Coordinates from ORCA-job B6_rhombic_planar_d3.50_q0_m5_R2SCAN-3C E -148.026239214899
  B      -3.521128     -1.331815     -0.000005
  B      -0.713763     -1.257817      0.000045
  B       2.193571     -1.185952     -0.000034
  B      -2.290563      1.345077      0.000253
  B       0.677281      1.351052     -0.000543
  B       3.654602      1.079455      0.000284
6
Coordinates from ORCA-job B6_rhombic_planar_d3.50_q0_m5_R2SCAN-3C E -148.064738290808
  B      -3.326788     -1.287615     -0.000005
  B      -0.672506     -1.211561      0.000044
  B       2.099877     -1.128869     -0.000029
  B      -2.229484      1.317266      0.000275
  B       0.631755      1.321370     -0.000589
  B       3.497147      0.989408      0.000304
6
Coordinates from ORCA-job B6_rhombic_planar_d3.50_q0_m5_R2SCAN-3C E -148.110462371843
  B      -3.124206     -1.240709      0.000000
  B      -0.619096     -1.161175      0.000038
  B       2.005476     -1.081151     -0.000020
  B      -2.177954      1.290366      0.000285
  B       0.582006      1.298928     -0.000615
  B       3.333774      0.893742      0.000312
6
Coordinates from ORCA-job B6_rhombic_planar_d3.50_q0_m5_R2SCAN-3C E -148.145200562026
  B      -2.985515     -1.209113      0.000005
  B      -0.576015     -1.122883      0.000035
  B       1.947386     -1.051076     -0.000011
  B      -2.149168      1.271898      0.000282
  B       0.546307      1.291410     -0.000618
  B       3.217006      0.819764      0.000308
6
Coordinates from ORCA-job B6_rhombic_planar_d3.50_q0_m5_R2SCAN-3C E -148.169675718049
  B      -2.892534     -1.187770      0.000007
  B      -0.546002     -1.096941      0.000033
  B       1.908268     -1.032084     -0.000005
  B      -2.130410      1.258980      0.000279
  B       0.523089      1.287917     -0.000618
  B       3.137589      0.769899      0.000303
6
Coordinates from ORCA-job B6_rhombic_planar_d3.50_q0_m5_R2SCAN-3C E -148.207811952476
  B      -2.754017     -1.155445      0.000011
  B      -0.501234     -1.058125      0.000033
  B       1.847242     -1.003004      0.000002
  B      -2.100467      1.237658      0.000277
  B       0.490592      1.282421     -0.000623
  B       3.017884      0.696495      0.000300
6
Coordinates from ORCA-job B6_rhombic_planar_d3.50_q0_m5_R2SCAN-3C E -148.270556766458
  B      -2.554287     -1.104115      0.000009
  B      -0.440467     -1.004178      0.000044
  B       1.752513     -0.962954      0.000003
  B      -2.050782      1.201898      0.000287
  B       0.448517      1.267906     -0.000650
  B       2.844505      0.601444      0.000308
6
Coordinates from ORCA-job B6_rhombic_planar_d3.50_q0_m5_R2SCAN-3C E -148.353954627249
  B      -2.353685     -1.048638     -0.001773
  B      -0.384310     -0.954426      0.003678
  B       1.653843     -0.918312     -0.002911
  B      -2.000886      1.160365      0.002959
  B       0.410886      1.253170     -0.005746
  B       2.674152      0.507842      0.003793
6
Coordinates from ORCA-job B6_rhombic_planar_d3.50_q0_m5_R2SCAN-3C E -148.414721811859
  B      -2.214410     -1.009208     -0.001668
  B      -0.342702     -0.923218      0.003491
  B       1.577545     -0.889600     -0.002626
  B      -1.964801      1.129048      0.002933
  B       0.387746      1.246949     -0.005768
  B       2.556622      0.446028      0.003637
6
Coordinates from ORCA-job B6_rhombic_planar_d3.50_q0_m5_R2SCAN-3C E -148.451329675014
  B      -2.112664     -0.975607     -0.001563
  B      -0.323189     -0.916089      0.003377
  B       1.523153     -0.875173     -0.002468
  B      -1.934365      1.111298      0.002799
  B       0.365614      1.239676     -0.005629
  B       2.481451      0.415895      0.003485
6
Coordinates from ORCA-job B6_rhombic_planar_d3.50_q0_m5_R2SCAN-3C E -148.503802289662
  B      -1.972989     -0.910105     -0.002823
  B      -0.294968     -0.920513      0.005391
  B       1.443918     -0.853208     -0.002399
  B      -1.885665      1.083696      0.001980
  B       0.332973      1.208952     -0.003899
  B       2.376731      0.391178      0.001750
6
Coordinates from ORCA-job B6_rhombic_planar_d3.50_q0_m5_R2SCAN-3C E -148.560980639060
  B      -1.807657     -0.799912      0.001704
  B      -0.247742     -0.943194     -0.001355
  B       1.335530     -0.832564     -0.001912
  B      -1.791191      1.036539      0.003745
  B       0.285388      1.149617     -0.008694
  B       2.225672      0.389514      0.006512
6
Coordinates from ORCA-job B6_rhombic_planar_d3.50_q0_m5_R2SCAN-3C E -148.594605529271
  B      -1.732926     -0.676889      0.004902
  B      -0.235661     -0.988961     -0.006615
  B       1.330787     -0.802077     -0.001359
  B      -1.682523      0.998547      0.005096
  B       0.238472      1.050156     -0.011688
  B       2.081851      0.419223      0.009663
6
Coordinates from ORCA-job B6_rhombic_planar_d3.50_q0_m5_R2SCAN-3C E -148.613723446041
  B      -1.686932     -0.599075      0.006658
  B      -0.207523     -1.013910     -0.009702
  B       1.276112     -0.836701     -0.001565
  B      -1.609930      0.978329      0.006098
  B       0.222692      0.971094     -0.013364
  B       2.005581      0.500263      0.011876
6
Coordinates from ORCA-job B6_rhombic_planar_d3.50_q0_m5_R2SCAN-3C E -148.627259133749
  B      -1.704281     -0.554555      0.006476
  B      -0.238909     -1.054820     -0.010833
  B       1.321309     -0.831404     -0.001703
  B      -1.576525      0.993791      0.006674
  B       0.215243      0.885698     -0.012783
  B       1.983163      0.561290      0.012169
6
Coordinates from ORCA-job B6_rhombic_planar_d3.50_q0_m5_R2SCAN-3C E -148.637828475650
  B      -1.692238     -0.527322      0.005677
  B      -0.232152     -1.093618     -0.011123
  B       1.325873     -0.813054     -0.001996
  B      -1.539102      1.034600      0.007029
  B       0.197412      0.800113     -0.011329
  B       1.940208      0.599282      0.011743
6
Coordinates from ORCA-job B6_rhombic_planar_d3.50_q0_m5_R2SCAN-3C E -148.655839613702
  B      -1.659657     -0.479022      0.004112
  B      -0.225332     -1.152740     -0.011104
  B       1.323720     -0.781698     -0.002723
  B      -1.484815      1.090732      0.007499
  B       0.161224      0.666575     -0.008922
  B       1.884859      0.656154      0.011137
6
Coordinates from ORCA-job B6_rhombic_planar_d3.50_q0_m5_R2SCAN-3C E -148.683192714680
  B      -1.578027     -0.418273      0.002298
  B      -0.213525     -1.240006     -0.011233
  B       1.292384     -0.743888     -0.004065
  B      -1.367213      1.176781      0.007934
  B       0.109311      0.478628     -0.005568
  B       1.757070      0.746758      0.010634
6
Coordinates from ORCA-job B6_rhombic_planar_d3.50_q0_m5_R2SCAN-3C E -148.215539835192
  B      -0.980479     -0.270594     -0.002135
  B      -0.167976     -1.381939     -0.011306
  B       1.093313     -0.886392     -0.006748
  B      -1.236568      1.416047      0.010061
  B      -0.049367      0.170655      0.000923
  B       1.341077      0.952224      0.009205
6
Coordinates from ORCA-job B6_rhombic_planar_d3.50_q0_m5_R2SCAN-3C E -148.621669239163
  B      -1.758124     -0.536442     -0.007088
  B      -0.260898     -1.313554     -0.006166
  B       1.331590     -0.771560     -0.013318
  B      -1.315222      1.349713      0.006563
  B       0.220311      0.299238      0.009014
  B       1.782344      0.972605      0.010993
6
Coordinates from ORCA-job B6_rhombic_planar_d3.50_q0_m5_R2SCAN-3C E -148.654254622716
  B      -1.702103     -0.508683     -0.008631
  B      -0.242306     -1.265428     -0.003491
  B       1.334526     -0.790957     -0.018178
  B      -1.342176      1.288855      0.004250
  B       0.191373      0.378292      0.015791
  B       1.760687      0.897921      0.010260
6
Coordinates from ORCA-job B6_rhombic_planar_d3.50_q0_m5_R2SCAN-3C E -148.674599117004
  B      -1.626909     -0.458458     -0.008047
  B      -0.223107     -1.253958     -0.003634
  B       1.309709     -0.784743     -0.018716
  B      -1.349815      1.248407      0.003188
  B       0.169579      0.392958      0.017601
  B       1.720543      0.855795      0.009609
6
Coordinates from ORCA-job B6_rhombic_planar_d3.50_q0_m5_R2SCAN-3C E -148.691857462420
  B      -1.508744     -0.369153     -0.006710
  B      -0.189285     -1.253654     -0.004747
  B       1.283799     -0.786213     -0.018113
  B      -1.385930      1.200415      0.002510
  B       0.105873      0.404086      0.018631
  B       1.694286      0.804517      0.008429
6
Coordinates from ORCA-job B6_rhombic_planar_d3.50_q0_m5_R2SCAN-3C E -148.689310111937
  B      -1.397531     -0.386994     -0.003327
  B      -0.202859     -1.253762     -0.007324
  B       1.234098     -0.796081     -0.019652
  B      -1.399561      1.217252     -0.001262
  B       0.085861      0.423257      0.022772
  B       1.679992      0.796328      0.008793
6
Coordinates from ORCA-job B6_rhombic_planar_d3.50_q0_m5_R2SCAN-3C E -148.694339293682
  B      -1.420216     -0.342039     -0.001537
  B      -0.181266     -1.305952     -0.008883
  B       1.275180     -0.780232     -0.019411
  B      -1.428296      1.234479     -0.002552
  B       0.067925      0.415757      0.024338
  B       1.686673      0.777986      0.008045
6
Coordinates from ORCA-job B6_rhombic_planar_d3.50_q0_m5_R2SCAN-3C E -148.694298228738
  B      -1.479485     -0.377476      0.003619
  B      -0.193211     -1.275256     -0.014894
  B       1.288344     -0.786521     -0.009485
  B      -1.412600      1.225435      0.003360
  B       0.077192      0.421287      0.007234
  B       1.719761      0.792531      0.010165
6
Coordinates from ORCA-job B6_rhombic_planar_d3.50_q0_m5_R2SCAN-3C E -148.695118922766
  B      -1.446389     -0.365560      0.000428
  B      -0.193040     -1.285564     -0.011842
  B       1.283311     -0.779542     -0.014197
  B      -1.411191      1.233999      0.000406
  B       0.070052      0.408885      0.016834
  B       1.697257      0.787782      0.008371
6
Coordinates from ORCA-job B6_rhombic_planar_d3.50_q0_m5_R2SCAN-3C E -148.695032512240
  B      -1.435841     -0.363822      0.005918
  B      -0.183304     -1.289386     -0.017964
  B       1.274180     -0.778967     -0.003109
  B      -1.427683      1.232894      0.007951
  B       0.062625      0.425811     -0.003890
  B       1.710023      0.773470      0.011095
6
Coordinates from ORCA-job B6_rhombic_planar_d3.50_q0_m5_R2SCAN-3C E -148.695209909895
  B      -1.442265     -0.366559     -0.000423
  B      -0.188802     -1.287664     -0.012645
  B       1.279686     -0.775880     -0.008939
  B      -1.414633      1.235252      0.005638
  B       0.063121      0.414083      0.008013
  B       1.702892      0.780767      0.008356
6
Coordinates from ORCA-job B6_rhombic_planar_d3.50_q0_m5_R2SCAN-3C E -148.695227378741
  B      -1.444075     -0.368569     -0.002049
  B      -0.189177     -1.287736     -0.011798
  B       1.279346     -0.773156     -0.008393
  B      -1.413046      1.236138      0.006883
  B       0.063033      0.413117      0.007631
  B       1.703919      0.780207      0.007726
6
Coordinates from ORCA-job B6_rhombic_planar_d3.50_q0_m5_R2SCAN-3C E -148.695236301389
  B      -1.445736     -0.370526     -0.004122
  B      -0.188862     -1.287066     -0.010844
  B       1.278932     -0.770032     -0.006901
  B      -1.410601      1.236560      0.009290
  B       0.059744      0.411912      0.005539
  B       1.706524      0.779152      0.007038
6
Coordinates from ORCA-job B6_rhombic_planar_d3.50_q0_m5_R2SCAN-3C E -148.695237402641
  B      -1.445697     -0.370496     -0.003517
  B      -0.188821     -1.287351     -0.011401
  B       1.278293     -0.769704     -0.005803
  B      -1.412367      1.236346      0.010113
  B       0.060875      0.412722      0.003179
  B       1.707716      0.778482      0.007430
6
Coordinates from ORCA-job B6_rhombic_planar_d3.50_q0_m5_R2SCAN-3C E -148.695237711780
  B      -1.445470     -0.370574     -0.003803
  B      -0.188722     -1.287533     -0.011130
  B       1.278128     -0.769917     -0.006166
  B      -1.412017      1.236435      0.009937
  B       0.060478      0.412912      0.003841
  B       1.707604      0.778678      0.007320
6
Coordinates from ORCA-job B6_rhombic_planar_d3.50_q0_m5_R2SCAN-3C E -148.695237735166
  B      -1.445488     -0.370436     -0.003729
  B      -0.188777     -1.287441     -0.011186
  B       1.278212     -0.769961     -0.006083
  B      -1.411982      1.236333      0.009989
  B       0.060505      0.412739      0.003644
  B       1.707530      0.778766      0.007364
6
Coordinates from ORCA-job B6_rhombic_planar_d3.50_q0_m5_R2SCAN-3C E -148.695237739115
  B      -1.445488     -0.370470     -0.003789
  B      -0.188771     -1.287482     -0.011154
  B       1.278169     -0.769925     -0.006064
  B      -1.411970      1.236354      0.010035
  B       0.060504      0.412765      0.003629
  B       1.707555      0.778757      0.007342
