6
Coordinates from ORCA-job B6_planar_ring_d1.60_q0_m3_R2SCAN-3C E -148.666121182576
  B           1.55146781841212     -0.00000001202320      0.00000000014330
  B           0.77553621548859      1.34293924223067     -0.00000002178109
  B          -0.77553683643835      1.34293818219186      0.00000001986259
  B          -1.55146658373301     -0.00000000960747      0.00000000369378
  B          -0.77553681403854     -1.34293816753818     -0.00000002533116
  B           0.77553620030919     -1.34293923525368      0.00000002341258
