6
Coordinates from ORCA-job B6_planar_ring_d1.60_q0_m3_R2SCAN-3C E -148.658973996387
  B       1.600000     -0.000000      0.000000
  B       0.800000      1.385641      0.000000
  B      -0.800000      1.385641      0.000000
  B      -1.600000      0.000000      0.000000
  B      -0.800000     -1.385641      0.000000
  B       0.800000     -1.385641      0.000000
6
Coordinates from ORCA-job B6_planar_ring_d1.60_q0_m3_R2SCAN-3C E -148.665321914312
  B       1.567078     -0.000000     -0.000000
  B       0.783514      1.356969      0.000000
  B      -0.783514      1.356969     -0.000000
  B      -1.567078      0.000000      0.000000
  B      -0.783514     -1.356969      0.000000
  B       0.783514     -1.356969     -0.000000
6
Coordinates from ORCA-job B6_planar_ring_d1.60_q0_m3_R2SCAN-3C E -148.666110013870
  B       1.549444     -0.000000     -0.000000
  B       0.774614      1.341419     -0.000000
  B      -0.774614      1.341419      0.000000
  B      -1.549444      0.000000      0.000000
  B      -0.774614     -1.341419     -0.000000
  B       0.774614     -1.341419      0.000000
6
Coordinates from ORCA-job B6_planar_ring_d1.60_q0_m3_R2SCAN-3C E -148.666121143507
  B       1.551449     -0.000000     -0.000000
  B       0.775572      1.343051      0.000000
  B      -0.775574      1.343048     -0.000000
  B      -1.551446     -0.000000     -0.000000
  B      -0.775574     -1.343048      0.000000
  B       0.775572     -1.343051     -0.000000
6
Coordinates from ORCA-job B6_planar_ring_d1.60_q0_m3_R2SCAN-3C E -148.666121182576
  B       1.551468     -0.000000      0.000000
  B       0.775536      1.342939     -0.000000
  B      -0.775537      1.342938      0.000000
  B      -1.551467     -0.000000      0.000000
  B      -0.775537     -1.342938     -0.000000
  B       0.775536     -1.342939      0.000000
