6
Coordinates from ORCA-job B6_random_3d_seed1000_d2.20_q0_m1_R2SCAN-3C E -148.717723858420
  B           0.70621626513700     -0.13100335804450      0.63129737858580
  B           1.50257299174014     -1.34266981645574      0.00830108916050
  B           0.12345814112707     -1.19443172814185     -0.67109412110346
  B          -0.47819529376513      0.88111394250950      0.94179304398380
  B          -1.23901172182243      1.57532889359550     -0.20928174526565
  B          -0.61504038241665      0.21166206653710     -0.70101565536099
