6
Coordinates from ORCA-job B6_random_3d_seed1000_d2.20_q0_m1_R2SCAN-3C E -148.330046262193
  B       0.672779     -0.697438      1.381913
  B       1.755413     -0.196714     -0.496730
  B      -0.037105     -1.604077     -0.604332
  B      -0.749191      0.786207      1.173302
  B      -0.106844      1.668577     -0.743057
  B      -1.535052      0.043445     -0.711097
6
Coordinates from ORCA-job B6_random_3d_seed1000_d2.20_q0_m1_R2SCAN-3C E -148.366334707361
  B       0.661150     -0.663987      1.356027
  B       1.717716     -0.207725     -0.477044
  B      -0.042367     -1.567352     -0.606806
  B      -0.718848      0.771519      1.153393
  B      -0.120474      1.630509     -0.717598
  B      -1.497176      0.037035     -0.707972
6
Coordinates from ORCA-job B6_random_3d_seed1000_d2.20_q0_m1_R2SCAN-3C E -148.403503058008
  B       0.650561     -0.631182      1.330477
  B       1.680343     -0.220107     -0.456985
  B      -0.047140     -1.530246     -0.609615
  B      -0.688808      0.757977      1.133576
  B      -0.135824      1.592297     -0.691986
  B      -1.459132      0.031261     -0.705468
6
Coordinates from ORCA-job B6_random_3d_seed1000_d2.20_q0_m1_R2SCAN-3C E -148.459836273321
  B       0.637370     -0.584659      1.292074
  B       1.623043     -0.240589     -0.426378
  B      -0.052588     -1.473080     -0.613415
  B      -0.645692      0.740248      1.103667
  B      -0.160060      1.535049     -0.653686
  B      -1.402072      0.023031     -0.702263
6
Coordinates from ORCA-job B6_random_3d_seed1000_d2.20_q0_m1_R2SCAN-3C E -148.540511843102
  B       0.618656     -0.514547      1.234599
  B       1.540096     -0.276443     -0.378622
  B      -0.059191     -1.387896     -0.620374
  B      -0.580255      0.714848      1.058520
  B      -0.202544      1.450948     -0.596030
  B      -1.316762      0.013091     -0.698093
6
Coordinates from ORCA-job B6_random_3d_seed1000_d2.20_q0_m1_R2SCAN-3C E -148.606888682678
  B       0.605021     -0.449085      1.173505
  B       1.454129     -0.320223     -0.329039
  B      -0.060621     -1.297453     -0.624964
  B      -0.518547      0.695740      1.010407
  B      -0.251325      1.366550     -0.535638
  B      -1.228657      0.004472     -0.694271
6
Coordinates from ORCA-job B6_random_3d_seed1000_d2.20_q0_m1_R2SCAN-3C E -148.638773058434
  B       0.596766     -0.399386      1.108422
  B       1.361745     -0.376563     -0.289671
  B      -0.044407     -1.202989     -0.617471
  B      -0.476114      0.686787      0.958691
  B      -0.298028      1.299417     -0.475691
  B      -1.139962     -0.007265     -0.684280
6
Coordinates from ORCA-job B6_random_3d_seed1000_d2.20_q0_m1_R2SCAN-3C E -148.644498483251
  B       0.587519     -0.376478      1.095232
  B       1.346948     -0.435819     -0.295922
  B      -0.016204     -1.180586     -0.607960
  B      -0.468690      0.679829      0.964526
  B      -0.334358      1.325048     -0.465788
  B      -1.115214     -0.011993     -0.690088
6
Coordinates from ORCA-job B6_random_3d_seed1000_d2.20_q0_m1_R2SCAN-3C E -148.656337772470
  B       0.610071     -0.376137      1.048093
  B       1.356875     -0.526545     -0.272281
  B       0.000930     -1.156867     -0.591239
  B      -0.482689      0.699507      0.945746
  B      -0.406715      1.382845     -0.437599
  B      -1.078472     -0.022803     -0.692720
6
Coordinates from ORCA-job B6_random_3d_seed1000_d2.20_q0_m1_R2SCAN-3C E -148.669903252604
  B       0.626145     -0.363598      1.047774
  B       1.410846     -0.631095     -0.257962
  B       0.006162     -1.145286     -0.607718
  B      -0.482046      0.722773      0.955408
  B      -0.512086      1.413559     -0.433021
  B      -1.049020      0.003648     -0.704480
6
Coordinates from ORCA-job B6_random_3d_seed1000_d2.20_q0_m1_R2SCAN-3C E -148.679292279201
  B       0.635367     -0.362015      1.041499
  B       1.459302     -0.698870     -0.244728
  B       0.014724     -1.154204     -0.616962
  B      -0.483619      0.743213      0.958273
  B      -0.573700      1.469250     -0.423013
  B      -1.052074      0.002626     -0.715069
6
Coordinates from ORCA-job B6_random_3d_seed1000_d2.20_q0_m1_R2SCAN-3C E -148.684758857819
  B       0.642825     -0.361150      1.026458
  B       1.487765     -0.754906     -0.225220
  B       0.026365     -1.151330     -0.619071
  B      -0.477707      0.751688      0.951641
  B      -0.632384      1.497561     -0.417172
  B      -1.046864      0.018136     -0.716636
6
Coordinates from ORCA-job B6_random_3d_seed1000_d2.20_q0_m1_R2SCAN-3C E -148.688053325366
  B       0.644419     -0.358598      1.020355
  B       1.503682     -0.792656     -0.217409
  B       0.030413     -1.141624     -0.621087
  B      -0.473662      0.758565      0.945831
  B      -0.669718      1.514765     -0.411023
  B      -1.035135      0.019548     -0.716667
6
Coordinates from ORCA-job B6_random_3d_seed1000_d2.20_q0_m1_R2SCAN-3C E -148.692567766563
  B       0.649778     -0.353967      1.005437
  B       1.522302     -0.849498     -0.198303
  B       0.045196     -1.135396     -0.624167
  B      -0.463781      0.767692      0.934978
  B      -0.729161      1.539065     -0.399532
  B      -1.024335      0.032103     -0.718414
6
Coordinates from ORCA-job B6_random_3d_seed1000_d2.20_q0_m1_R2SCAN-3C E -148.698309757860
  B       0.661996     -0.344724      0.982633
  B       1.543839     -0.931042     -0.164424
  B       0.058621     -1.119450     -0.633584
  B      -0.445294      0.780223      0.922514
  B      -0.817956      1.567926     -0.383484
  B      -1.001205      0.047067     -0.723655
6
Coordinates from ORCA-job B6_random_3d_seed1000_d2.20_q0_m1_R2SCAN-3C E -148.703917726472
  B       0.667612     -0.318457      0.953013
  B       1.556859     -1.043702     -0.130754
  B       0.093821     -1.106184     -0.647900
  B      -0.427277      0.812065      0.892419
  B      -0.926607      1.585638     -0.338677
  B      -0.964408      0.070640     -0.728101
6
Coordinates from ORCA-job B6_random_3d_seed1000_d2.20_q0_m1_R2SCAN-3C E -148.708266542690
  B       0.692097     -0.304184      0.913744
  B       1.554634     -1.140869     -0.080535
  B       0.115467     -1.085022     -0.664657
  B      -0.397909      0.829940      0.888422
  B      -1.044271      1.603847     -0.320437
  B      -0.920017      0.096288     -0.736537
6
Coordinates from ORCA-job B6_random_3d_seed1000_d2.20_q0_m1_R2SCAN-3C E -148.710324014910
  B       0.704980     -0.284026      0.889063
  B       1.562587     -1.213951     -0.047958
  B       0.133015     -1.088070     -0.685983
  B      -0.391089      0.859043      0.878180
  B      -1.114708      1.608650     -0.289171
  B      -0.894785      0.118354     -0.744130
6
Coordinates from ORCA-job B6_random_3d_seed1000_d2.20_q0_m1_R2SCAN-3C E -148.711338740376
  B       0.710160     -0.264813      0.865449
  B       1.551721     -1.252107     -0.028608
  B       0.144709     -1.091189     -0.698789
  B      -0.385276      0.875639      0.879345
  B      -1.154560      1.603775     -0.269506
  B      -0.866753      0.128695     -0.747891
6
Coordinates from ORCA-job B6_random_3d_seed1000_d2.20_q0_m1_R2SCAN-3C E -148.712672675214
  B       0.712824     -0.236860      0.819305
  B       1.534111     -1.301649     -0.006245
  B       0.159430     -1.101587     -0.711911
  B      -0.387327      0.900951      0.887103
  B      -1.205037      1.592007     -0.245488
  B      -0.814002      0.147139     -0.742765
6
Coordinates from ORCA-job B6_random_3d_seed1000_d2.20_q0_m1_R2SCAN-3C E -148.714419667207
  B       0.701495     -0.194184      0.741345
  B       1.508148     -1.347468      0.022694
  B       0.170847     -1.130898     -0.735071
  B      -0.396379      0.934222      0.909994
  B      -1.252674      1.569441     -0.217228
  B      -0.731437      0.168888     -0.721734
6
Coordinates from ORCA-job B6_random_3d_seed1000_d2.20_q0_m1_R2SCAN-3C E -148.715637772633
  B       0.672846     -0.166095      0.665444
  B       1.490899     -1.365653      0.030210
  B       0.178991     -1.162667     -0.742320
  B      -0.416598      0.957743      0.933142
  B      -1.270124      1.555403     -0.205816
  B      -0.656015      0.181269     -0.680661
6
Coordinates from ORCA-job B6_random_3d_seed1000_d2.20_q0_m1_R2SCAN-3C E -148.716484035523
  B       0.666227     -0.156985      0.653855
  B       1.491952     -1.341021      0.017254
  B       0.163048     -1.180282     -0.727547
  B      -0.436910      0.941653      0.941814
  B      -1.241383      1.556398     -0.209878
  B      -0.642935      0.180237     -0.675498
6
Coordinates from ORCA-job B6_random_3d_seed1000_d2.20_q0_m1_R2SCAN-3C E -148.717436707932
  B       0.674196     -0.157738      0.653489
  B       1.513078     -1.315803     -0.009656
  B       0.139257     -1.199307     -0.687382
  B      -0.472857      0.904882      0.945062
  B      -1.208978      1.581752     -0.223753
  B      -0.644695      0.186214     -0.677760
6
Coordinates from ORCA-job B6_random_3d_seed1000_d2.20_q0_m1_R2SCAN-3C E -148.717534861460
  B       0.674609     -0.151588      0.648995
  B       1.517183     -1.310901     -0.013761
  B       0.131090     -1.208599     -0.681807
  B      -0.482537      0.897858      0.949596
  B      -1.202556      1.587399     -0.224132
  B      -0.637789      0.185831     -0.678891
6
Coordinates from ORCA-job B6_random_3d_seed1000_d2.20_q0_m1_R2SCAN-3C E -148.717556470415
  B       0.676774     -0.150898      0.649651
  B       1.517300     -1.312789     -0.012728
  B       0.130205     -1.207046     -0.681406
  B      -0.481564      0.896386      0.949442
  B      -1.205196      1.588249     -0.224074
  B      -0.637519      0.186098     -0.680885
6
Coordinates from ORCA-job B6_random_3d_seed1000_d2.20_q0_m1_R2SCAN-3C E -148.717594671450
  B       0.680828     -0.147726      0.646218
  B       1.515691     -1.319775     -0.008747
  B       0.129843     -1.204621     -0.681112
  B      -0.480061      0.895090      0.948753
  B      -1.213511      1.587923     -0.221935
  B      -0.632789      0.189108     -0.683178
6
Coordinates from ORCA-job B6_random_3d_seed1000_d2.20_q0_m1_R2SCAN-3C E -148.717644607674
  B       0.689480     -0.142548      0.643149
  B       1.512305     -1.328206     -0.002175
  B       0.127657     -1.200505     -0.679808
  B      -0.477629      0.890914      0.946545
  B      -1.223681      1.585267     -0.218057
  B      -0.628131      0.195077     -0.689653
6
Coordinates from ORCA-job B6_random_3d_seed1000_d2.20_q0_m1_R2SCAN-3C E -148.717697147210
  B       0.698980     -0.135499      0.635165
  B       1.506820     -1.338434      0.004575
  B       0.125751     -1.196874     -0.675625
  B      -0.477405      0.885743      0.944300
  B      -1.235089      1.580662     -0.213201
  B      -0.619058      0.204402     -0.695213
6
Coordinates from ORCA-job B6_random_3d_seed1000_d2.20_q0_m1_R2SCAN-3C E -148.717721593135
  B       0.705342     -0.131571      0.632188
  B       1.503184     -1.342306      0.008413
  B       0.123680     -1.194557     -0.672787
  B      -0.477369      0.881993      0.942231
  B      -1.239037      1.576114     -0.209917
  B      -0.615799      0.210327     -0.700128
6
Coordinates from ORCA-job B6_random_3d_seed1000_d2.20_q0_m1_R2SCAN-3C E -148.717723785612
  B       0.706159     -0.130962      0.631159
  B       1.502454     -1.342789      0.008271
  B       0.123622     -1.194478     -0.671197
  B      -0.478212      0.881225      0.941872
  B      -1.239167      1.575380     -0.209367
  B      -0.614857      0.211625     -0.700739
6
Coordinates from ORCA-job B6_random_3d_seed1000_d2.20_q0_m1_R2SCAN-3C E -148.717723858420
  B       0.706216     -0.131003      0.631297
  B       1.502573     -1.342670      0.008301
  B       0.123458     -1.194432     -0.671094
  B      -0.478195      0.881114      0.941793
  B      -1.239012      1.575329     -0.209282
  B      -0.615040      0.211662     -0.701016
