6
Coordinates from ORCA-job B6_random_3d_seed1000_d1.60_q0_m1_R2SCAN-3C E -148.717727302807
  B           0.76653990891825     -0.41732834511829      1.06312118317161
  B           1.52527834746480     -1.31552408663565      0.06151393651140
  B           0.24596995000587     -0.68796849327925     -0.61663426737405
  B          -0.15407979162573      0.76953696858853      0.54609843249365
  B          -1.26362009679657      1.54763865739679     -0.26241755844179
  B          -1.12008831796662      0.10364528904787     -0.79168172636082
