6
Coordinates from ORCA-job B6_random_3d_seed1000_d1.60_q0_m1_R2SCAN-3C E -148.571782897048
  B       0.489294     -0.507228      1.005028
  B       1.276664     -0.143065     -0.361258
  B      -0.026985     -1.166601     -0.439514
  B      -0.544866      0.571787      0.853310
  B      -0.077705      1.213510     -0.540405
  B      -1.116401      0.031596     -0.517161
6
Coordinates from ORCA-job B6_random_3d_seed1000_d1.60_q0_m1_R2SCAN-3C E -148.596612101690
  B       0.531210     -0.519881      1.029325
  B       1.296173     -0.176136     -0.335521
  B      -0.021407     -1.170299     -0.472343
  B      -0.545340      0.606221      0.875417
  B      -0.112140      1.223305     -0.550076
  B      -1.148496      0.036789     -0.546802
6
Coordinates from ORCA-job B6_random_3d_seed1000_d1.60_q0_m1_R2SCAN-3C E -148.612164747580
  B       0.571115     -0.521439      1.055275
  B       1.308966     -0.218538     -0.317864
  B      -0.016683     -1.168761     -0.504086
  B      -0.544577      0.639424      0.898115
  B      -0.147232      1.235534     -0.547678
  B      -1.171589      0.033779     -0.583761
6
Coordinates from ORCA-job B6_random_3d_seed1000_d1.60_q0_m1_R2SCAN-3C E -148.622470553021
  B       0.600426     -0.514814      1.079249
  B       1.320457     -0.268805     -0.307480
  B      -0.011009     -1.163011     -0.534133
  B      -0.540850      0.670323      0.918609
  B      -0.185867      1.252091     -0.537924
  B      -1.183157      0.024216     -0.618320
6
Coordinates from ORCA-job B6_random_3d_seed1000_d1.60_q0_m1_R2SCAN-3C E -148.633819846800
  B       0.629969     -0.497440      1.108121
  B       1.338894     -0.349921     -0.297354
  B      -0.002851     -1.152554     -0.574384
  B      -0.531133      0.711369      0.944540
  B      -0.249406      1.282898     -0.517800
  B      -1.185473      0.005648     -0.663124
6
Coordinates from ORCA-job B6_random_3d_seed1000_d1.60_q0_m1_R2SCAN-3C E -148.645146930763
  B       0.655072     -0.465462      1.136400
  B       1.357347     -0.452387     -0.281261
  B       0.001649     -1.133473     -0.626043
  B      -0.506527      0.757159      0.975523
  B      -0.335228      1.316470     -0.488360
  B      -1.172313     -0.022306     -0.716258
6
Coordinates from ORCA-job B6_random_3d_seed1000_d1.60_q0_m1_R2SCAN-3C E -148.654870540552
  B       0.670321     -0.428835      1.152662
  B       1.379324     -0.548415     -0.253903
  B       0.000301     -1.111523     -0.674443
  B      -0.469283      0.789032      1.001838
  B      -0.426353      1.341937     -0.464104
  B      -1.154310     -0.042197     -0.762050
6
Coordinates from ORCA-job B6_random_3d_seed1000_d1.60_q0_m1_R2SCAN-3C E -148.663629931642
  B       0.675341     -0.398913      1.152159
  B       1.408967     -0.623930     -0.224320
  B       0.002341     -1.100327     -0.701473
  B      -0.435671      0.797935      1.013083
  B      -0.505417      1.365402     -0.450288
  B      -1.145561     -0.040167     -0.789161
6
Coordinates from ORCA-job B6_random_3d_seed1000_d1.60_q0_m1_R2SCAN-3C E -148.670621827883
  B       0.668757     -0.380618      1.136245
  B       1.438050     -0.669682     -0.202967
  B       0.009243     -1.100964     -0.702026
  B      -0.415031      0.786431      1.005733
  B      -0.557586      1.388050     -0.443962
  B      -1.143432     -0.023217     -0.793024
6
Coordinates from ORCA-job B6_random_3d_seed1000_d1.60_q0_m1_R2SCAN-3C E -148.678729982500
  B       0.660852     -0.360648      1.106493
  B       1.476255     -0.739561     -0.176903
  B       0.024963     -1.100991     -0.692548
  B      -0.395276      0.773638      0.984039
  B      -0.633588      1.428121     -0.428188
  B      -1.133205     -0.000558     -0.792893
6
Coordinates from ORCA-job B6_random_3d_seed1000_d1.60_q0_m1_R2SCAN-3C E -148.686406518261
  B       0.657428     -0.336832      1.063363
  B       1.504924     -0.830994     -0.142682
  B       0.046404     -1.089011     -0.679114
  B      -0.372737      0.767055      0.949380
  B      -0.731787      1.469054     -0.396884
  B      -1.104232      0.020728     -0.794063
6
Coordinates from ORCA-job B6_random_3d_seed1000_d1.60_q0_m1_R2SCAN-3C E -148.693715327046
  B       0.666920     -0.333628      1.034251
  B       1.529007     -0.907644     -0.119675
  B       0.067686     -1.079085     -0.667935
  B      -0.369349      0.776712      0.922156
  B      -0.812578      1.506260     -0.375695
  B      -1.081686      0.037385     -0.793102
6
Coordinates from ORCA-job B6_random_3d_seed1000_d1.60_q0_m1_R2SCAN-3C E -148.699493480846
  B       0.680218     -0.347725      1.017878
  B       1.546290     -0.959954     -0.110920
  B       0.083500     -1.067298     -0.654731
  B      -0.380144      0.790517      0.900701
  B      -0.868973      1.536338     -0.369213
  B      -1.060890      0.048123     -0.783714
6
Coordinates from ORCA-job B6_random_3d_seed1000_d1.60_q0_m1_R2SCAN-3C E -148.702214320934
  B       0.686670     -0.354742      1.008085
  B       1.557013     -0.994532     -0.105789
  B       0.091815     -1.055671     -0.645818
  B      -0.384422      0.795423      0.886020
  B      -0.906940      1.554061     -0.366966
  B      -1.044136      0.055460     -0.775532
6
Coordinates from ORCA-job B6_random_3d_seed1000_d1.60_q0_m1_R2SCAN-3C E -148.705083232999
  B       0.693739     -0.354782      0.993020
  B       1.571115     -1.047854     -0.092594
  B       0.104071     -1.040070     -0.638090
  B      -0.381672      0.799271      0.865546
  B      -0.964537      1.575232     -0.358495
  B      -1.022716      0.068203     -0.769388
6
Coordinates from ORCA-job B6_random_3d_seed1000_d1.60_q0_m1_R2SCAN-3C E -148.707751169289
  B       0.706726     -0.344496      0.973966
  B       1.585751     -1.127744     -0.066490
  B       0.123338     -1.020808     -0.637728
  B      -0.369336      0.808636      0.841288
  B      -1.048401      1.597699     -0.338362
  B      -0.998077      0.086713     -0.772674
6
Coordinates from ORCA-job B6_random_3d_seed1000_d1.60_q0_m1_R2SCAN-3C E -148.709055971072
  B       0.722474     -0.330048      0.957934
  B       1.591143     -1.200740     -0.037353
  B       0.142572     -1.003969     -0.644353
  B      -0.353276      0.821049      0.821432
  B      -1.124403      1.609476     -0.314153
  B      -0.978510      0.104231     -0.783506
6
Coordinates from ORCA-job B6_random_3d_seed1000_d1.60_q0_m1_R2SCAN-3C E -148.709687023164
  B       0.732969     -0.320400      0.951059
  B       1.585666     -1.234360     -0.019736
  B       0.152487     -0.994546     -0.651675
  B      -0.341894      0.828926      0.811724
  B      -1.160219      1.607136     -0.298595
  B      -0.969009      0.113244     -0.792777
6
Coordinates from ORCA-job B6_random_3d_seed1000_d1.60_q0_m1_R2SCAN-3C E -148.710687350582
  B       0.750142     -0.307042      0.944551
  B       1.566596     -1.271883      0.005577
  B       0.165733     -0.979481     -0.664705
  B      -0.323703      0.840130      0.797138
  B      -1.202371      1.592340     -0.275588
  B      -0.956399      0.125937     -0.806974
6
Coordinates from ORCA-job B6_random_3d_seed1000_d1.60_q0_m1_R2SCAN-3C E -148.711236380292
  B       0.766128     -0.298506      0.943668
  B       1.545307     -1.297917      0.024659
  B       0.177245     -0.964170     -0.675946
  B      -0.308246      0.849453      0.783108
  B      -1.232941      1.574616     -0.258268
  B      -0.947492      0.136525     -0.817222
6
Coordinates from ORCA-job B6_random_3d_seed1000_d1.60_q0_m1_R2SCAN-3C E -148.711390854360
  B       0.776542     -0.294328      0.944814
  B       1.533237     -1.318172      0.037003
  B       0.186791     -0.951706     -0.682717
  B      -0.297166      0.855381      0.771205
  B      -1.255840      1.564923     -0.247577
  B      -0.943564      0.143902     -0.822730
6
Coordinates from ORCA-job B6_random_3d_seed1000_d1.60_q0_m1_R2SCAN-3C E -148.711485946870
  B       0.783718     -0.292292      0.947427
  B       1.524494     -1.334861      0.047215
  B       0.195619     -0.938819     -0.688034
  B      -0.286161      0.859054      0.758910
  B      -1.274507      1.558002     -0.239184
  B      -0.943164      0.148916     -0.826334
6
Coordinates from ORCA-job B6_random_3d_seed1000_d1.60_q0_m1_R2SCAN-3C E -148.711662114478
  B       0.792564     -0.292414      0.955299
  B       1.511708     -1.357516      0.061882
  B       0.210038     -0.914011     -0.695140
  B      -0.266555      0.862127      0.735788
  B      -1.299978      1.548147     -0.227521
  B      -0.947777      0.153668     -0.830309
6
Coordinates from ORCA-job B6_random_3d_seed1000_d1.60_q0_m1_R2SCAN-3C E -148.712077942495
  B       0.801502     -0.298046      0.973505
  B       1.494586     -1.381850      0.079064
  B       0.230663     -0.870809     -0.701349
  B      -0.235861      0.859968      0.696095
  B      -1.327443      1.535619     -0.214099
  B      -0.963446      0.155118     -0.833216
6
Coordinates from ORCA-job B6_random_3d_seed1000_d1.60_q0_m1_R2SCAN-3C E -148.712544611661
  B       0.802935     -0.304985      0.990583
  B       1.486809     -1.388040      0.085327
  B       0.240804     -0.839828     -0.702291
  B      -0.215477      0.851575      0.669281
  B      -1.334558      1.530074     -0.210526
  B      -0.980514      0.151204     -0.832374
6
Coordinates from ORCA-job B6_random_3d_seed1000_d1.60_q0_m1_R2SCAN-3C E -148.713051058034
  B       0.804948     -0.312824      1.005400
  B       1.479825     -1.394230      0.090539
  B       0.250913     -0.809131     -0.699716
  B      -0.198327      0.841606      0.641068
  B      -1.341703      1.526225     -0.207805
  B      -0.995654      0.148354     -0.829486
6
Coordinates from ORCA-job B6_random_3d_seed1000_d1.60_q0_m1_R2SCAN-3C E -148.713684628396
  B       0.809456     -0.322124      1.025496
  B       1.467867     -1.403167      0.097864
  B       0.265018     -0.765748     -0.695725
  B      -0.175241      0.826986      0.602608
  B      -1.351123      1.519488     -0.203662
  B      -1.015976      0.144565     -0.826580
6
Coordinates from ORCA-job B6_random_3d_seed1000_d1.60_q0_m1_R2SCAN-3C E -148.715257362651
  B       0.797833     -0.347034      1.048445
  B       1.475639     -1.377321      0.088711
  B       0.264869     -0.729839     -0.679190
  B      -0.162874      0.796321      0.570428
  B      -1.326412      1.528427     -0.219841
  B      -1.049056      0.129446     -0.808553
6
Coordinates from ORCA-job B6_random_3d_seed1000_d1.60_q0_m1_R2SCAN-3C E -148.716994474357
  B       0.771516     -0.407269      1.067233
  B       1.514999     -1.315292      0.070517
  B       0.254608     -0.695049     -0.639987
  B      -0.162519      0.747179      0.531674
  B      -1.272374      1.563162     -0.261264
  B      -1.106230      0.107270     -0.768174
6
Coordinates from ORCA-job B6_random_3d_seed1000_d1.60_q0_m1_R2SCAN-3C E -148.717188243563
  B       0.766006     -0.410502      1.070610
  B       1.523791     -1.296699      0.063311
  B       0.244551     -0.715033     -0.646229
  B      -0.165765      0.756324      0.554386
  B      -1.253550      1.565434     -0.266703
  B      -1.115032      0.100477     -0.775375
6
Coordinates from ORCA-job B6_random_3d_seed1000_d1.60_q0_m1_R2SCAN-3C E -148.717036584544
  B       0.777360     -0.410307      1.087109
  B       1.505780     -1.314372      0.073599
  B       0.256418     -0.678127     -0.649859
  B      -0.142062      0.754120      0.532837
  B      -1.267811      1.547207     -0.258457
  B      -1.129685      0.101480     -0.785230
6
Coordinates from ORCA-job B6_random_3d_seed1000_d1.60_q0_m1_R2SCAN-3C E -148.717427388307
  B       0.775325     -0.410642      1.068232
  B       1.517133     -1.317273      0.072786
  B       0.253623     -0.697749     -0.639603
  B      -0.157126      0.762256      0.540554
  B      -1.271779      1.554262     -0.257895
  B      -1.117176      0.109147     -0.784074
6
Coordinates from ORCA-job B6_random_3d_seed1000_d1.60_q0_m1_R2SCAN-3C E -148.717545308126
  B       0.768731     -0.415687      1.066073
  B       1.525432     -1.308545      0.066228
  B       0.248009     -0.701909     -0.631820
  B      -0.160950      0.762075      0.544489
  B      -1.262440      1.557187     -0.263385
  B      -1.118782      0.106879     -0.781585
6
Coordinates from ORCA-job B6_random_3d_seed1000_d1.60_q0_m1_R2SCAN-3C E -148.717671781200
  B       0.764853     -0.418097      1.063535
  B       1.530817     -1.307384      0.060179
  B       0.242881     -0.701228     -0.620277
  B      -0.161197      0.766418      0.547774
  B      -1.258525      1.553989     -0.264744
  B      -1.118829      0.106303     -0.786468
6
Coordinates from ORCA-job B6_random_3d_seed1000_d1.60_q0_m1_R2SCAN-3C E -148.717712995723
  B       0.764857     -0.418901      1.064672
  B       1.530122     -1.308823      0.059111
  B       0.241562     -0.695350     -0.615139
  B      -0.156956      0.767260      0.546121
  B      -1.259082      1.550021     -0.263603
  B      -1.120502      0.105794     -0.791163
6
Coordinates from ORCA-job B6_random_3d_seed1000_d1.60_q0_m1_R2SCAN-3C E -148.717721062046
  B       0.766394     -0.418124      1.065145
  B       1.528057     -1.311318      0.060258
  B       0.242010     -0.692368     -0.614456
  B      -0.154248      0.767659      0.544810
  B      -1.261844      1.548148     -0.261750
  B      -1.120370      0.106003     -0.794008
6
Coordinates from ORCA-job B6_random_3d_seed1000_d1.60_q0_m1_R2SCAN-3C E -148.717721988952
  B       0.766762     -0.417973      1.064989
  B       1.527504     -1.311729      0.060744
  B       0.242204     -0.691942     -0.614557
  B      -0.153654      0.767627      0.544651
  B      -1.262588      1.548086     -0.261360
  B      -1.120228      0.105931     -0.794466
6
Coordinates from ORCA-job B6_random_3d_seed1000_d1.60_q0_m1_R2SCAN-3C E -148.717722261310
  B       0.766770     -0.417895      1.064730
  B       1.527315     -1.311844      0.060935
  B       0.242340     -0.692020     -0.614722
  B      -0.153522      0.767717      0.544768
  B      -1.262891      1.548194     -0.261267
  B      -1.120011      0.105849     -0.794444
6
Coordinates from ORCA-job B6_random_3d_seed1000_d1.60_q0_m1_R2SCAN-3C E -148.717722454255
  B       0.766617     -0.417895      1.064523
  B       1.527221     -1.311934      0.061041
  B       0.242532     -0.692055     -0.614896
  B      -0.153420      0.767865      0.544822
  B      -1.263086      1.548269     -0.261250
  B      -1.119863      0.105750     -0.794239
6
Coordinates from ORCA-job B6_random_3d_seed1000_d1.60_q0_m1_R2SCAN-3C E -148.717722832622
  B       0.766175     -0.417942      1.064181
  B       1.527032     -1.312231      0.061213
  B       0.243027     -0.691968     -0.615298
  B      -0.153137      0.768348      0.544834
  B      -1.263491      1.548287     -0.261203
  B      -1.119606      0.105506     -0.793728
6
Coordinates from ORCA-job B6_random_3d_seed1000_d1.60_q0_m1_R2SCAN-3C E -148.717723332810
  B       0.765444     -0.418055      1.063798
  B       1.526737     -1.312830      0.061487
  B       0.243873     -0.691537     -0.615904
  B      -0.152600      0.769171      0.544610
  B      -1.264096      1.548129     -0.261047
  B      -1.119358      0.105121     -0.792945
6
Coordinates from ORCA-job B6_random_3d_seed1000_d1.60_q0_m1_R2SCAN-3C E -148.717723789018
  B       0.764730     -0.418153      1.063533
  B       1.526396     -1.313633      0.061799
  B       0.244784     -0.690834     -0.616524
  B      -0.151989      0.770124      0.544180
  B      -1.264731      1.547766     -0.260746
  B      -1.119190      0.104731     -0.792242
6
Coordinates from ORCA-job B6_random_3d_seed1000_d1.60_q0_m1_R2SCAN-3C E -148.717724033349
  B       0.764430     -0.418149      1.063480
  B       1.526212     -1.314147      0.062008
  B       0.245237     -0.690317     -0.616842
  B      -0.151680      0.770625      0.543831
  B      -1.264994      1.547454     -0.260462
  B      -1.119205      0.104534     -0.792015
6
Coordinates from ORCA-job B6_random_3d_seed1000_d1.60_q0_m1_R2SCAN-3C E -148.717724142634
  B       0.764375     -0.418109      1.063476
  B       1.526100     -1.314444      0.062168
  B       0.245434     -0.689929     -0.616945
  B      -0.151556      0.770773      0.543538
  B      -1.265079      1.547255     -0.260242
  B      -1.119274      0.104453     -0.791994
6
Coordinates from ORCA-job B6_random_3d_seed1000_d1.60_q0_m1_R2SCAN-3C E -148.717723582491
  B       0.764053     -0.417771      1.063157
  B       1.525252     -1.316406      0.063117
  B       0.246837     -0.688124     -0.617691
  B      -0.150692      0.771813      0.542191
  B      -1.266324      1.546426     -0.259063
  B      -1.119127      0.104062     -0.791711
6
Coordinates from ORCA-job B6_random_3d_seed1000_d1.60_q0_m1_R2SCAN-3C E -148.717724242519
  B       0.764367     -0.417944      1.063364
  B       1.525826     -1.315046      0.062462
  B       0.245823     -0.689429     -0.617170
  B      -0.151366      0.771034      0.543199
  B      -1.265443      1.547053     -0.259876
  B      -1.119207      0.104332     -0.791978
6
Coordinates from ORCA-job B6_random_3d_seed1000_d1.60_q0_m1_R2SCAN-3C E -148.717724359704
  B       0.764486     -0.417922      1.063399
  B       1.525966     -1.314703      0.062279
  B       0.245538     -0.689816     -0.617070
  B      -0.151627      0.770833      0.543552
  B      -1.265161      1.547231     -0.260087
  B      -1.119203      0.104377     -0.792073
6
Coordinates from ORCA-job B6_random_3d_seed1000_d1.60_q0_m1_R2SCAN-3C E -148.717724574287
  B       0.764739     -0.417937      1.063453
  B       1.526203     -1.314150      0.062011
  B       0.245096     -0.690260     -0.616810
  B      -0.152080      0.770385      0.544037
  B      -1.264627      1.547525     -0.260464
  B      -1.119330      0.104437     -0.792227
6
Coordinates from ORCA-job B6_random_3d_seed1000_d1.60_q0_m1_R2SCAN-3C E -148.717724955827
  B       0.765126     -0.417836      1.063477
  B       1.526355     -1.313727      0.061733
  B       0.244692     -0.690601     -0.616592
  B      -0.152693      0.769926      0.544670
  B      -1.264026      1.547796     -0.260888
  B      -1.119454      0.104441     -0.792400
6
Coordinates from ORCA-job B6_random_3d_seed1000_d1.60_q0_m1_R2SCAN-3C E -148.717725778287
  B       0.765868     -0.417630      1.063458
  B       1.526426     -1.313374      0.061333
  B       0.244305     -0.690645     -0.616281
  B      -0.153767      0.769187      0.545704
  B      -1.263064      1.548151     -0.261679
  B      -1.119770      0.104312     -0.792536
6
Coordinates from ORCA-job B6_random_3d_seed1000_d1.60_q0_m1_R2SCAN-3C E -148.717726632471
  B       0.766577     -0.417403      1.063368
  B       1.526172     -1.313715      0.061132
  B       0.244473     -0.689921     -0.616147
  B      -0.154588      0.768749      0.546460
  B      -1.262532      1.548236     -0.262380
  B      -1.120102      0.104055     -0.792433
6
Coordinates from ORCA-job B6_random_3d_seed1000_d1.60_q0_m1_R2SCAN-3C E -148.717727168540
  B       0.766837     -0.417261      1.063224
  B       1.525655     -1.314694      0.061232
  B       0.245226     -0.688718     -0.616335
  B      -0.154690      0.768947      0.546584
  B      -1.262798      1.547975     -0.262655
  B      -1.120229      0.103752     -0.792050
6
Coordinates from ORCA-job B6_random_3d_seed1000_d1.60_q0_m1_R2SCAN-3C E -148.717727283660
  B       0.766722     -0.417297      1.063175
  B       1.525416     -1.315234      0.061386
  B       0.245686     -0.688178     -0.616486
  B      -0.154374      0.769261      0.546321
  B      -1.263261      1.547763     -0.262569
  B      -1.120189      0.103685     -0.791827
6
Coordinates from ORCA-job B6_random_3d_seed1000_d1.60_q0_m1_R2SCAN-3C E -148.717727278894
  B       0.766440     -0.417348      1.063073
  B       1.525142     -1.315803      0.061620
  B       0.246226     -0.687688     -0.616741
  B      -0.153890      0.769733      0.545930
  B      -1.263865      1.547518     -0.262329
  B      -1.120053      0.103587     -0.791552
6
Coordinates from ORCA-job B6_random_3d_seed1000_d1.60_q0_m1_R2SCAN-3C E -148.717727302807
  B       0.766540     -0.417328      1.063121
  B       1.525278     -1.315524      0.061514
  B       0.245970     -0.687968     -0.616634
  B      -0.154080      0.769537      0.546098
  B      -1.263620      1.547639     -0.262418
  B      -1.120088      0.103645     -0.791682
